Hf Ta                                   
    1.000000000000000     
    13.4190730883918707   -0.0079053068847704   -0.0257832727473931
    -6.7893447605007768    9.4956395000453799    0.0167562533089368
     0.0496995476039162   -0.0075703445606220   18.9685704727530577
  Hf             Ta           
              20             108
Direct
  0.0610699098807737  0.1247475602170662  0.0622793634197539
  0.3120672092541737  0.8702497200368153  0.0628041362422863
  0.0603628630076688  0.8760426962733849  0.8114855531846344
  0.4348528650168957  0.6247116179981478  0.9338612185085183
  0.8123149039150693  0.3750518924406969  0.5616479469910559
  0.4440827126770494  0.3809718445101572  0.4391415006804569
  0.8116706838507819  0.3714867171576501  0.8106892183819687
  0.6842384883173885  0.3760383988255854  0.9400530561904697
  0.1871201461579253  0.6254707008352994  0.6837651760115705
  0.5677721207576008  0.1312903920690884  0.0620346757952245
  0.1872228590444873  0.6260064445970960  0.1891876000469365
  0.4402936134277266  0.8787885711329422  0.4381973905002691
  0.5610167546917689  0.6233298020412769  0.5628282315012402
  0.8122386110115127  0.3723489962745997  0.3145137017388340
  0.6864081464605556  0.3693690854591907  0.1817569818214267
  0.6911117897651164  0.6290832406511111  0.1912213022044371
  0.8141823853690389  0.1256032021416305  0.0623472508240516
  0.1853132115090070  0.1218700560536869  0.4384633706110833
  0.1900863980197386  0.6247438942369722  0.9376043068930792
  0.5608596196438210  0.6297763310285038  0.0630478399418015
  0.9367605933216933  0.1231089683568687  0.1933199274682216
  0.5630047917928179  0.8730268451249685  0.8118361601103411
  0.3070908856611662  0.1223764349356808  0.0621573075151694
  0.1866981956785978  0.1224419327936990  0.9339512199973272
  0.3179535103904518  0.6261283744355012  0.5591581802698071
  0.1859520023352620  0.3699841484015639  0.1875721932280254
  0.9378387673753259  0.6237975003038573  0.6870658905166942
  0.6870704659606159  0.8735248668502660  0.6870091392057968
  0.5630732982282038  0.6238651884497041  0.8087561812929134
  0.9357374692201494  0.6229355897927054  0.4382886764299860
  0.3107071577635077  0.3760581104804582  0.3117571398240488
  0.0628695163291034  0.8769893805339982  0.5615335595396602
  0.9365716021514437  0.1221335478019573  0.6868461496638862
  0.5656066669631922  0.3774133691544201  0.3116578830406856
  0.0619736541536057  0.1269994132716977  0.3123132719500413
  0.5455141322761078  0.3707860129397313  0.0637170256127037
  0.8291428870422590  0.3883969369692575  0.0611178565934724
  0.5613347042954449  0.3758425531293206  0.8096946051192224
  0.9410026415678520  0.6290981009644753  0.9352531361697471
  0.0550134719585016  0.6252742803267162  0.0624178715118919
  0.5521472349809121  0.8715921246996602  0.0614359585674430
  0.1887290476316345  0.1262735564196151  0.1904409707567401
  0.5600715079082373  0.6230087258561355  0.3165905969752223
  0.9342489429687005  0.8727813213905343  0.4381197348839764
  0.4295004345085211  0.1189932668239047  0.1893413788084651
  0.3022929671969654  0.3673747335958842  0.5649741701108509
  0.6921713480686565  0.1245888663413556  0.9292816904730196
  0.4427641612948945  0.8796110440171476  0.6875449498312892
  0.9397490645495760  0.1242567959103053  0.4382590722125176
  0.6915298550529700  0.8784695255644143  0.9373940629207678
  0.8136124320907949  0.1198462925162323  0.8090386633540958
  0.1806376600307112  0.3613464855404391  0.9370663098321372
  0.4366552848748877  0.3756005459406010  0.6867744742425597
  0.6835746049442059  0.3751447033038551  0.6877226270708551
  0.3101523492780077  0.8733835739971233  0.5655478657262800
  0.0656638010304645  0.6275928209966338  0.8113236627711895
  0.0636682862392924  0.6314250892889099  0.5586974852945478
  0.0626740011505602  0.3759396033367287  0.3119512696545235
  0.8124945182465444  0.6301289521307109  0.5635241500708107
  0.0637825103126176  0.1299610805935786  0.8108250170315155
  0.3129128238248212  0.1239499881271443  0.5656894948073860
  0.8175728280434515  0.6299872911783517  0.3161371675509211
  0.8152356685503133  0.1235087987606689  0.5630868393308722
  0.9354216183519997  0.8753987993358241  0.6844354759394353
  0.5582282109834882  0.1190584320139026  0.5620726659768969
  0.3136032024760108  0.6270904463766761  0.3158748430872197
  0.9344987142506956  0.3689696489495740  0.1847836059754833
  0.5563146591421481  0.1184855152880484  0.3147315644550650
  0.1878678333284447  0.8789645856043139  0.6852609897921325
  0.4380513435334555  0.3708347072885956  0.9358069452634302
  0.5676339212494684  0.3696904482579046  0.5659405497567859
  0.9374457372706320  0.3651958376620746  0.6868773681350077
  0.1880082448830254  0.8692553796409078  0.4379742826088628
  0.4481794649922538  0.8913949056015210  0.9328696924336282
  0.9355328490677116  0.8752803640999255  0.9396015546935100
  0.0612688906039430  0.8721386667457743  0.0628116044170562
  0.1848697750016234  0.6216446323187358  0.4379511802957305
  0.6881584817388022  0.8776286562665154  0.4388934542665739
  0.4340352977596334  0.6252320448191375  0.6882222676459095
  0.1874066537853517  0.1241486571584747  0.6880919286200576
  0.5551342688286122  0.1186188475505364  0.8111768900355526
  0.3138455080987368  0.3768126171212801  0.8128462869978810
  0.3101743356963346  0.8739892664022705  0.8107866578412207
  0.6876972369366916  0.6312320841988186  0.9334268388473910
  0.0640282661945800  0.3770150599593022  0.5632304140162365
  0.3154320066128460  0.1286530664178800  0.8111236764302111
  0.1855389415858195  0.3775959370480965  0.4377192537896533
  0.6941930056587057  0.1332101614578530  0.4381977227396808
  0.1866464881543070  0.3701647056517864  0.6883507595243343
  0.9402350945479658  0.6285534530567252  0.1889650173563500
  0.0651186825812778  0.6323685314906232  0.3166295113765251
  0.3212975794185364  0.6186499725285741  0.0682669564204264
  0.5656273723112972  0.8741707016402269  0.3121180958721177
  0.6881415047439339  0.8785648109346829  0.1868445115373530
  0.3141762449870411  0.1257726134677273  0.3119529722248600
  0.4358496781818925  0.6245775511042351  0.1933501659135985
  0.4373272585898546  0.1250890513420278  0.6865925702541976
  0.4334573137045188  0.3703176837186868  0.1891813727555750
  0.0705966428589159  0.3875938004404833  0.0620752788973507
  0.6891466994249672  0.6249593551922737  0.6888783595995412
  0.4449975819464460  0.8806038926048564  0.1907397587788340
  0.0634945237495149  0.8788005847506906  0.3145816783504958
  0.3112219422569705  0.8756694764437538  0.3102729841812726
  0.6783032690892162  0.3736218774573633  0.4376933436356864
  0.4360498895338636  0.6272352676808394  0.4342550327107675
  0.4292924327775587  0.1209717564897989  0.9352773895448626
  0.8146618494420634  0.1210597903346260  0.3156354516009747
  0.6898877924017264  0.1206571284857302  0.1954867289661685
  0.8109614704219708  0.8733193655471295  0.3126507215822392
  0.9357901657736228  0.1214033488393238  0.9317288645353752
  0.9359774511982110  0.3702964081164512  0.9391468190369210
  0.8124719983896671  0.8728444564972072  0.8117612127801169
  0.4334050602660272  0.1238369460769115  0.4384165995888839
  0.6882510694851875  0.1262781230355245  0.6865389868260166
  0.3136546222516640  0.3710351348261007  0.0620773095353305
  0.8143134256513753  0.8679150474336762  0.0639001434907697
  0.0598982166557546  0.1233208392790190  0.5652384781154911
  0.0629887763236119  0.3758042219567805  0.8119696369441728
  0.8122578922738759  0.6219256786220532  0.0600533874961018
  0.8147200670625918  0.8782318751231373  0.5624654477645094
  0.8063127370341772  0.6229129688758899  0.8111978782745236
  0.6969437109281748  0.6335040757215168  0.4361247659254008
  0.9432763770276177  0.8816575829395320  0.1882481372684752
  0.5658949873787390  0.8799718385941504  0.5655572950410035
  0.9457867832586797  0.3750929091291582  0.4376049229773442
  0.1847280214199792  0.8772113772449706  0.9368415039656448
  0.1830637674629663  0.8787485981501651  0.1901593526425382
  0.3141628999821663  0.6258213742640988  0.8073420738205196
 
  0.00000000E+00  0.00000000E+00  0.00000000E+00
  0.00000000E+00  0.00000000E+00  0.00000000E+00
  0.00000000E+00  0.00000000E+00  0.00000000E+00
  0.00000000E+00  0.00000000E+00  0.00000000E+00
  0.00000000E+00  0.00000000E+00  0.00000000E+00
  0.00000000E+00  0.00000000E+00  0.00000000E+00
  0.00000000E+00  0.00000000E+00  0.00000000E+00
  0.00000000E+00  0.00000000E+00  0.00000000E+00
  0.00000000E+00  0.00000000E+00  0.00000000E+00
  0.00000000E+00  0.00000000E+00  0.00000000E+00
  0.00000000E+00  0.00000000E+00  0.00000000E+00
  0.00000000E+00  0.00000000E+00  0.00000000E+00
  0.00000000E+00  0.00000000E+00  0.00000000E+00
  0.00000000E+00  0.00000000E+00  0.00000000E+00
  0.00000000E+00  0.00000000E+00  0.00000000E+00
  0.00000000E+00  0.00000000E+00  0.00000000E+00
  0.00000000E+00  0.00000000E+00  0.00000000E+00
  0.00000000E+00  0.00000000E+00  0.00000000E+00
  0.00000000E+00  0.00000000E+00  0.00000000E+00
  0.00000000E+00  0.00000000E+00  0.00000000E+00
  0.00000000E+00  0.00000000E+00  0.00000000E+00
  0.00000000E+00  0.00000000E+00  0.00000000E+00
  0.00000000E+00  0.00000000E+00  0.00000000E+00
  0.00000000E+00  0.00000000E+00  0.00000000E+00
  0.00000000E+00  0.00000000E+00  0.00000000E+00
  0.00000000E+00  0.00000000E+00  0.00000000E+00
  0.00000000E+00  0.00000000E+00  0.00000000E+00
  0.00000000E+00  0.00000000E+00  0.00000000E+00
  0.00000000E+00  0.00000000E+00  0.00000000E+00
  0.00000000E+00  0.00000000E+00  0.00000000E+00
  0.00000000E+00  0.00000000E+00  0.00000000E+00
  0.00000000E+00  0.00000000E+00  0.00000000E+00
  0.00000000E+00  0.00000000E+00  0.00000000E+00
  0.00000000E+00  0.00000000E+00  0.00000000E+00
  0.00000000E+00  0.00000000E+00  0.00000000E+00
  0.00000000E+00  0.00000000E+00  0.00000000E+00
  0.00000000E+00  0.00000000E+00  0.00000000E+00
  0.00000000E+00  0.00000000E+00  0.00000000E+00
  0.00000000E+00  0.00000000E+00  0.00000000E+00
  0.00000000E+00  0.00000000E+00  0.00000000E+00
  0.00000000E+00  0.00000000E+00  0.00000000E+00
  0.00000000E+00  0.00000000E+00  0.00000000E+00
  0.00000000E+00  0.00000000E+00  0.00000000E+00
  0.00000000E+00  0.00000000E+00  0.00000000E+00
  0.00000000E+00  0.00000000E+00  0.00000000E+00
  0.00000000E+00  0.00000000E+00  0.00000000E+00
  0.00000000E+00  0.00000000E+00  0.00000000E+00
  0.00000000E+00  0.00000000E+00  0.00000000E+00
  0.00000000E+00  0.00000000E+00  0.00000000E+00
  0.00000000E+00  0.00000000E+00  0.00000000E+00
  0.00000000E+00  0.00000000E+00  0.00000000E+00
  0.00000000E+00  0.00000000E+00  0.00000000E+00
  0.00000000E+00  0.00000000E+00  0.00000000E+00
  0.00000000E+00  0.00000000E+00  0.00000000E+00
  0.00000000E+00  0.00000000E+00  0.00000000E+00
  0.00000000E+00  0.00000000E+00  0.00000000E+00
  0.00000000E+00  0.00000000E+00  0.00000000E+00
  0.00000000E+00  0.00000000E+00  0.00000000E+00
  0.00000000E+00  0.00000000E+00  0.00000000E+00
  0.00000000E+00  0.00000000E+00  0.00000000E+00
  0.00000000E+00  0.00000000E+00  0.00000000E+00
  0.00000000E+00  0.00000000E+00  0.00000000E+00
  0.00000000E+00  0.00000000E+00  0.00000000E+00
  0.00000000E+00  0.00000000E+00  0.00000000E+00
  0.00000000E+00  0.00000000E+00  0.00000000E+00
  0.00000000E+00  0.00000000E+00  0.00000000E+00
  0.00000000E+00  0.00000000E+00  0.00000000E+00
  0.00000000E+00  0.00000000E+00  0.00000000E+00
  0.00000000E+00  0.00000000E+00  0.00000000E+00
  0.00000000E+00  0.00000000E+00  0.00000000E+00
  0.00000000E+00  0.00000000E+00  0.00000000E+00
  0.00000000E+00  0.00000000E+00  0.00000000E+00
  0.00000000E+00  0.00000000E+00  0.00000000E+00
  0.00000000E+00  0.00000000E+00  0.00000000E+00
  0.00000000E+00  0.00000000E+00  0.00000000E+00
  0.00000000E+00  0.00000000E+00  0.00000000E+00
  0.00000000E+00  0.00000000E+00  0.00000000E+00
  0.00000000E+00  0.00000000E+00  0.00000000E+00
  0.00000000E+00  0.00000000E+00  0.00000000E+00
  0.00000000E+00  0.00000000E+00  0.00000000E+00
  0.00000000E+00  0.00000000E+00  0.00000000E+00
  0.00000000E+00  0.00000000E+00  0.00000000E+00
  0.00000000E+00  0.00000000E+00  0.00000000E+00
  0.00000000E+00  0.00000000E+00  0.00000000E+00
  0.00000000E+00  0.00000000E+00  0.00000000E+00
  0.00000000E+00  0.00000000E+00  0.00000000E+00
  0.00000000E+00  0.00000000E+00  0.00000000E+00
  0.00000000E+00  0.00000000E+00  0.00000000E+00
  0.00000000E+00  0.00000000E+00  0.00000000E+00
  0.00000000E+00  0.00000000E+00  0.00000000E+00
  0.00000000E+00  0.00000000E+00  0.00000000E+00
  0.00000000E+00  0.00000000E+00  0.00000000E+00
  0.00000000E+00  0.00000000E+00  0.00000000E+00
  0.00000000E+00  0.00000000E+00  0.00000000E+00
  0.00000000E+00  0.00000000E+00  0.00000000E+00
  0.00000000E+00  0.00000000E+00  0.00000000E+00
  0.00000000E+00  0.00000000E+00  0.00000000E+00
  0.00000000E+00  0.00000000E+00  0.00000000E+00
  0.00000000E+00  0.00000000E+00  0.00000000E+00
  0.00000000E+00  0.00000000E+00  0.00000000E+00
  0.00000000E+00  0.00000000E+00  0.00000000E+00
  0.00000000E+00  0.00000000E+00  0.00000000E+00
  0.00000000E+00  0.00000000E+00  0.00000000E+00
  0.00000000E+00  0.00000000E+00  0.00000000E+00
  0.00000000E+00  0.00000000E+00  0.00000000E+00
  0.00000000E+00  0.00000000E+00  0.00000000E+00
  0.00000000E+00  0.00000000E+00  0.00000000E+00
  0.00000000E+00  0.00000000E+00  0.00000000E+00
  0.00000000E+00  0.00000000E+00  0.00000000E+00
  0.00000000E+00  0.00000000E+00  0.00000000E+00
  0.00000000E+00  0.00000000E+00  0.00000000E+00
  0.00000000E+00  0.00000000E+00  0.00000000E+00
  0.00000000E+00  0.00000000E+00  0.00000000E+00
  0.00000000E+00  0.00000000E+00  0.00000000E+00
  0.00000000E+00  0.00000000E+00  0.00000000E+00
  0.00000000E+00  0.00000000E+00  0.00000000E+00
  0.00000000E+00  0.00000000E+00  0.00000000E+00
  0.00000000E+00  0.00000000E+00  0.00000000E+00
  0.00000000E+00  0.00000000E+00  0.00000000E+00
  0.00000000E+00  0.00000000E+00  0.00000000E+00
  0.00000000E+00  0.00000000E+00  0.00000000E+00
  0.00000000E+00  0.00000000E+00  0.00000000E+00
  0.00000000E+00  0.00000000E+00  0.00000000E+00
  0.00000000E+00  0.00000000E+00  0.00000000E+00
  0.00000000E+00  0.00000000E+00  0.00000000E+00
  0.00000000E+00  0.00000000E+00  0.00000000E+00
  0.00000000E+00  0.00000000E+00  0.00000000E+00
  0.00000000E+00  0.00000000E+00  0.00000000E+00
