Nb Ta                                   
    1.000000000000000     
    13.2613009235259387    0.0008879696972822   -0.0019846379602003
     0.0008881533289705   13.2624531554622909    0.0014812463890832
    -0.0019842070718502    0.0014809067063688   13.2635975493200888
   Nb   Ta
    48    80
Direct
  0.1252892288609531  0.1246010534522892  0.6250094968380735
  0.3754468170415245  0.8739009728472735  0.1235172110112937
  0.3733649698743944  0.1263606106935438  0.8738690127128453
  0.6247821795305840  0.1226127664144506  0.1276549682013772
  0.4999718019452195  0.2489522813435089  0.7497988956998088
  0.7509218945724675  0.2501645492995278  0.7506456607283757
  0.7484859355988118  0.0004968905810795  0.5008454131981332
  0.3759181692244590  0.8727528769261201  0.3758518708911792
  0.3744789366170042  0.3736667706920871  0.6275023177770646
  0.0020407600171764  0.7487633436902903  0.7489196954834910
  0.3759790325523303  0.6251294936475221  0.6240659370908682
  0.2484385266143543  0.7502219355096323 -0.0012543433223360
  0.5001962614780791  0.4989094807520584  0.0018107990448081
  0.1253243323645853  0.8756732509916968  0.8754609045274538
  0.2483750584201731  0.2503924002644736  0.7497323603572341
  0.6243308360246418  0.3764235654198204  0.1240241403885416
  0.7512530492577858  0.7495477342006740  0.4983601880566831
  0.6260907349605287  0.8751642763934644  0.3752480829459056
  0.2505036116846507  0.4997401101337178  0.5023425058266344
  0.7490286640121295 -0.0001630757227823  0.2488635690899056
  0.0013363769008336 -0.0006487931717132  0.2494372994486280
  0.8739177003887512  0.6260896544676812  0.6256037988087535
  0.3756616922737690  0.1248644448433197  0.3748772944351149
  0.1249313026587754  0.3760880037124310  0.3744564226377367
  0.1248889062518638  0.6255804918548904  0.8760064658999184
  0.2496669782796906  0.7523805691564237  0.2515212539232783
  0.6240408085513268  0.6238243324924485  0.8752937970155167
  0.4983629998361732  0.7504013014717773  0.5002228196831712
  0.0007583195339024  0.0006202545141944  0.7504699594380276
  0.1236703859846588  0.8754504203545709  0.3738524690939611
  0.1261426362684843  0.3729732413180347  0.8759822755067415
  0.3749444343111525  0.3767546148215830  0.3754817066643883
  0.8768226821819464  0.3744529773695058  0.1245232041191125
  0.1249888118080388  0.6243820977257766  0.6236660127614810
  0.5010830843498703  0.7507256711878459 -0.0007331781706210
  0.5009471430254062  0.7500450956976626  0.2506120624780793
  0.4986841415172771  0.0002398425637678  0.2506051786166849
 -0.0008318599480505  0.2508581507975779 -0.0004302702679164
  0.1251446596283377  0.3752361874107786  0.6247381515404681
  0.4999291505291108  0.5021164508253422  0.7476783591867142
  0.6259184977823691  0.1267836844192841  0.8735217826865991
  0.2510383731002077  0.4980653162167987  0.2490699607722484
  0.1239174892563413  0.8758635287021784  0.6254760899678491
  0.7488727595924276  0.7494594763778349  0.7508708392056793
  0.6253579753625983  0.3746233578184502  0.6265029161000149
  0.3737569203875398  0.3757064367864016  0.1237160416675994
  0.0019466545133519 -0.0004355585059111  0.5009137748238078
  0.8736665942595222  0.3742027580748883  0.8737715018352638
 -0.0005308863781021  0.7504831019656580  0.0009319007402300
  0.8771107098837427  0.1249601356947546  0.8747586232294742
  0.8739911442427822  0.1245566606916965  0.6249705170667843
  0.6249678114572302  0.8739744652287291  0.8753489368216723
  0.3762443646521310  0.8761867297143274  0.6260335576597492
  0.8743273063057864  0.8743050019517596  0.8731801489387400
  0.8745516579109422  0.6245424546835825  0.3745454516143114
  0.7497903814439787  0.2507959315114094  0.4994646551479436
  0.6234431257631050  0.6262672505623607  0.1257858266087352
  0.6248534642005226  0.6270975581586175  0.6229823649544309
  0.4997254194769201  0.2516334193881585  0.2497372093245619
  0.3755981333019082  0.8730143902093048  0.8747882091542951
  0.6223025711599608  0.3753485656353733  0.8740484112629651
  0.0015990065185802  0.7485658798355049  0.4991243179260123
  0.7495756748867404  0.4999425419552639  0.2485348040474685
  0.2512443890354540 -0.0006508404055708  0.4994090387803132
  0.7511210984408676  0.4995583660347669 -0.0006402302557059
  0.3774709851259553  0.3767414196166184  0.8738479377299782
  0.2481643983282351  0.7520974874248860  0.5016394321964588
  0.7481801716229923  0.0004917401998522  0.7518604907815973
  0.8737870003742519  0.8763383311511584  0.6250569068995397
  0.1250457931914572  0.8746062085248034  0.1255992664553650
  0.5002889309735080  0.4982125785983735  0.4996657506216210
  0.1237096665999290  0.1262343020200669  0.8762190313363633
  0.6254202799422867  0.8741298265489530  0.6253230799843473
  0.4987787522978644  0.7499121284446543  0.7498281998808839
 -0.0012836147608304  0.4996660191979089  0.2498849630142776
  0.6241851550399536  0.6244805154925003  0.3753300556740131
  0.2479570888319473  0.5021707917821312  0.7512408092343064
  0.4992382457761642  0.2506994129455387  0.4985396855340811
  0.6252005664114837  0.8741939911089669  0.1240120467984720
  0.2484388407353915  0.4988073820263970 -0.0018384711840470
  0.7496130068531560  0.4995692688601277  0.5012122421287423
  0.7508420873709665  0.7491653769989935  0.2493655327422916
  0.1253086429727437  0.3744297352145211  0.1247663048385560
  0.3739971045969498  0.1245028575204856  0.1257515906848288
  0.7480085466334238  0.2495749546761000  0.0018661624188633
  0.1246838260077994  0.1255655483813671  0.1250527176429966
  0.8736481582626385  0.3752629349649979  0.3765909003128677
  0.2504959219747532  0.0007531969151639 -0.0002692911302917
  0.7510744736222730  0.5005795036333784  0.7501116966292262
  0.6262467265263499  0.1259272722231507  0.3754927074253658
  0.2505718223443891 -0.0011730138085700  0.7505475105420705
  0.0009775147416087  0.2508730575697187  0.5003060413190161
  0.4987885392992329  0.0006989010223859  0.5000084026733447
  0.8746272299369149  0.3737384966923104  0.6243995995892114
  0.3753837571477515  0.6243709041133748  0.8772082027632497
  0.2506284623785870  0.7490704385827860  0.7479970179935250
  0.0003332097366321  0.4989049148778450  0.7502870595257118
  0.5007387209712968  0.4982781693880511  0.2507073824938084
  0.8754280347429060  0.6267752739110563  0.8747176965379238
  0.3739052436346145  0.6250904722165558  0.3738052940840865
  0.8746379777769510  0.8761282676523797  0.1258266484181372
 -0.0008138429282083  0.5009195204585307  0.5008930486965177
 -0.0012192281681059  0.7489961151570707  0.2507877271515198
  0.8752988154730270  0.6255265050472493  0.1245931379955750
  0.6249753920114235  0.1247583883213323  0.6237402698631225
  0.5005381273504519 -0.0006752228765587  0.7511835627373299
  0.2522523809994805  0.2502598971869542  0.0007456190609924
  0.8752391182849156  0.1237715967230018  0.3753485889325491
  0.2499616577985960  0.2485232433103616  0.4984738486140071
  0.8770499850772484  0.1233675847797501  0.1251778545532489
  0.1273017634940057  0.6237106774554008  0.3732983288427881
  0.7495879269519816  0.0007504201111062 -0.0015817869795403
  0.8746559818674036  0.8762763487322259  0.3758839383899240
  0.2512263436649751  0.0000430104084689  0.2507961248844148
  0.3743748800037860  0.6255285779344482  0.1249929453360057
  0.7501334831246773  0.2509788598092199  0.2481795721171252
  0.0001933692442395 -0.0021666265513484 -0.0004295266294538
  0.1233981045163248  0.1243686985111699  0.3740396321360024
  0.6264853961549300  0.3747303340625751  0.3749435548515593
  0.1267883512392179  0.6249168474884956  0.1271117407109237
  0.7509522285668803  0.7497835608708769  0.0009192603961130
 -0.0002924320366408  0.2515338319147564  0.2516539176447652
  0.0001540560469242  0.5010366772661037 -0.0013908738940934
  0.0004232366772651  0.2518945564218798  0.7482358419504465
  0.5001329126539815  0.0022906984333587 -0.0016561636721365
  0.3756071490903778  0.1248678430726351  0.6258582245753019
  0.2508854771217442  0.2489414501671476  0.2511380099688572
  0.5004863061564913  0.2476010294448308  0.0021225777277243
 
  0.00000000E+00  0.00000000E+00  0.00000000E+00
  0.00000000E+00  0.00000000E+00  0.00000000E+00
  0.00000000E+00  0.00000000E+00  0.00000000E+00
  0.00000000E+00  0.00000000E+00  0.00000000E+00
  0.00000000E+00  0.00000000E+00  0.00000000E+00
  0.00000000E+00  0.00000000E+00  0.00000000E+00
  0.00000000E+00  0.00000000E+00  0.00000000E+00
  0.00000000E+00  0.00000000E+00  0.00000000E+00
  0.00000000E+00  0.00000000E+00  0.00000000E+00
  0.00000000E+00  0.00000000E+00  0.00000000E+00
  0.00000000E+00  0.00000000E+00  0.00000000E+00
  0.00000000E+00  0.00000000E+00  0.00000000E+00
  0.00000000E+00  0.00000000E+00  0.00000000E+00
  0.00000000E+00  0.00000000E+00  0.00000000E+00
  0.00000000E+00  0.00000000E+00  0.00000000E+00
  0.00000000E+00  0.00000000E+00  0.00000000E+00
  0.00000000E+00  0.00000000E+00  0.00000000E+00
  0.00000000E+00  0.00000000E+00  0.00000000E+00
  0.00000000E+00  0.00000000E+00  0.00000000E+00
  0.00000000E+00  0.00000000E+00  0.00000000E+00
  0.00000000E+00  0.00000000E+00  0.00000000E+00
  0.00000000E+00  0.00000000E+00  0.00000000E+00
  0.00000000E+00  0.00000000E+00  0.00000000E+00
  0.00000000E+00  0.00000000E+00  0.00000000E+00
  0.00000000E+00  0.00000000E+00  0.00000000E+00
  0.00000000E+00  0.00000000E+00  0.00000000E+00
  0.00000000E+00  0.00000000E+00  0.00000000E+00
  0.00000000E+00  0.00000000E+00  0.00000000E+00
  0.00000000E+00  0.00000000E+00  0.00000000E+00
  0.00000000E+00  0.00000000E+00  0.00000000E+00
  0.00000000E+00  0.00000000E+00  0.00000000E+00
  0.00000000E+00  0.00000000E+00  0.00000000E+00
  0.00000000E+00  0.00000000E+00  0.00000000E+00
  0.00000000E+00  0.00000000E+00  0.00000000E+00
  0.00000000E+00  0.00000000E+00  0.00000000E+00
  0.00000000E+00  0.00000000E+00  0.00000000E+00
  0.00000000E+00  0.00000000E+00  0.00000000E+00
  0.00000000E+00  0.00000000E+00  0.00000000E+00
  0.00000000E+00  0.00000000E+00  0.00000000E+00
  0.00000000E+00  0.00000000E+00  0.00000000E+00
  0.00000000E+00  0.00000000E+00  0.00000000E+00
  0.00000000E+00  0.00000000E+00  0.00000000E+00
  0.00000000E+00  0.00000000E+00  0.00000000E+00
  0.00000000E+00  0.00000000E+00  0.00000000E+00
  0.00000000E+00  0.00000000E+00  0.00000000E+00
  0.00000000E+00  0.00000000E+00  0.00000000E+00
  0.00000000E+00  0.00000000E+00  0.00000000E+00
  0.00000000E+00  0.00000000E+00  0.00000000E+00
  0.00000000E+00  0.00000000E+00  0.00000000E+00
  0.00000000E+00  0.00000000E+00  0.00000000E+00
  0.00000000E+00  0.00000000E+00  0.00000000E+00
  0.00000000E+00  0.00000000E+00  0.00000000E+00
  0.00000000E+00  0.00000000E+00  0.00000000E+00
  0.00000000E+00  0.00000000E+00  0.00000000E+00
  0.00000000E+00  0.00000000E+00  0.00000000E+00
  0.00000000E+00  0.00000000E+00  0.00000000E+00
  0.00000000E+00  0.00000000E+00  0.00000000E+00
  0.00000000E+00  0.00000000E+00  0.00000000E+00
  0.00000000E+00  0.00000000E+00  0.00000000E+00
  0.00000000E+00  0.00000000E+00  0.00000000E+00
  0.00000000E+00  0.00000000E+00  0.00000000E+00
  0.00000000E+00  0.00000000E+00  0.00000000E+00
  0.00000000E+00  0.00000000E+00  0.00000000E+00
  0.00000000E+00  0.00000000E+00  0.00000000E+00
  0.00000000E+00  0.00000000E+00  0.00000000E+00
  0.00000000E+00  0.00000000E+00  0.00000000E+00
  0.00000000E+00  0.00000000E+00  0.00000000E+00
  0.00000000E+00  0.00000000E+00  0.00000000E+00
  0.00000000E+00  0.00000000E+00  0.00000000E+00
  0.00000000E+00  0.00000000E+00  0.00000000E+00
  0.00000000E+00  0.00000000E+00  0.00000000E+00
  0.00000000E+00  0.00000000E+00  0.00000000E+00
  0.00000000E+00  0.00000000E+00  0.00000000E+00
  0.00000000E+00  0.00000000E+00  0.00000000E+00
  0.00000000E+00  0.00000000E+00  0.00000000E+00
  0.00000000E+00  0.00000000E+00  0.00000000E+00
  0.00000000E+00  0.00000000E+00  0.00000000E+00
  0.00000000E+00  0.00000000E+00  0.00000000E+00
  0.00000000E+00  0.00000000E+00  0.00000000E+00
  0.00000000E+00  0.00000000E+00  0.00000000E+00
  0.00000000E+00  0.00000000E+00  0.00000000E+00
  0.00000000E+00  0.00000000E+00  0.00000000E+00
  0.00000000E+00  0.00000000E+00  0.00000000E+00
  0.00000000E+00  0.00000000E+00  0.00000000E+00
  0.00000000E+00  0.00000000E+00  0.00000000E+00
  0.00000000E+00  0.00000000E+00  0.00000000E+00
  0.00000000E+00  0.00000000E+00  0.00000000E+00
  0.00000000E+00  0.00000000E+00  0.00000000E+00
  0.00000000E+00  0.00000000E+00  0.00000000E+00
  0.00000000E+00  0.00000000E+00  0.00000000E+00
  0.00000000E+00  0.00000000E+00  0.00000000E+00
  0.00000000E+00  0.00000000E+00  0.00000000E+00
  0.00000000E+00  0.00000000E+00  0.00000000E+00
  0.00000000E+00  0.00000000E+00  0.00000000E+00
  0.00000000E+00  0.00000000E+00  0.00000000E+00
  0.00000000E+00  0.00000000E+00  0.00000000E+00
  0.00000000E+00  0.00000000E+00  0.00000000E+00
  0.00000000E+00  0.00000000E+00  0.00000000E+00
  0.00000000E+00  0.00000000E+00  0.00000000E+00
  0.00000000E+00  0.00000000E+00  0.00000000E+00
  0.00000000E+00  0.00000000E+00  0.00000000E+00
  0.00000000E+00  0.00000000E+00  0.00000000E+00
  0.00000000E+00  0.00000000E+00  0.00000000E+00
  0.00000000E+00  0.00000000E+00  0.00000000E+00
  0.00000000E+00  0.00000000E+00  0.00000000E+00
  0.00000000E+00  0.00000000E+00  0.00000000E+00
  0.00000000E+00  0.00000000E+00  0.00000000E+00
  0.00000000E+00  0.00000000E+00  0.00000000E+00
  0.00000000E+00  0.00000000E+00  0.00000000E+00
  0.00000000E+00  0.00000000E+00  0.00000000E+00
  0.00000000E+00  0.00000000E+00  0.00000000E+00
  0.00000000E+00  0.00000000E+00  0.00000000E+00
  0.00000000E+00  0.00000000E+00  0.00000000E+00
  0.00000000E+00  0.00000000E+00  0.00000000E+00
  0.00000000E+00  0.00000000E+00  0.00000000E+00
  0.00000000E+00  0.00000000E+00  0.00000000E+00
  0.00000000E+00  0.00000000E+00  0.00000000E+00
  0.00000000E+00  0.00000000E+00  0.00000000E+00
  0.00000000E+00  0.00000000E+00  0.00000000E+00
  0.00000000E+00  0.00000000E+00  0.00000000E+00
  0.00000000E+00  0.00000000E+00  0.00000000E+00
  0.00000000E+00  0.00000000E+00  0.00000000E+00
  0.00000000E+00  0.00000000E+00  0.00000000E+00
  0.00000000E+00  0.00000000E+00  0.00000000E+00
  0.00000000E+00  0.00000000E+00  0.00000000E+00
  0.00000000E+00  0.00000000E+00  0.00000000E+00
  0.00000000E+00  0.00000000E+00  0.00000000E+00
  0.00000000E+00  0.00000000E+00  0.00000000E+00
