Hf Ti                                   
    1.000000000000000     
    12.7547369231211452   -0.0058071111999148   -0.0003546140374689
    -6.3823966521762285   11.0423446675532677    0.0010827002052077
    -0.0005708017033162    0.0016546459520085   20.1366572728027471
  Hf              Ti            
   120     8
Direct
     0.9162712731927765    0.0796289390372038    0.4383922784591138
     0.3338607673905027    0.6670747035727950    0.5629219841372095
     0.8352875164292456    0.6675878672547736    0.8122196314722582
     0.9169080699775577    0.8330964139469168    0.1876094453810677
     0.4162390672679247    0.8340779047167735    0.6881782269540163
     0.4159254137680435    0.0843346906547793    0.6889239355108603
     0.0835030163128157    0.6711040868846193    0.8139251577225005
     0.6709111473861062    0.3329075317653246    0.1883839551703793
     0.4139116041186705    0.0835521152978148    0.9364826739154861
     0.3321061292605046    0.1656940017719489    0.5630948024387445
     0.6662277545835144    0.0837638806431282    0.6878938928145771
     0.8334797483483597    0.1702306733000449    0.3112962953367330
     0.1659914665647767    0.0828603318705404    0.1874236661541323
     0.1636179057137917    0.8322865777076975    0.4377307243326168
     0.4169309813132619    0.0836572835424735    0.1874030851868008
     0.3356690797741430    0.6676454773896712    0.0624456259599365
     0.3330826601629231    0.9171088617868504    0.5627013125020917
     0.4150931593747633    0.3306493550160612    0.9363802610277800
     0.3334664957862110    0.1663328453372968    0.3126939703022019
     0.4187856580709982    0.8350435794632898    0.1860593153641910
     0.3332497950938834    0.9162876843862213    0.3125714621756929
     0.5822485488984257    0.4143832279945859    0.8128080234306236
     0.8326842156345702    0.1642534047441179    0.5619422055812253
     0.4169546595852357    0.3329577078688650    0.1878075137673459
     0.4169050884817516    0.3334437060733820    0.4372155357879332
     0.0848931690062720    0.6695923154575165    0.0614112315844237
     0.9206412742997608    0.8337509771529901    0.9363218462720324
     0.0828042409182956    0.1647524787050208    0.5631503892717140
     0.4173821143622387    0.5841640661002419    0.4377343404644136
     0.0792058792980192    0.4166095448535985    0.3107598506077870
     0.1664263277994460    0.8329583796834622    0.1870744329789592
     0.6659962335430036    0.8353094182464140    0.1863164732004915
     0.8323259623846769    0.9176344063161328    0.0624443382570798
     0.8341223543496321    0.6713538226000679    0.5612108394266297
     0.6671101866362840    0.0830729151790751    0.4371814622230392
     0.0806161524596355    0.9148637066086804    0.3135576897924629
     0.3330992149682648    0.4171026857201287    0.3124049252939131
     0.5817151386567595    0.1638608371228224    0.0622206187419723
     0.6674448684979570    0.5837849052834116    0.1873088152767978
     0.0811349994380839    0.4155290927598571    0.0634707055780525
     0.8332339043609054    0.6665062800978284    0.0627946108284914
     0.5829015486356367    0.9173104911461263    0.8130581976268013
     0.0849488735548681    0.9163130997284602    0.0606942654034850
     0.5857493369099330    0.9173945186805460    0.5625439139908683
     0.6693560518174021    0.8344956578247591    0.6869524679430902
     0.9153923705045748    0.0809651325327020    0.6863737259738765
     0.3321871119793057    0.4135904783299109    0.8123644308337850
     0.1661667748736318    0.3330265985876810    0.6876889285096123
     0.9179924523677566    0.8358556590351554    0.6875269452452291
     0.8334773450170408    0.1665305467598607    0.8127735614438097
     0.1667970415489289    0.5833528122403349    0.4374803115456281
     0.5827006433790576    0.6680675825442270    0.0625306310597575
     0.5834358771147784    0.4161658570706473    0.0627530440924230
     0.8337971977829951    0.4174082055819078    0.8127384506166377
     0.6675080518514986    0.5852325852552889    0.4374735871316182
     0.4170770243764369    0.5835855640694247    0.6878741222452983
     0.9165015188745375    0.3334572192546161    0.9383513705790696
     0.1647053389222499    0.8342249036908076    0.6884870670115423
     0.5844465017910604    0.9169683850745974    0.3121642270896468
     0.8327821427413375    0.4170628802116391    0.5615742684743532
     0.3336756259498495    0.4164632181261250    0.5625312168270354
     0.3330837943735932    0.1665967066784490    0.0618598382817775
     0.8346158791344774    0.4153086858810372    0.0639890875165115
     0.4167934156075103    0.8329587860925066    0.4376244703265564
     0.6664749971459321    0.0825704872396108    0.1861987080007904
     0.9178212967433647    0.0859467848203930    0.1879460970186690
     0.6667703399075909    0.3334028670292344    0.6876388797750331
     0.8338257153423534    0.6667235451689767    0.3133896371861385
     0.6667111192812470    0.5830534266620397    0.6878112087794181
     0.6691574433915660    0.3350541036815997    0.4359844071566092
     0.0824791897275704    0.6647399596096607    0.3123528005396960
     0.5865765544925807    0.4178847819359462    0.3121426564627482
     0.0827594227598975    0.6667320923707403    0.5625739251711667
     0.3331447836821163    0.9164356324264039    0.0611051433539599
     0.8363274343232242    0.9177582770786696    0.8125101164784198
     0.1685948178082758    0.0799723022910799    0.9343646377737171
     0.9163686144773920    0.5835438225848381    0.4364650093586386
     0.1680037603470992    0.0817717099335274    0.6904966725369120
     0.5850896693984456    0.1672671981425879    0.3123295523584578
     0.4163322499096795    0.0832797413578587    0.4374159284616221
     0.6709091188657662    0.8335113777597041    0.4387945740629989
     0.1654367673490875    0.3328394086502506    0.4373087436494834
     0.3335015223917149    0.4169505213291030    0.0626662855326397
     0.6651626618678168    0.0809577369044391    0.9388342243817764
     0.0829401566751405    0.1669430816813535    0.3126823531964801
     0.8336698902234866    0.9155188108050832    0.3133725866036638
     0.9164365224741317    0.5838039410341629    0.6870122590710113
     0.9172226787026048    0.0832638349023469    0.9374162788499482
     0.0830510859246426    0.4160022361213778    0.5623905379406910
     0.5817509578175687    0.1667512253293045    0.8132253994020903
     0.9174004264437717    0.5848807405212937    0.9380858228676380
     0.9166184716527844    0.3329853088366334    0.6870767444848502
     0.6656599790565624    0.8339703394486218    0.9381023383162318
     0.0791534347667107    0.9170597019542407    0.5620974279195762
     0.5833766177298784    0.1668048960917527    0.5622842498411252
     0.6671537244529465    0.3334573186080135    0.9382497664060960
     0.5837706906391452    0.4168726890406476    0.5623090988455369
     0.0831155800027623    0.4170223244547421    0.8131106561418066
     0.9164670504070831    0.5794160974077078    0.1887377778769172
     0.5850572666293452    0.6676406158008824    0.5628050778798173
     0.1676169074388437    0.5861554708980425    0.9378780467378139
     0.0839944849017302    0.1648825945472965    0.8125508962679673
     0.4165629157444106    0.5827875068152941    0.9369038893496787
     0.8335785210372979    0.1667957056471578    0.0635998475246437
     0.4158901588828366    0.5827548842083802    0.1874688926249982
     0.3327493858193025    0.6671166778732510    0.8127908778436533
     0.1640908643765356    0.3322107280317246    0.1874607159379569
     0.5834873485080722    0.6669978782358337    0.3121630719915082
     0.3277728982874878    0.9180111514327687    0.8139412385270250
     0.6671546984803919    0.5840724872472705    0.9373768138218812
     0.4165150121889390    0.8341207154215954    0.9381006574969919
     0.1668543285296658    0.3334378261408381    0.9375125588713966
     0.5842081179248162    0.6670531658038056    0.8124617080424547
     0.1661321868649670    0.5839061395157618    0.6880053062917251
     0.3326993319279194    0.6663883873684816    0.3118946027392957
     0.0835773779376810    0.1653440493781332    0.0616491513410739
     0.9160710495633889    0.3342231454121244    0.4361109044528781
     0.1651598782073225    0.5830445157427016    0.1866348589242660
     0.4152993386015624    0.3308636071540919    0.6886433878446701
     0.1647876161579265    0.0824304845345433    0.4375862397871635
     0.8347459562960708    0.9150332568437667    0.5614174438826868
     0.8345361888669089    0.4154835052759551    0.3116152501734690
     0.5834407880165257    0.9168449028309952    0.0621805174838969
     0.0864466886078980    0.9157155319383359    0.8135535310297503
     0.9154895799743752    0.8346796527512678    0.4382564407352161
     0.9147505609326024    0.3342627421772124    0.1884969117207486
     0.1652862154680096    0.8340043031514897    0.9366849401296581
     0.3332552730668771    0.1654466342959458    0.8124980342909587
 
  0.00000000E+00  0.00000000E+00  0.00000000E+00
  0.00000000E+00  0.00000000E+00  0.00000000E+00
  0.00000000E+00  0.00000000E+00  0.00000000E+00
  0.00000000E+00  0.00000000E+00  0.00000000E+00
  0.00000000E+00  0.00000000E+00  0.00000000E+00
  0.00000000E+00  0.00000000E+00  0.00000000E+00
  0.00000000E+00  0.00000000E+00  0.00000000E+00
  0.00000000E+00  0.00000000E+00  0.00000000E+00
  0.00000000E+00  0.00000000E+00  0.00000000E+00
  0.00000000E+00  0.00000000E+00  0.00000000E+00
  0.00000000E+00  0.00000000E+00  0.00000000E+00
  0.00000000E+00  0.00000000E+00  0.00000000E+00
  0.00000000E+00  0.00000000E+00  0.00000000E+00
  0.00000000E+00  0.00000000E+00  0.00000000E+00
  0.00000000E+00  0.00000000E+00  0.00000000E+00
  0.00000000E+00  0.00000000E+00  0.00000000E+00
  0.00000000E+00  0.00000000E+00  0.00000000E+00
  0.00000000E+00  0.00000000E+00  0.00000000E+00
  0.00000000E+00  0.00000000E+00  0.00000000E+00
  0.00000000E+00  0.00000000E+00  0.00000000E+00
  0.00000000E+00  0.00000000E+00  0.00000000E+00
  0.00000000E+00  0.00000000E+00  0.00000000E+00
  0.00000000E+00  0.00000000E+00  0.00000000E+00
  0.00000000E+00  0.00000000E+00  0.00000000E+00
  0.00000000E+00  0.00000000E+00  0.00000000E+00
  0.00000000E+00  0.00000000E+00  0.00000000E+00
  0.00000000E+00  0.00000000E+00  0.00000000E+00
  0.00000000E+00  0.00000000E+00  0.00000000E+00
  0.00000000E+00  0.00000000E+00  0.00000000E+00
  0.00000000E+00  0.00000000E+00  0.00000000E+00
  0.00000000E+00  0.00000000E+00  0.00000000E+00
  0.00000000E+00  0.00000000E+00  0.00000000E+00
  0.00000000E+00  0.00000000E+00  0.00000000E+00
  0.00000000E+00  0.00000000E+00  0.00000000E+00
  0.00000000E+00  0.00000000E+00  0.00000000E+00
  0.00000000E+00  0.00000000E+00  0.00000000E+00
  0.00000000E+00  0.00000000E+00  0.00000000E+00
  0.00000000E+00  0.00000000E+00  0.00000000E+00
  0.00000000E+00  0.00000000E+00  0.00000000E+00
  0.00000000E+00  0.00000000E+00  0.00000000E+00
  0.00000000E+00  0.00000000E+00  0.00000000E+00
  0.00000000E+00  0.00000000E+00  0.00000000E+00
  0.00000000E+00  0.00000000E+00  0.00000000E+00
  0.00000000E+00  0.00000000E+00  0.00000000E+00
  0.00000000E+00  0.00000000E+00  0.00000000E+00
  0.00000000E+00  0.00000000E+00  0.00000000E+00
  0.00000000E+00  0.00000000E+00  0.00000000E+00
  0.00000000E+00  0.00000000E+00  0.00000000E+00
  0.00000000E+00  0.00000000E+00  0.00000000E+00
  0.00000000E+00  0.00000000E+00  0.00000000E+00
  0.00000000E+00  0.00000000E+00  0.00000000E+00
  0.00000000E+00  0.00000000E+00  0.00000000E+00
  0.00000000E+00  0.00000000E+00  0.00000000E+00
  0.00000000E+00  0.00000000E+00  0.00000000E+00
  0.00000000E+00  0.00000000E+00  0.00000000E+00
  0.00000000E+00  0.00000000E+00  0.00000000E+00
  0.00000000E+00  0.00000000E+00  0.00000000E+00
  0.00000000E+00  0.00000000E+00  0.00000000E+00
  0.00000000E+00  0.00000000E+00  0.00000000E+00
  0.00000000E+00  0.00000000E+00  0.00000000E+00
  0.00000000E+00  0.00000000E+00  0.00000000E+00
  0.00000000E+00  0.00000000E+00  0.00000000E+00
  0.00000000E+00  0.00000000E+00  0.00000000E+00
  0.00000000E+00  0.00000000E+00  0.00000000E+00
  0.00000000E+00  0.00000000E+00  0.00000000E+00
  0.00000000E+00  0.00000000E+00  0.00000000E+00
  0.00000000E+00  0.00000000E+00  0.00000000E+00
  0.00000000E+00  0.00000000E+00  0.00000000E+00
  0.00000000E+00  0.00000000E+00  0.00000000E+00
  0.00000000E+00  0.00000000E+00  0.00000000E+00
  0.00000000E+00  0.00000000E+00  0.00000000E+00
  0.00000000E+00  0.00000000E+00  0.00000000E+00
  0.00000000E+00  0.00000000E+00  0.00000000E+00
  0.00000000E+00  0.00000000E+00  0.00000000E+00
  0.00000000E+00  0.00000000E+00  0.00000000E+00
  0.00000000E+00  0.00000000E+00  0.00000000E+00
  0.00000000E+00  0.00000000E+00  0.00000000E+00
  0.00000000E+00  0.00000000E+00  0.00000000E+00
  0.00000000E+00  0.00000000E+00  0.00000000E+00
  0.00000000E+00  0.00000000E+00  0.00000000E+00
  0.00000000E+00  0.00000000E+00  0.00000000E+00
  0.00000000E+00  0.00000000E+00  0.00000000E+00
  0.00000000E+00  0.00000000E+00  0.00000000E+00
  0.00000000E+00  0.00000000E+00  0.00000000E+00
  0.00000000E+00  0.00000000E+00  0.00000000E+00
  0.00000000E+00  0.00000000E+00  0.00000000E+00
  0.00000000E+00  0.00000000E+00  0.00000000E+00
  0.00000000E+00  0.00000000E+00  0.00000000E+00
  0.00000000E+00  0.00000000E+00  0.00000000E+00
  0.00000000E+00  0.00000000E+00  0.00000000E+00
  0.00000000E+00  0.00000000E+00  0.00000000E+00
  0.00000000E+00  0.00000000E+00  0.00000000E+00
  0.00000000E+00  0.00000000E+00  0.00000000E+00
  0.00000000E+00  0.00000000E+00  0.00000000E+00
  0.00000000E+00  0.00000000E+00  0.00000000E+00
  0.00000000E+00  0.00000000E+00  0.00000000E+00
  0.00000000E+00  0.00000000E+00  0.00000000E+00
  0.00000000E+00  0.00000000E+00  0.00000000E+00
  0.00000000E+00  0.00000000E+00  0.00000000E+00
  0.00000000E+00  0.00000000E+00  0.00000000E+00
  0.00000000E+00  0.00000000E+00  0.00000000E+00
  0.00000000E+00  0.00000000E+00  0.00000000E+00
  0.00000000E+00  0.00000000E+00  0.00000000E+00
  0.00000000E+00  0.00000000E+00  0.00000000E+00
  0.00000000E+00  0.00000000E+00  0.00000000E+00
  0.00000000E+00  0.00000000E+00  0.00000000E+00
  0.00000000E+00  0.00000000E+00  0.00000000E+00
  0.00000000E+00  0.00000000E+00  0.00000000E+00
  0.00000000E+00  0.00000000E+00  0.00000000E+00
  0.00000000E+00  0.00000000E+00  0.00000000E+00
  0.00000000E+00  0.00000000E+00  0.00000000E+00
  0.00000000E+00  0.00000000E+00  0.00000000E+00
  0.00000000E+00  0.00000000E+00  0.00000000E+00
  0.00000000E+00  0.00000000E+00  0.00000000E+00
  0.00000000E+00  0.00000000E+00  0.00000000E+00
  0.00000000E+00  0.00000000E+00  0.00000000E+00
  0.00000000E+00  0.00000000E+00  0.00000000E+00
  0.00000000E+00  0.00000000E+00  0.00000000E+00
  0.00000000E+00  0.00000000E+00  0.00000000E+00
  0.00000000E+00  0.00000000E+00  0.00000000E+00
  0.00000000E+00  0.00000000E+00  0.00000000E+00
  0.00000000E+00  0.00000000E+00  0.00000000E+00
  0.00000000E+00  0.00000000E+00  0.00000000E+00
  0.00000000E+00  0.00000000E+00  0.00000000E+00
  0.00000000E+00  0.00000000E+00  0.00000000E+00
  0.00000000E+00  0.00000000E+00  0.00000000E+00
  0.00000000E+00  0.00000000E+00  0.00000000E+00
  0.00000000E+00  0.00000000E+00  0.00000000E+00
