Hf Ta                                   
    1.000000000000000     
    12.8218274844844586   -0.0565686317408864   -0.0113351857759808
    -6.4610530125466372   10.8706178319666051   -0.0070270812148286
    -0.0176676651845120   -0.0236435388515411   20.0727330778254043
  Hf             Ta           
             108              20
Direct
  0.1669114087547720  0.3355009056968233  0.4398149419352131
  0.3241451057659306  0.9082539598599044  0.5637636212003870
  0.9185800706561521  0.5858473077952355  0.6873845561996244
  0.5812794624597878  0.4104948766457132  0.5625873722436237
  0.0824976368220377  0.9096842459715887  0.0631981603264910
  0.9145852498377567  0.0817163360349534  0.6893949204644636
  0.6708635249738207  0.8390868041845758  0.6892742480292033
  0.8269733346166367  0.6606883734960682  0.8144166492076927
  0.6547995696470743  0.5792094843605476  0.9345369493925656
  0.9124997800625397  0.8395683453628489  0.9370511820968020
  0.4126242048814697  0.3359754941389750  0.6895311346610158
  0.8323611781941502  0.1671722175655632  0.5630510932820680
  0.6662178604569233  0.8375162562217853  0.1860129785521907
  0.6725667620296869  0.0909244666549802  0.1872036072334728
  0.5814745351541389  0.9147824169163352  0.3107106069540099
  0.6619867002953123  0.3247814435309090  0.6865145268866273
  0.1761349294007600  0.6002542013915615  0.9393005504831103
  0.3423523214144268  0.6737159899685473  0.0609434915564693
  0.9334363597767041  0.3677546646455349  0.1861619839520055
  0.0822117094584755  0.9135431425738896  0.8124212359549043
  0.8272753597656902  0.4064706488932390  0.8124728744057592
  0.0807243065093374  0.1605218751690833  0.8142125258647417
  0.9124355787510652  0.5798608099869326  0.9396252386886670
  0.6640976353577445  0.5810093364347028  0.6890215949031548
  0.0814201746197949  0.9058207603112652  0.5630555682998659
  0.4159681502446240  0.0821984966581311  0.4376558034876561
  0.1739670517327796  0.3389974319227860  0.6924863788964994
  0.8345184998616788  0.1578107612417717  0.8143873860324843
  0.0840404489878327  0.1653372749876111  0.5648606191678756
  0.5766539186638842  0.4016934591906419  0.8138692456638414
  0.6693377756401583  0.0886856894634434  0.4372552056672916
  0.1722410350009000  0.0880023827566555  0.1857850273177404
  0.9159939586435382  0.5851224127673301  0.4394381149663496
  0.1653486310607179  0.0789749713002294  0.6867292040459682
  0.0916516536014099  0.1671801743104472  0.3122928342396410
  0.0830885559948962  0.4184881700587461  0.5647850013170957
  0.1692340506900455  0.0830645587005316  0.4374902131575641
  0.8326360762916447  0.4105921449027580  0.5642552264218502
  0.0970918363346567  0.4256593714585907  0.0625539883193984
  0.5879821831632205  0.6665475025922650  0.0617965473530433
  0.4140070734106687  0.5830874626473133  0.1851555290343000
  0.3225529361971061  0.8980731548642004  0.0628559014533217
  0.1606574898565257  0.8303103556149667  0.9393314019432055
  0.9135107361223965  0.8334529457429226  0.6901785024661149
  0.6647104993993099  0.5819260349749213  0.4372273199176698
  0.8316467198099798  0.6626593222787256  0.5632018144543897
  0.1549425149894551  0.8199867545314768  0.1864494826472365
  0.1662549980363129  0.5831584360086477  0.4364637109603983
  0.0836602049922182  0.9138013966246366  0.3108848498760157
  0.8391132123869046  0.1728848603976247  0.3100572797740175
  0.5776069532709783  0.1630261016464724  0.3114207462575269
  0.3338289929674707  0.4166025783049938  0.5640706730519957
  0.3287617402482115  0.1706856601015234  0.8151124476988792
  0.1673661014154354  0.0848504531853864  0.9408806335187547
  0.4108761430328071  0.0774533140268988  0.1854673584751021
  0.3353718324171185  0.4059886602660707  0.0598826487776235
  0.9263624837540023  0.0995968808166814  0.1877468925793575
  0.8402962832997504  0.1745858747690737  0.0630868982239354
  0.8239366790012466  0.4152644602380128  0.3120655012942670
  0.8317586097391869  0.6650422891240120  0.3117050652618609
  0.6676276915138953  0.8394525670313026  0.9363635045911655
  0.3362506910465402  0.1636395340198947  0.5626636310602227
  0.3271078350725661  0.9101419775299742  0.8147540932883003
  0.0890670134405524  0.1723413609340282  0.0622323897530354
  0.4204145072162206  0.8446257775665243  0.6878837530729516
  0.4095049588171376  0.3255655442678340  0.1866611334247837
  0.6651866910774470  0.3300259657509517  0.9370793920983524
  0.8337657283738034  0.9195169076168591  0.3108423391529881
  0.9189477552110079  0.0873976433797475  0.4365364593613958
  0.4135291365496936  0.0850166441333299  0.6907547436052909
  0.3285659246640734  0.9053637092962348  0.3090032456397181
  0.0909391077502834  0.4223125762076528  0.8139788725752061
  0.4195749196360194  0.5910632080316195  0.6896484603297968
  0.5811780659762005  0.6651555463771549  0.3118639548617956
  0.4176237412680200  0.5845400830335400  0.4364106845044602
  0.5831591360433076  0.6651762630347762  0.5633740801169719
  0.8351380047143941  0.9156144315371997  0.5628508167728817
  0.5807691439391482  0.1632892821499118  0.0616285772425726
  0.5801186136132823  0.4116635500851723  0.0613001044250184
  0.4133085398376948  0.3297431982082478  0.4365076764141261
  0.6680596447781157  0.8360273842004238  0.4376061815765305
  0.6683653711458841  0.3377017280728640  0.1848315652397090
  0.4175114737010385  0.0886411841319820  0.9369774661484301
  0.3261451140750848  0.6575905623534124  0.3073874236892064
  0.6700958430815989  0.0887160904174053  0.9359045945936371
  0.9227998866601848  0.3406624473061033  0.4352609190261835
  0.9239248376873149  0.3416624552668114  0.9394687934602375
  0.5826848742435580  0.9187634663782828  0.0617953455239776
  0.9154063000279534  0.8358787285790523  0.4362700750914328
  0.1737162947462834  0.3396455042007707  0.9344633178552341
  0.8304394272533949  0.6627972849814955  0.0619128498302850
  0.5767905232041715  0.4086791296238273  0.3117986934029134
  0.6633464920586535  0.3291369559655337  0.4396512476235176
  0.6626671672224608  0.5832264544832297  0.1880428223260141
  0.1686439670508760  0.5950513609877720  0.6878428708066437
  0.3342494338943283  0.6669643137463084  0.5616231138501568
  0.5855372512716870  0.9206699561269109  0.5634276899773388
  0.0789072676464193  0.6652311230737872  0.8130244534198876
  0.1637061186547080  0.8276651830560986  0.4360548367823979
  0.4185189274817048  0.8345875259647280  0.4362235506152390
  0.9208590780126633  0.3346308717446300  0.6906066292845912
  0.3415227276352326  0.6707690197528106  0.8139038215768168
  0.5840857359868412  0.9151206311462894  0.8114800330404713
  0.3294368154517706  0.4096300397225482  0.3117673935615309
  0.8394619858879420  0.9268234623452645  0.0621547211873912
  0.9142200741825401  0.8374532020415285  0.1868453613980411
  0.4219517372100790  0.5915115190619558  0.9363312154464651
  0.0692305770088211  0.6435979943803005  0.3077919537968009
  0.0616182733897360  0.6383762315494308  0.0675976263124539
  0.8332426221170754  0.9138118043243851  0.8147206516014175
  0.0842294667911496  0.6645325252305354  0.5629964144968771
  0.3301809722563151  0.1551212099498350  0.3112263299200009
  0.5745642103409208  0.1500597751608889  0.5658946959162432
  0.1834974061021114  0.6087588057416123  0.1802379029114074
  0.4244960828439318  0.8375211279754644  0.1856891288361534
  0.9209853964755409  0.0888636550031442  0.9389888449249837
  0.9040128218061597  0.5861046809790130  0.1860564381841972
  0.3602823263662476  0.4323373263786527  0.8153951611007572
  0.4046128847360464  0.3263194705192402  0.9383734717433309
  0.8267450040907053  0.4104741485411164  0.0601877065670740
  0.3386953781009915  0.1633049167002377  0.0626954095939977
  0.5844082351447675  0.1509087952533225  0.8075385540858383
  0.5960483031496091  0.6699001715559433  0.8104165930012540
  0.4256223031906595  0.8474501790206679  0.9378236743956817
  0.6720895236693950  0.0973664994827926  0.6861691256896908
  0.1641646784346052  0.3603744991187247  0.1923176706992698
  0.0892575497858219  0.4058227942126583  0.3140253190958215
  0.1597544662644707  0.8311647197102738  0.6883153620070140
 
  0.00000000E+00  0.00000000E+00  0.00000000E+00
  0.00000000E+00  0.00000000E+00  0.00000000E+00
  0.00000000E+00  0.00000000E+00  0.00000000E+00
  0.00000000E+00  0.00000000E+00  0.00000000E+00
  0.00000000E+00  0.00000000E+00  0.00000000E+00
  0.00000000E+00  0.00000000E+00  0.00000000E+00
  0.00000000E+00  0.00000000E+00  0.00000000E+00
  0.00000000E+00  0.00000000E+00  0.00000000E+00
  0.00000000E+00  0.00000000E+00  0.00000000E+00
  0.00000000E+00  0.00000000E+00  0.00000000E+00
  0.00000000E+00  0.00000000E+00  0.00000000E+00
  0.00000000E+00  0.00000000E+00  0.00000000E+00
  0.00000000E+00  0.00000000E+00  0.00000000E+00
  0.00000000E+00  0.00000000E+00  0.00000000E+00
  0.00000000E+00  0.00000000E+00  0.00000000E+00
  0.00000000E+00  0.00000000E+00  0.00000000E+00
  0.00000000E+00  0.00000000E+00  0.00000000E+00
  0.00000000E+00  0.00000000E+00  0.00000000E+00
  0.00000000E+00  0.00000000E+00  0.00000000E+00
  0.00000000E+00  0.00000000E+00  0.00000000E+00
  0.00000000E+00  0.00000000E+00  0.00000000E+00
  0.00000000E+00  0.00000000E+00  0.00000000E+00
  0.00000000E+00  0.00000000E+00  0.00000000E+00
  0.00000000E+00  0.00000000E+00  0.00000000E+00
  0.00000000E+00  0.00000000E+00  0.00000000E+00
  0.00000000E+00  0.00000000E+00  0.00000000E+00
  0.00000000E+00  0.00000000E+00  0.00000000E+00
  0.00000000E+00  0.00000000E+00  0.00000000E+00
  0.00000000E+00  0.00000000E+00  0.00000000E+00
  0.00000000E+00  0.00000000E+00  0.00000000E+00
  0.00000000E+00  0.00000000E+00  0.00000000E+00
  0.00000000E+00  0.00000000E+00  0.00000000E+00
  0.00000000E+00  0.00000000E+00  0.00000000E+00
  0.00000000E+00  0.00000000E+00  0.00000000E+00
  0.00000000E+00  0.00000000E+00  0.00000000E+00
  0.00000000E+00  0.00000000E+00  0.00000000E+00
  0.00000000E+00  0.00000000E+00  0.00000000E+00
  0.00000000E+00  0.00000000E+00  0.00000000E+00
  0.00000000E+00  0.00000000E+00  0.00000000E+00
  0.00000000E+00  0.00000000E+00  0.00000000E+00
  0.00000000E+00  0.00000000E+00  0.00000000E+00
  0.00000000E+00  0.00000000E+00  0.00000000E+00
  0.00000000E+00  0.00000000E+00  0.00000000E+00
  0.00000000E+00  0.00000000E+00  0.00000000E+00
  0.00000000E+00  0.00000000E+00  0.00000000E+00
  0.00000000E+00  0.00000000E+00  0.00000000E+00
  0.00000000E+00  0.00000000E+00  0.00000000E+00
  0.00000000E+00  0.00000000E+00  0.00000000E+00
  0.00000000E+00  0.00000000E+00  0.00000000E+00
  0.00000000E+00  0.00000000E+00  0.00000000E+00
  0.00000000E+00  0.00000000E+00  0.00000000E+00
  0.00000000E+00  0.00000000E+00  0.00000000E+00
  0.00000000E+00  0.00000000E+00  0.00000000E+00
  0.00000000E+00  0.00000000E+00  0.00000000E+00
  0.00000000E+00  0.00000000E+00  0.00000000E+00
  0.00000000E+00  0.00000000E+00  0.00000000E+00
  0.00000000E+00  0.00000000E+00  0.00000000E+00
  0.00000000E+00  0.00000000E+00  0.00000000E+00
  0.00000000E+00  0.00000000E+00  0.00000000E+00
  0.00000000E+00  0.00000000E+00  0.00000000E+00
  0.00000000E+00  0.00000000E+00  0.00000000E+00
  0.00000000E+00  0.00000000E+00  0.00000000E+00
  0.00000000E+00  0.00000000E+00  0.00000000E+00
  0.00000000E+00  0.00000000E+00  0.00000000E+00
  0.00000000E+00  0.00000000E+00  0.00000000E+00
  0.00000000E+00  0.00000000E+00  0.00000000E+00
  0.00000000E+00  0.00000000E+00  0.00000000E+00
  0.00000000E+00  0.00000000E+00  0.00000000E+00
  0.00000000E+00  0.00000000E+00  0.00000000E+00
  0.00000000E+00  0.00000000E+00  0.00000000E+00
  0.00000000E+00  0.00000000E+00  0.00000000E+00
  0.00000000E+00  0.00000000E+00  0.00000000E+00
  0.00000000E+00  0.00000000E+00  0.00000000E+00
  0.00000000E+00  0.00000000E+00  0.00000000E+00
  0.00000000E+00  0.00000000E+00  0.00000000E+00
  0.00000000E+00  0.00000000E+00  0.00000000E+00
  0.00000000E+00  0.00000000E+00  0.00000000E+00
  0.00000000E+00  0.00000000E+00  0.00000000E+00
  0.00000000E+00  0.00000000E+00  0.00000000E+00
  0.00000000E+00  0.00000000E+00  0.00000000E+00
  0.00000000E+00  0.00000000E+00  0.00000000E+00
  0.00000000E+00  0.00000000E+00  0.00000000E+00
  0.00000000E+00  0.00000000E+00  0.00000000E+00
  0.00000000E+00  0.00000000E+00  0.00000000E+00
  0.00000000E+00  0.00000000E+00  0.00000000E+00
  0.00000000E+00  0.00000000E+00  0.00000000E+00
  0.00000000E+00  0.00000000E+00  0.00000000E+00
  0.00000000E+00  0.00000000E+00  0.00000000E+00
  0.00000000E+00  0.00000000E+00  0.00000000E+00
  0.00000000E+00  0.00000000E+00  0.00000000E+00
  0.00000000E+00  0.00000000E+00  0.00000000E+00
  0.00000000E+00  0.00000000E+00  0.00000000E+00
  0.00000000E+00  0.00000000E+00  0.00000000E+00
  0.00000000E+00  0.00000000E+00  0.00000000E+00
  0.00000000E+00  0.00000000E+00  0.00000000E+00
  0.00000000E+00  0.00000000E+00  0.00000000E+00
  0.00000000E+00  0.00000000E+00  0.00000000E+00
  0.00000000E+00  0.00000000E+00  0.00000000E+00
  0.00000000E+00  0.00000000E+00  0.00000000E+00
  0.00000000E+00  0.00000000E+00  0.00000000E+00
  0.00000000E+00  0.00000000E+00  0.00000000E+00
  0.00000000E+00  0.00000000E+00  0.00000000E+00
  0.00000000E+00  0.00000000E+00  0.00000000E+00
  0.00000000E+00  0.00000000E+00  0.00000000E+00
  0.00000000E+00  0.00000000E+00  0.00000000E+00
  0.00000000E+00  0.00000000E+00  0.00000000E+00
  0.00000000E+00  0.00000000E+00  0.00000000E+00
  0.00000000E+00  0.00000000E+00  0.00000000E+00
  0.00000000E+00  0.00000000E+00  0.00000000E+00
  0.00000000E+00  0.00000000E+00  0.00000000E+00
  0.00000000E+00  0.00000000E+00  0.00000000E+00
  0.00000000E+00  0.00000000E+00  0.00000000E+00
  0.00000000E+00  0.00000000E+00  0.00000000E+00
  0.00000000E+00  0.00000000E+00  0.00000000E+00
  0.00000000E+00  0.00000000E+00  0.00000000E+00
  0.00000000E+00  0.00000000E+00  0.00000000E+00
  0.00000000E+00  0.00000000E+00  0.00000000E+00
  0.00000000E+00  0.00000000E+00  0.00000000E+00
  0.00000000E+00  0.00000000E+00  0.00000000E+00
  0.00000000E+00  0.00000000E+00  0.00000000E+00
  0.00000000E+00  0.00000000E+00  0.00000000E+00
  0.00000000E+00  0.00000000E+00  0.00000000E+00
  0.00000000E+00  0.00000000E+00  0.00000000E+00
  0.00000000E+00  0.00000000E+00  0.00000000E+00
  0.00000000E+00  0.00000000E+00  0.00000000E+00
  0.00000000E+00  0.00000000E+00  0.00000000E+00
  0.00000000E+00  0.00000000E+00  0.00000000E+00
  0.00000000E+00  0.00000000E+00  0.00000000E+00
