Nb Ta                                   
    1.000000000000000     
    13.2354360833835258    0.0065950047773075    0.0023319577747448
     0.0065949107679526   13.2357253672775457    0.0047363699963222
     0.0023323156205276    0.0047367575979870   13.2388307263404599
   Nb   Ta
   112    16
Direct
  0.6265518862868744  0.6240451669417665  0.3750806481947689
  0.8760319261379848  0.8732424301618029  0.3736317893926810
  0.2500539110518766  0.0003960391269092  0.5029418607934106
  0.5007090800519731  0.0007215407757764  0.0011355615139886
  0.2498738402746202  0.5000531794983822  0.7500434886705363
  0.6248345111162825  0.1267767293762655  0.6237848863506947
  0.8748344653655840  0.6248641189443230  0.1255323239128958
  0.8751601009524524  0.6245364324894630  0.6247222125133003
  0.1256397324753302  0.3753328883480297  0.1241361681718738
  0.2499336347337975  0.4983549346283620  0.5001369048309494
  0.3746706132435048  0.6262757753259014  0.1253107800538220
  0.8742343666695963  0.1245215504990057  0.1247336714918044
  0.1249996299074537  0.8746045296256780  0.6261925923806895
  0.7496009925147545  0.4994098237553264  0.2495575346196978
  0.7489702293926184 -0.0001196619808925  0.2511928890828206
  0.1230941272129497  0.6251190711701280  0.3752692459279167
  0.1268604298966298  0.8752026342732412  0.1233434245682539
  0.6248272821685038  0.3732000118615955  0.3767485547362074
  0.6236805362199601  0.8753023679430432  0.6264014937662874
  0.8764848289881999  0.8737482233524890  0.8748809959443903
  0.7524657014931597  0.2500982373931817  0.2500317014813941
  0.0004335999649928  0.4982537147357877  0.2492990335374500
  0.1241177367301201  0.1243677819427957  0.8752483929774888
  0.6248810058700958  0.3743679819438693  0.1251344372269312
  0.6248410399784582  0.8754859738351032  0.8748137516656717
  0.2503313313360727  0.7512799911232277  0.7494174695680157
  0.3748177640367977  0.3750094500135882  0.1253297606209930
  0.1233774566771608  0.6262361595422097  0.8747777602590894
  0.3755890106266590  0.1254654304266162  0.8756573299275124
 -0.0020856532965342 -0.0003127774289261  0.5000959064864743
  0.1253018101284406  0.1247108739948998  0.1262609643720401
  0.2499865946994791  0.5003447083790610  0.2504107835416204
  0.7500062352346677  0.7504753889875537  0.7477967085367179
  0.6242781885565983  0.8751058115999898  0.1235114069157185
  0.0004131569294956  0.4996787009950062  0.7499321474590662
  0.7498630299732745  0.0001026070463051  0.7487506994271531
  0.8750396711266929  0.1247961596426193  0.3750188805278556
  0.8752429768501516  0.3764530860672158  0.8755371849636946
  0.2496415737053682  0.2480906224229220  0.7479931097754164
  0.7504339916967254  0.2493513662413599  0.7506406172211562
  0.1249634189435065  0.3752581557402003  0.6259838693144096
  0.3769146624014563  0.3760796274627317  0.6260481806532923
 -0.0002283460751951  0.7497806606257092  0.0012897011999375
  0.7499076877956986  0.5017216944851558  0.5005229978606233
  0.0004909424432839  0.4997976570792021  0.5003846519102055
  0.2496757457814550  0.2500193648810065 -0.0001709308930267
  0.8748137539673534  0.8748884847201575  0.1250339962744785
  0.1248499048198997  0.6245545886009274  0.1253943762767107
  0.5004496478840069  0.2518189623821803  0.0002826000899346
  0.7484795860365707  0.7504701837655436  0.2511796506002221
  0.8747122465586875  0.3757023608539182  0.1239626294274576
  0.3747727107942882  0.1242550686567686  0.1261689818827335
  0.1238230082852924  0.1249795845383055  0.6234078776743366
 -0.0004227317992571  0.0012655530843013  0.2491408448390961
  0.4984215314152969  0.0001409440199153  0.7505446899946090
  0.2506176081558129  0.7494040168323095  0.2511455755293943
  0.2515962541713219  0.5000610769538806 -0.0005826627145856
  0.4995471595967677  0.5004454061335495  0.4994539832002128
  0.6256282218535986  0.6250189361346077  0.1252753981656937
  0.3750150496175267  0.6248778633415896  0.6245866505919442
  0.3736754973041946  0.8761821543769777  0.3748277762520719
  0.1252002269723196  0.3746212050714348  0.8750437653535181
  0.3742497856135614  0.3745370692914674  0.8743858560113360
  0.8752177892562677  0.1256303296654257  0.6253185185525407
  0.5015924208926861 -0.0008440041679305  0.4993608743488071
  0.2495876734585620  0.7486131153537102 -0.0004262812907307
  0.6243155687807634  0.6230310592547297  0.6250527931104807
  0.8731436685120459  0.3749855674528296  0.6249735206281736
  0.3742422860072945  0.8745541434946056  0.8772143412636590
  0.7481378597755401  0.4993760195714475 -0.0001371989699728
  0.1249779922108076  0.3745510077283983  0.3749675075411460
  0.3761647699203609  0.1247673157668618  0.6234531358519038
  0.7501384768371496  0.2501035700962311 -0.0004828480051609
 -0.0010224198228619  0.7500369476615291  0.5001298871715769
  0.4997892251817715  0.2494393585711364  0.2487316534711540
  0.3756362461767124  0.8739981692592893  0.6246042450547982
  0.1248653587309800  0.8766513922830188  0.3751900960809954
  0.8746441100263281  0.3770558300664317  0.3756296148407869
  0.0000806003633837  0.7496407425689732  0.7493662285622520
  0.6256115225096885  0.1255868659451258  0.1260823390316421
  0.0008949606529051  0.7502990560808127  0.2492027833704966
  0.7501093920845214 -0.0000536448087203 -0.0008445452146616
  0.4995875843294604  0.5002638325624328  0.7522858942776889
  0.1255798767407520  0.6250563993936782  0.6245445362802343
  0.5016645285716871  0.7494412405267008  0.4979241440544474
  0.6271077986165281  0.6254722095370675  0.8745559384968040
  0.6252083156418315  0.1246922430910139  0.8749214224792996
  0.7501906134830241  0.7506357431172643  0.0002527071804198
  0.0002507250598325  0.4997733393065125  0.0004041263267341
  0.4997348310230160  0.7499639899397701  0.7503884857586779
  0.2496258321782467  0.7497402041566733  0.4998559166198105
  0.3744819913917904  0.6254710795361903  0.8744833029636742
  0.0011024061749383  0.0005017210640210  0.7503901747164824
  0.4998644668861312  0.5016331030689190  0.2482715474287388
  0.4980833654110703  0.2507424525805734  0.5004045657938805
  0.6252292440993809  0.8762762460724296  0.3751368964848070
  0.2499564528756521  0.0011228647794394 -0.0022156332620346
  0.7510379565266503  0.2484890096839917  0.5001119341436466
  0.4997014643276109  0.2495837693883884  0.7506471730024344
 -0.0002189842827181  0.2501035980282356  0.0017001289333650
  0.5005455353459745  0.7477664190678097  0.0010315775756186
  0.2483273430543971  0.2508335751400331  0.2509008484191802
  0.3757063195814527  0.3743778052317856  0.3740045164251379
  0.3744930888577978  0.6246286687099514  0.3754823572610183
  0.0001632568917443  0.2502527091407055  0.7506972495160236
  0.0010761929080638  0.2508372402234985  0.4982078946348378
 -0.0006312957968293  0.0004145518481751  0.0003084474641895
  0.7500828981874509  0.4999933379061298  0.7500209167478391
  0.2508683738321137 -0.0006734141889616  0.2494417066403510
  0.8750100711021587  0.1247019368431972  0.8751335639845800
  0.8757364095119436  0.8748729025047984  0.6263861267093316
  0.6252519165377248  0.3744847414941925  0.8731760246205916
  0.3746230341502329  0.1247674576464288  0.3746686374136994
  0.8755476506074278  0.6251154987354191  0.3741782899504985
  0.6248408232406247  0.3748181694642525  0.6252855340053948
  0.2505214027097936  0.0004517299580676  0.7497729841302686
  0.7498128967657155  0.7516683134614826  0.5007243819224473
  0.6236895417954075  0.1261526799187371  0.3751352151853598
  0.1266870712446949  0.1239988912249056  0.3751727321861328
  0.8748520030851918  0.6251371339989582  0.8753448669364091
  0.7503363870720858 -0.0017949784692014  0.5005762924321548
  0.5000718097648917  0.4999419366883721 -0.0002781263558762
  0.2500088485907411  0.2513970452286812  0.5011046737412326
  0.5000429670126685  0.7512149275659991  0.2507473127039373
  0.3742386750369059  0.8743112698590335  0.1234481793871333
  0.1246359206212978  0.8747446349810724  0.8750706381068936
 -0.0003571975758919  0.2503170957875346  0.2498484552530935
  0.5003261657381567 -0.0019478417010869  0.2492132430204675
 
  0.00000000E+00  0.00000000E+00  0.00000000E+00
  0.00000000E+00  0.00000000E+00  0.00000000E+00
  0.00000000E+00  0.00000000E+00  0.00000000E+00
  0.00000000E+00  0.00000000E+00  0.00000000E+00
  0.00000000E+00  0.00000000E+00  0.00000000E+00
  0.00000000E+00  0.00000000E+00  0.00000000E+00
  0.00000000E+00  0.00000000E+00  0.00000000E+00
  0.00000000E+00  0.00000000E+00  0.00000000E+00
  0.00000000E+00  0.00000000E+00  0.00000000E+00
  0.00000000E+00  0.00000000E+00  0.00000000E+00
  0.00000000E+00  0.00000000E+00  0.00000000E+00
  0.00000000E+00  0.00000000E+00  0.00000000E+00
  0.00000000E+00  0.00000000E+00  0.00000000E+00
  0.00000000E+00  0.00000000E+00  0.00000000E+00
  0.00000000E+00  0.00000000E+00  0.00000000E+00
  0.00000000E+00  0.00000000E+00  0.00000000E+00
  0.00000000E+00  0.00000000E+00  0.00000000E+00
  0.00000000E+00  0.00000000E+00  0.00000000E+00
  0.00000000E+00  0.00000000E+00  0.00000000E+00
  0.00000000E+00  0.00000000E+00  0.00000000E+00
  0.00000000E+00  0.00000000E+00  0.00000000E+00
  0.00000000E+00  0.00000000E+00  0.00000000E+00
  0.00000000E+00  0.00000000E+00  0.00000000E+00
  0.00000000E+00  0.00000000E+00  0.00000000E+00
  0.00000000E+00  0.00000000E+00  0.00000000E+00
  0.00000000E+00  0.00000000E+00  0.00000000E+00
  0.00000000E+00  0.00000000E+00  0.00000000E+00
  0.00000000E+00  0.00000000E+00  0.00000000E+00
  0.00000000E+00  0.00000000E+00  0.00000000E+00
  0.00000000E+00  0.00000000E+00  0.00000000E+00
  0.00000000E+00  0.00000000E+00  0.00000000E+00
  0.00000000E+00  0.00000000E+00  0.00000000E+00
  0.00000000E+00  0.00000000E+00  0.00000000E+00
  0.00000000E+00  0.00000000E+00  0.00000000E+00
  0.00000000E+00  0.00000000E+00  0.00000000E+00
  0.00000000E+00  0.00000000E+00  0.00000000E+00
  0.00000000E+00  0.00000000E+00  0.00000000E+00
  0.00000000E+00  0.00000000E+00  0.00000000E+00
  0.00000000E+00  0.00000000E+00  0.00000000E+00
  0.00000000E+00  0.00000000E+00  0.00000000E+00
  0.00000000E+00  0.00000000E+00  0.00000000E+00
  0.00000000E+00  0.00000000E+00  0.00000000E+00
  0.00000000E+00  0.00000000E+00  0.00000000E+00
  0.00000000E+00  0.00000000E+00  0.00000000E+00
  0.00000000E+00  0.00000000E+00  0.00000000E+00
  0.00000000E+00  0.00000000E+00  0.00000000E+00
  0.00000000E+00  0.00000000E+00  0.00000000E+00
  0.00000000E+00  0.00000000E+00  0.00000000E+00
  0.00000000E+00  0.00000000E+00  0.00000000E+00
  0.00000000E+00  0.00000000E+00  0.00000000E+00
  0.00000000E+00  0.00000000E+00  0.00000000E+00
  0.00000000E+00  0.00000000E+00  0.00000000E+00
  0.00000000E+00  0.00000000E+00  0.00000000E+00
  0.00000000E+00  0.00000000E+00  0.00000000E+00
  0.00000000E+00  0.00000000E+00  0.00000000E+00
  0.00000000E+00  0.00000000E+00  0.00000000E+00
  0.00000000E+00  0.00000000E+00  0.00000000E+00
  0.00000000E+00  0.00000000E+00  0.00000000E+00
  0.00000000E+00  0.00000000E+00  0.00000000E+00
  0.00000000E+00  0.00000000E+00  0.00000000E+00
  0.00000000E+00  0.00000000E+00  0.00000000E+00
  0.00000000E+00  0.00000000E+00  0.00000000E+00
  0.00000000E+00  0.00000000E+00  0.00000000E+00
  0.00000000E+00  0.00000000E+00  0.00000000E+00
  0.00000000E+00  0.00000000E+00  0.00000000E+00
  0.00000000E+00  0.00000000E+00  0.00000000E+00
  0.00000000E+00  0.00000000E+00  0.00000000E+00
  0.00000000E+00  0.00000000E+00  0.00000000E+00
  0.00000000E+00  0.00000000E+00  0.00000000E+00
  0.00000000E+00  0.00000000E+00  0.00000000E+00
  0.00000000E+00  0.00000000E+00  0.00000000E+00
  0.00000000E+00  0.00000000E+00  0.00000000E+00
  0.00000000E+00  0.00000000E+00  0.00000000E+00
  0.00000000E+00  0.00000000E+00  0.00000000E+00
  0.00000000E+00  0.00000000E+00  0.00000000E+00
  0.00000000E+00  0.00000000E+00  0.00000000E+00
  0.00000000E+00  0.00000000E+00  0.00000000E+00
  0.00000000E+00  0.00000000E+00  0.00000000E+00
  0.00000000E+00  0.00000000E+00  0.00000000E+00
  0.00000000E+00  0.00000000E+00  0.00000000E+00
  0.00000000E+00  0.00000000E+00  0.00000000E+00
  0.00000000E+00  0.00000000E+00  0.00000000E+00
  0.00000000E+00  0.00000000E+00  0.00000000E+00
  0.00000000E+00  0.00000000E+00  0.00000000E+00
  0.00000000E+00  0.00000000E+00  0.00000000E+00
  0.00000000E+00  0.00000000E+00  0.00000000E+00
  0.00000000E+00  0.00000000E+00  0.00000000E+00
  0.00000000E+00  0.00000000E+00  0.00000000E+00
  0.00000000E+00  0.00000000E+00  0.00000000E+00
  0.00000000E+00  0.00000000E+00  0.00000000E+00
  0.00000000E+00  0.00000000E+00  0.00000000E+00
  0.00000000E+00  0.00000000E+00  0.00000000E+00
  0.00000000E+00  0.00000000E+00  0.00000000E+00
  0.00000000E+00  0.00000000E+00  0.00000000E+00
  0.00000000E+00  0.00000000E+00  0.00000000E+00
  0.00000000E+00  0.00000000E+00  0.00000000E+00
  0.00000000E+00  0.00000000E+00  0.00000000E+00
  0.00000000E+00  0.00000000E+00  0.00000000E+00
  0.00000000E+00  0.00000000E+00  0.00000000E+00
  0.00000000E+00  0.00000000E+00  0.00000000E+00
  0.00000000E+00  0.00000000E+00  0.00000000E+00
  0.00000000E+00  0.00000000E+00  0.00000000E+00
  0.00000000E+00  0.00000000E+00  0.00000000E+00
  0.00000000E+00  0.00000000E+00  0.00000000E+00
  0.00000000E+00  0.00000000E+00  0.00000000E+00
  0.00000000E+00  0.00000000E+00  0.00000000E+00
  0.00000000E+00  0.00000000E+00  0.00000000E+00
  0.00000000E+00  0.00000000E+00  0.00000000E+00
  0.00000000E+00  0.00000000E+00  0.00000000E+00
  0.00000000E+00  0.00000000E+00  0.00000000E+00
  0.00000000E+00  0.00000000E+00  0.00000000E+00
  0.00000000E+00  0.00000000E+00  0.00000000E+00
  0.00000000E+00  0.00000000E+00  0.00000000E+00
  0.00000000E+00  0.00000000E+00  0.00000000E+00
  0.00000000E+00  0.00000000E+00  0.00000000E+00
  0.00000000E+00  0.00000000E+00  0.00000000E+00
  0.00000000E+00  0.00000000E+00  0.00000000E+00
  0.00000000E+00  0.00000000E+00  0.00000000E+00
  0.00000000E+00  0.00000000E+00  0.00000000E+00
  0.00000000E+00  0.00000000E+00  0.00000000E+00
  0.00000000E+00  0.00000000E+00  0.00000000E+00
  0.00000000E+00  0.00000000E+00  0.00000000E+00
  0.00000000E+00  0.00000000E+00  0.00000000E+00
  0.00000000E+00  0.00000000E+00  0.00000000E+00
  0.00000000E+00  0.00000000E+00  0.00000000E+00
  0.00000000E+00  0.00000000E+00  0.00000000E+00
  0.00000000E+00  0.00000000E+00  0.00000000E+00
  0.00000000E+00  0.00000000E+00  0.00000000E+00
