Nb Ti                                   
    1.000000000000000     
    13.1245739318022263    0.1457599705028761    0.1462437546068398
    -6.5198418875635369    9.2278921151753970   -0.0312422553743471
    -0.2053703929947300   -0.0714334291449301   18.6393468024619331
  Nb              Ti            
   100    28
Direct
     0.1822987135464204    0.8703830687166766    0.4357259668282354
     0.6906466282344117    0.3745331150312054    0.6873537815497271
     0.8096169608415855    0.1208304632913129    0.3152544932338701
     0.4352007774899012    0.1200457138642143    0.4394391854496921
     0.1866946128851357    0.6270421526088353    0.1880160734952629
     0.3117595575541308    0.1259374533875999    0.8107589210521532
     0.8108676546502895    0.3776514348061480    0.8125315828638263
     0.0601489359599229    0.3751693776821651    0.0623535070102897
     0.8121952454829252    0.6240831654263060    0.0630163092880917
     0.1859409427632878    0.3771018939853021    0.6892535663673447
     0.9364104666112317    0.8733320599907851    0.1887548329451461
     0.8136915941398708    0.8779526835501441    0.3115542141271723
     0.5619126058849216    0.1247022015932154    0.5624561279275224
     0.1869077532553809    0.8739153683897227    0.1885379904850516
     0.8141112910526913    0.8731585178889889    0.8142232779992450
     0.6867015236875499    0.3732402352699477    0.9383719468554609
     0.9361530390444524    0.1205736299949224    0.6848938310049163
     0.3178810501755080    0.1279002410213350    0.3138829096680416
     0.4340271994703188    0.6212994276938865    0.4365964828548978
     0.0614242991030084    0.3736259337050565    0.8136765441492517
     0.0605255631746532    0.1285677714404061    0.0645542676236295
     0.6814393453545834    0.1224326237991668    0.9384574852513422
     0.9357770935000860    0.8745491782290808    0.6884271448806287
     0.1875454780209489    0.8747175071957652    0.9384067511583510
     0.6890788897656916    0.6235382056070117    0.6862386862405050
     0.0618382018840725    0.1236891744103548    0.5608589272880481
     0.1881540201744833    0.1269044164075475    0.1895023528708363
     0.9354242380450287    0.1245149559999948    0.4393803039554928
     0.4346426670931485    0.8691191282353273    0.9375395210720349
     0.4375209842546833    0.6215086765919491    0.6832661310826149
     0.9415828102558365    0.3810584169606527    0.4386210437855806
     0.0638593225071164    0.8773129752385420    0.3118468982019505
     0.6857637002029502    0.6223336711690759    0.1859397548128975
     0.6884946179579640    0.1261460796522167    0.6859802437861833
     0.3167645975828430    0.8800515549417023    0.0613932633112303
     0.1896133132489547    0.1261046480267393    0.9380315352992247
     0.4343439563109468    0.3760580025698450    0.1887169787591296
     0.9359908016718654    0.6225252953848576    0.4390216984649811
     0.6855136677457722    0.3756781959182664    0.1911010406597665
     0.3137254975446130    0.3718362046009984    0.8110559841284429
     0.5617698929251226    0.3758500823036581    0.5630918462037788
     0.4410583436818145    0.6284075179270636    0.9389580389545426
     0.3118811738811202    0.8735350246335357    0.3121880754702269
     0.9340698211277443    0.1243715777191316    0.1889314560895029
     0.1876526518491952    0.8742143401018312    0.6866092663191589
     0.0658385613784240    0.8753876436064787    0.8130689361349147
     0.4427401067062000    0.8769836693661820    0.4346752696868560
     0.9369523277554760    0.6229744745085223    0.9381830457628819
     0.4388231243781545    0.6284588790876580    0.1873920549302387
     0.5586262798616338    0.8758310253774440    0.8129103654833504
     0.1878770224824874    0.1245931939254459    0.6836176647182832
     0.4400641628859053    0.8713678595224260    0.6878721885163723
     0.9342118456883411    0.6200236529563452    0.1895263926244605
     0.8122516493069519    0.3743907215604942    0.5622915935194542
     0.4389719485090181    0.3757687724647179    0.6881031115642448
     0.6891812728449278    0.8774276435022869    0.9357030478745515
     0.3101556540832524    0.6263247773156705    0.5618766297676120
     0.3106557482536182    0.6251124057706015    0.3108958339626153
     0.0639173464953623    0.6245057330990306    0.0631784659556684
     0.6871493879176019    0.8725953891964318    0.1875190383309918
     0.0653568778322175    0.3724360623860574    0.5617650671212813
     0.8086316454735450    0.8735650006826909    0.0630978225084723
     0.9383672448899922    0.1248580866362185    0.9376571732363322
     0.1872713102277115    0.6270118724349737    0.9361015432468598
     0.6852055227527722    0.6201199282597540    0.9379542371914465
     0.0623611508684607    0.1237254429032132    0.3138693599044348
     0.5613238944617490    0.8751185119259615    0.5616401100934005
     0.5631997787799095    0.8772864408732615    0.3091819954379440
     0.5660168275941554    0.1261061387045233    0.0628220669468459
     0.3147433593042992    0.3736877901132326    0.0616976704066396
     0.3152655509162790    0.1291035094018979    0.5600465991639246
     0.9416463259167098    0.3759422606019469    0.1878944542931228
     0.1876990885733941    0.1253544355694277    0.4381456513122460
     0.5638640602982899    0.6273733382058835    0.5606541472672237
     0.5667451238355077    0.1239277162633705    0.8114328518773031
     0.8170224376115052    0.6254636829442315    0.5615131175712019
     0.1907160046319867    0.3803037188464657    0.9370420544421659
     0.4410958255609322    0.1285991437575084    0.1858383156368653
     0.5597499673335646    0.6241370316048229    0.0623377944485042
     0.1917076688201659    0.6315945953646157    0.6876299566313023
     0.9340462465178870    0.3694153269631704    0.9376259164364334
     0.8075455161579360    0.3736141037849607    0.0652974176387589
     0.4373933491779579    0.3782422751571850    0.9357480079821766
     0.3116235967285205    0.1246082859008409    0.0630268692480654
     0.9374196361888929    0.8751565406724975    0.9389631505793519
     0.6906744481111854    0.1296248073363473    0.4374562923175953
     0.6833883207813353    0.3758422564096220    0.4357389124042038
     0.0610959833283011    0.1252793217439870    0.8118874593423137
     0.0617406862037502    0.8755831322658820    0.0635589981912516
     0.0631035314576227    0.3724518134655918    0.3133503005410864
     0.1903710583985945    0.3770901449775058    0.4372010650022006
     0.5606149488966519    0.3757591241585020    0.3117749538840492
     0.9392009086588894    0.6302320794268288    0.6869843252256973
     0.6885692866489586    0.6259393311388962    0.4412219973751561
     0.8107882202767845    0.1234094992501378    0.5639483853367248
     0.4365298000204872    0.1225979697410393    0.6876758157400221
     0.1910258255101775    0.6284806972855299    0.4383519017073939
     0.4360796331713502    0.8757297088522293    0.1865664155318574
     0.0637134642154635    0.6217878848573298    0.8114284860016906
     0.8109523522488153    0.6249949694728776    0.8129837979802108
     0.5612918889866886    0.1276694741321714    0.3139658496370548
     0.0617826578722825    0.6198366692086827    0.5642732622959655
     0.8124712668259213    0.3712307101462264    0.3127940455948917
     0.5622358948031075    0.3704772459241427    0.8135454284941109
     0.6894530719003228    0.1265830706002294    0.1900530321396912
     0.3101299663757024    0.6221895182355757    0.0630087231448125
     0.9399551767794352    0.3780380017955005    0.6871637670560037
     0.5631901381960790    0.8734159665574379    0.0626767927057346
     0.8101138957880939    0.1265442776878985    0.0613323034200299
     0.3122852255588141    0.3783936366048398    0.5626385511734572
     0.9350818289253811    0.8711973175621712    0.4349497559109248
     0.3160458679948143    0.6218085762223847    0.8114196345583573
     0.5609734543644759    0.3751360675589844    0.0624491936326583
     0.0601822229198463    0.6255118540666170    0.3141924840616728
     0.5615707768976036    0.6282943023629994    0.8105889499121753
     0.5679341763655760    0.6282568331604333    0.3144851033624175
     0.8118997039011484    0.6282486207756924    0.3151136928081600
     0.4376350026028104    0.3728342055226022    0.4370435082076881
     0.1897671620461448    0.3800279512962363    0.1845279059322077
     0.3106258009697480    0.3757043268442444    0.3125438950676438
     0.6852497665815882    0.8713302252192832    0.4346064584330152
     0.3143583662403275    0.8775455298242518    0.8131922690604575
     0.6866708825912016    0.8736084461308657    0.6904564579904515
     0.3124323660153780    0.8755873223979291    0.5606914371866837
     0.8103947678462422    0.1225291691479252    0.8106295677099167
     0.4377135092527675    0.1252573844724812    0.9355238309389183
     0.0641557797033051    0.8771229725750906    0.5631758267712719
     0.8144958111710520    0.8748179874039355    0.5622619359320244
 
  0.00000000E+00  0.00000000E+00  0.00000000E+00
  0.00000000E+00  0.00000000E+00  0.00000000E+00
  0.00000000E+00  0.00000000E+00  0.00000000E+00
  0.00000000E+00  0.00000000E+00  0.00000000E+00
  0.00000000E+00  0.00000000E+00  0.00000000E+00
  0.00000000E+00  0.00000000E+00  0.00000000E+00
  0.00000000E+00  0.00000000E+00  0.00000000E+00
  0.00000000E+00  0.00000000E+00  0.00000000E+00
  0.00000000E+00  0.00000000E+00  0.00000000E+00
  0.00000000E+00  0.00000000E+00  0.00000000E+00
  0.00000000E+00  0.00000000E+00  0.00000000E+00
  0.00000000E+00  0.00000000E+00  0.00000000E+00
  0.00000000E+00  0.00000000E+00  0.00000000E+00
  0.00000000E+00  0.00000000E+00  0.00000000E+00
  0.00000000E+00  0.00000000E+00  0.00000000E+00
  0.00000000E+00  0.00000000E+00  0.00000000E+00
  0.00000000E+00  0.00000000E+00  0.00000000E+00
  0.00000000E+00  0.00000000E+00  0.00000000E+00
  0.00000000E+00  0.00000000E+00  0.00000000E+00
  0.00000000E+00  0.00000000E+00  0.00000000E+00
  0.00000000E+00  0.00000000E+00  0.00000000E+00
  0.00000000E+00  0.00000000E+00  0.00000000E+00
  0.00000000E+00  0.00000000E+00  0.00000000E+00
  0.00000000E+00  0.00000000E+00  0.00000000E+00
  0.00000000E+00  0.00000000E+00  0.00000000E+00
  0.00000000E+00  0.00000000E+00  0.00000000E+00
  0.00000000E+00  0.00000000E+00  0.00000000E+00
  0.00000000E+00  0.00000000E+00  0.00000000E+00
  0.00000000E+00  0.00000000E+00  0.00000000E+00
  0.00000000E+00  0.00000000E+00  0.00000000E+00
  0.00000000E+00  0.00000000E+00  0.00000000E+00
  0.00000000E+00  0.00000000E+00  0.00000000E+00
  0.00000000E+00  0.00000000E+00  0.00000000E+00
  0.00000000E+00  0.00000000E+00  0.00000000E+00
  0.00000000E+00  0.00000000E+00  0.00000000E+00
  0.00000000E+00  0.00000000E+00  0.00000000E+00
  0.00000000E+00  0.00000000E+00  0.00000000E+00
  0.00000000E+00  0.00000000E+00  0.00000000E+00
  0.00000000E+00  0.00000000E+00  0.00000000E+00
  0.00000000E+00  0.00000000E+00  0.00000000E+00
  0.00000000E+00  0.00000000E+00  0.00000000E+00
  0.00000000E+00  0.00000000E+00  0.00000000E+00
  0.00000000E+00  0.00000000E+00  0.00000000E+00
  0.00000000E+00  0.00000000E+00  0.00000000E+00
  0.00000000E+00  0.00000000E+00  0.00000000E+00
  0.00000000E+00  0.00000000E+00  0.00000000E+00
  0.00000000E+00  0.00000000E+00  0.00000000E+00
  0.00000000E+00  0.00000000E+00  0.00000000E+00
  0.00000000E+00  0.00000000E+00  0.00000000E+00
  0.00000000E+00  0.00000000E+00  0.00000000E+00
  0.00000000E+00  0.00000000E+00  0.00000000E+00
  0.00000000E+00  0.00000000E+00  0.00000000E+00
  0.00000000E+00  0.00000000E+00  0.00000000E+00
  0.00000000E+00  0.00000000E+00  0.00000000E+00
  0.00000000E+00  0.00000000E+00  0.00000000E+00
  0.00000000E+00  0.00000000E+00  0.00000000E+00
  0.00000000E+00  0.00000000E+00  0.00000000E+00
  0.00000000E+00  0.00000000E+00  0.00000000E+00
  0.00000000E+00  0.00000000E+00  0.00000000E+00
  0.00000000E+00  0.00000000E+00  0.00000000E+00
  0.00000000E+00  0.00000000E+00  0.00000000E+00
  0.00000000E+00  0.00000000E+00  0.00000000E+00
  0.00000000E+00  0.00000000E+00  0.00000000E+00
  0.00000000E+00  0.00000000E+00  0.00000000E+00
  0.00000000E+00  0.00000000E+00  0.00000000E+00
  0.00000000E+00  0.00000000E+00  0.00000000E+00
  0.00000000E+00  0.00000000E+00  0.00000000E+00
  0.00000000E+00  0.00000000E+00  0.00000000E+00
  0.00000000E+00  0.00000000E+00  0.00000000E+00
  0.00000000E+00  0.00000000E+00  0.00000000E+00
  0.00000000E+00  0.00000000E+00  0.00000000E+00
  0.00000000E+00  0.00000000E+00  0.00000000E+00
  0.00000000E+00  0.00000000E+00  0.00000000E+00
  0.00000000E+00  0.00000000E+00  0.00000000E+00
  0.00000000E+00  0.00000000E+00  0.00000000E+00
  0.00000000E+00  0.00000000E+00  0.00000000E+00
  0.00000000E+00  0.00000000E+00  0.00000000E+00
  0.00000000E+00  0.00000000E+00  0.00000000E+00
  0.00000000E+00  0.00000000E+00  0.00000000E+00
  0.00000000E+00  0.00000000E+00  0.00000000E+00
  0.00000000E+00  0.00000000E+00  0.00000000E+00
  0.00000000E+00  0.00000000E+00  0.00000000E+00
  0.00000000E+00  0.00000000E+00  0.00000000E+00
  0.00000000E+00  0.00000000E+00  0.00000000E+00
  0.00000000E+00  0.00000000E+00  0.00000000E+00
  0.00000000E+00  0.00000000E+00  0.00000000E+00
  0.00000000E+00  0.00000000E+00  0.00000000E+00
  0.00000000E+00  0.00000000E+00  0.00000000E+00
  0.00000000E+00  0.00000000E+00  0.00000000E+00
  0.00000000E+00  0.00000000E+00  0.00000000E+00
  0.00000000E+00  0.00000000E+00  0.00000000E+00
  0.00000000E+00  0.00000000E+00  0.00000000E+00
  0.00000000E+00  0.00000000E+00  0.00000000E+00
  0.00000000E+00  0.00000000E+00  0.00000000E+00
  0.00000000E+00  0.00000000E+00  0.00000000E+00
  0.00000000E+00  0.00000000E+00  0.00000000E+00
  0.00000000E+00  0.00000000E+00  0.00000000E+00
  0.00000000E+00  0.00000000E+00  0.00000000E+00
  0.00000000E+00  0.00000000E+00  0.00000000E+00
  0.00000000E+00  0.00000000E+00  0.00000000E+00
  0.00000000E+00  0.00000000E+00  0.00000000E+00
  0.00000000E+00  0.00000000E+00  0.00000000E+00
  0.00000000E+00  0.00000000E+00  0.00000000E+00
  0.00000000E+00  0.00000000E+00  0.00000000E+00
  0.00000000E+00  0.00000000E+00  0.00000000E+00
  0.00000000E+00  0.00000000E+00  0.00000000E+00
  0.00000000E+00  0.00000000E+00  0.00000000E+00
  0.00000000E+00  0.00000000E+00  0.00000000E+00
  0.00000000E+00  0.00000000E+00  0.00000000E+00
  0.00000000E+00  0.00000000E+00  0.00000000E+00
  0.00000000E+00  0.00000000E+00  0.00000000E+00
  0.00000000E+00  0.00000000E+00  0.00000000E+00
  0.00000000E+00  0.00000000E+00  0.00000000E+00
  0.00000000E+00  0.00000000E+00  0.00000000E+00
  0.00000000E+00  0.00000000E+00  0.00000000E+00
  0.00000000E+00  0.00000000E+00  0.00000000E+00
  0.00000000E+00  0.00000000E+00  0.00000000E+00
  0.00000000E+00  0.00000000E+00  0.00000000E+00
  0.00000000E+00  0.00000000E+00  0.00000000E+00
  0.00000000E+00  0.00000000E+00  0.00000000E+00
  0.00000000E+00  0.00000000E+00  0.00000000E+00
  0.00000000E+00  0.00000000E+00  0.00000000E+00
  0.00000000E+00  0.00000000E+00  0.00000000E+00
  0.00000000E+00  0.00000000E+00  0.00000000E+00
  0.00000000E+00  0.00000000E+00  0.00000000E+00
  0.00000000E+00  0.00000000E+00  0.00000000E+00
  0.00000000E+00  0.00000000E+00  0.00000000E+00
  0.00000000E+00  0.00000000E+00  0.00000000E+00
