Nb Ti                                   
    1.000000000000000     
    11.3029547100824992    1.0133887295711193    0.0460895107882738
    -4.7087950573679560   10.3550449167072323    0.0481634719600817
    -0.0090126180507059   -0.0669185213596613   18.5808610225067667
  Nb              Ti            
    84    44
Direct
     0.3175593370568866    0.1914645802305853    0.5620901102763020
     0.5620189384121881    0.1829302052676665    0.5596496700021250
     0.4358386954594825    0.3068907742698548    0.4370458216659621
     0.0558964659874439    0.9329293550025900    0.5567689918133616
     0.1906326841440367    0.3179809835000760    0.9375155090716846
     0.1810438634424396    0.5612016865122181    0.6877466536139185
     0.4397663188318642    0.0615274062916686    0.9392353093166674
     0.0554827910881094    0.9336802067175722    0.8126045695634897
     0.9315359643921113    0.8104960490524746    0.1852931315287761
     0.8103637618284174    0.1838098437917330    0.3150978484833947
     0.6892871667837185    0.8150153717886327    0.4400014931698850
     0.6877309063820100    0.3109750391065684    0.1858147100520332
     0.3164473903741212    0.9433241896426370    0.0608382641847959
     0.1844253379325869    0.8121119503319411    0.9405628556829551
     0.3131091599544376    0.4400454517171624    0.3127228696204911
     0.0651100999536731    0.4381497056899032    0.3139469039808342
     0.4323483059067788    0.8084646257076457    0.1876129136907901
     0.5637299229438620    0.6851323388945612    0.3120175341000332
     0.3148268461437660    0.1880917031729255    0.0639515352638133
     0.6866129098435391    0.5649282010436084    0.4351099125358644
     0.0635595929476943    0.6883540985685052    0.0630166225679456
     0.6896573380430762    0.5617651928949294    0.6880319794315477
     0.1930323208275132    0.3163386853311064    0.6881200315392485
     0.5671874619602396    0.6837275391072059    0.0642266087830027
     0.1883603053371057    0.3140364249641340    0.1865516534838850
     0.1857491233343659    0.5659914727467843    0.9356505561422311
     0.9362528006445765    0.5575177198721246    0.9371689900912537
     0.9371193369550804    0.3109291193647225    0.1896480319228819
     0.9336743856558840    0.5638922410414038    0.6878084968292694
     0.3120431510619803    0.1858664231346347    0.8102317768531635
     0.3074944561999617    0.9423798883193331    0.5605967939885316
     0.5648409770595464    0.6813802475517551    0.8151502266820432
     0.6893000191244421    0.0693028847999812    0.6908851169103585
     0.9284246573679483    0.0603327857022087    0.6870468439364437
     0.4351202202025141    0.5581449689859431    0.4389634796485793
     0.3134436799343221    0.6950691639918166    0.3126481577596559
     0.4381811658120005    0.3070740306546111    0.6894637345376011
     0.0629640595649893    0.6891913974087006    0.5640239209382123
     0.8147732471276902    0.6957559572375311    0.3112710220076644
     0.8150011951841835    0.1944558101628788    0.0605916115270683
     0.8115996488196809    0.9402839687111119    0.8133003848530649
     0.9384371252590001    0.0582375341711747    0.9370846740988298
     0.4376783023955041    0.8154096463609121    0.9360393776103866
     0.0639856367982055    0.1852791006716993    0.8103326263050090
     0.3165862780603838    0.9427539532373300    0.3162060990607925
     0.0601916469224640    0.4345792959167187    0.8124806606118903
     0.6838714318270602    0.3100169415307922    0.6851301587529468
     0.4458657209586565    0.3156508156880389    0.1887043533097191
     0.8114099379475307    0.4369062520549472    0.8114603441562382
     0.9373444069088540    0.3157074176243886    0.4339972867797532
     0.9362801908034447    0.5640046702648831    0.4393625913157260
     0.3093374354917189    0.4328443405914811    0.0639243897153137
     0.8127982066447361    0.1892121327598879    0.8152748823882191
     0.3078515214224879    0.4338907351677793    0.5614314220285826
     0.1823173852746504    0.0722705093889201    0.1862059800684009
     0.4431709231908983    0.8157664712866042    0.4380514690683722
     0.5582894653763157    0.6859392328839954    0.5612731174604076
     0.1922473112714845    0.8167495715216389    0.6873854162812576
     0.9382183688763790    0.8098741642455151    0.9380177463889291
     0.5663547382675957    0.9323268306585549    0.8125450590663766
     0.8135620064067312    0.6919295128374081    0.0616873988453888
     0.0621960649794175    0.4339648275066715    0.5599230845682872
     0.4331105226301491    0.8097578017785657    0.6903716317257710
     0.6896236356136113    0.0688760171750369    0.1844874030866801
     0.3167625547737055    0.6817737170363547    0.8126885719495022
     0.3149812044099692    0.6871336227394435    0.0610939826385091
     0.9381971918697869    0.3073711083036386    0.9377775259035063
     0.9437020756527201    0.5642150578659532    0.1844548822878246
     0.8168048266628993    0.4370929362344926    0.5653987817267795
     0.9350752401379914    0.0587286554378388    0.1872885362436303
     0.8094104159475042    0.4406401960952002    0.0634100429728145
     0.4392310215037266    0.5630829597556799    0.1859277524801211
     0.1892063318111209    0.5653322093211754    0.4377033228967352
     0.3139777774738156    0.6905921078713440    0.5630849940521079
     0.5650230434845784    0.4390032109715061    0.8141120519397985
     0.3136698197477678    0.4351719354032965    0.8128141419242403
     0.0569382922324740    0.6828003608585465    0.3117773703426823
     0.8152508539156301    0.9389413699562715    0.5627544106803303
     0.5592314493443731    0.4336445422806713    0.3146476901868542
     0.1879285199273867    0.5643144723579223    0.1878924708966455
     0.4361025547324910    0.0586386227235234    0.4372082811417496
     0.9355962945674945    0.8148403634138758    0.4356497950106790
     0.8146395855165671    0.9434602089957604    0.3146546964316793
     0.4383695123162859    0.3050737052331021    0.9365778509570939
     0.0607834273987539    0.4362467882818051    0.0623133824718015
     0.6868973752659225    0.0607715460922475    0.9398978676310359
     0.1835560093764250    0.3099445985120163    0.4363495744633780
     0.6903280385194516    0.3128962886915295    0.9388903055633546
     0.0629513785228333    0.1846161510053396    0.0604993838811670
     0.8155221574081172    0.9446190838796057    0.0622962000217398
     0.4360516276513478    0.5598107459082781    0.9401853138769327
     0.8134081815362399    0.6918195458287553    0.8126566082542305
     0.5588338403444234    0.4331637862870152    0.0605737875793056
     0.1917244370783350    0.0634481075345240    0.9365503187130552
     0.5632489593925099    0.9379811784389959    0.5681007931498123
     0.6870903658314510    0.8121264029099291    0.9381548387818804
     0.6818558925562879    0.8108179401176574    0.6872777000568816
     0.5664866408327621    0.1907970711613171    0.3139961754874230
     0.5591041242987216    0.9275068698919512    0.0652770154134098
     0.9407750684397883    0.0705860268793225    0.4395576469206151
     0.5637524361318191    0.9364764112978881    0.3077344754592108
     0.8117948452182839    0.1855361523806558    0.5591978274916937
     0.1853729374167142    0.8131087203771348    0.4356120879439686
     0.4390886576860722    0.5596576571514157    0.6859834810580233
     0.8074053709584671    0.6851963016984740    0.5620265891611749
     0.1856183033849085    0.8240434528996619    0.1885411322975995
     0.0671729121786928    0.1854521074342202    0.5673040362060802
     0.5601165020555700    0.1835974123828156    0.8137601044991226
     0.6832578963839776    0.8200623866181089    0.1878418288367313
     0.4328251001495094    0.0588874726835289    0.1901409005583354
     0.9374583502566325    0.3124266540305293    0.6852119709769848
     0.6897607749533620    0.5663632045736868    0.9384251468032239
     0.0651526137213453    0.9367900365855928    0.0635473826102040
     0.0598335866177202    0.1875576373002826    0.3102760840354987
     0.8116938073416465    0.4396612567894117    0.3112276715922353
     0.6900207875160642    0.5626432602722156    0.1883746910738568
     0.6816397519821004    0.0598804167626797    0.4371333450756178
     0.5650115080238557    0.4367227265969015    0.5625313893083697
     0.1915093725674769    0.0621119830898074    0.4363094600720526
     0.3127850058016010    0.1885371988780548    0.3098014776934651
     0.0670682601030936    0.6895380901177561    0.8122737862962196
     0.1789255449002792    0.0607687786429176    0.6847806875229475
     0.3104557417823980    0.9341545212446715    0.8150644690249474
     0.4369869018599177    0.0581075250472658    0.6858180298364217
     0.6917612135150225    0.3176390880779070    0.4419682135355674
     0.0655763973763109    0.9355355729281385    0.3097330374564860
     0.5625374694709201    0.1810196569995706    0.0632270798120589
     0.9444284348112162    0.8166342072565481    0.6852597280884622
 
  0.00000000E+00  0.00000000E+00  0.00000000E+00
  0.00000000E+00  0.00000000E+00  0.00000000E+00
  0.00000000E+00  0.00000000E+00  0.00000000E+00
  0.00000000E+00  0.00000000E+00  0.00000000E+00
  0.00000000E+00  0.00000000E+00  0.00000000E+00
  0.00000000E+00  0.00000000E+00  0.00000000E+00
  0.00000000E+00  0.00000000E+00  0.00000000E+00
  0.00000000E+00  0.00000000E+00  0.00000000E+00
  0.00000000E+00  0.00000000E+00  0.00000000E+00
  0.00000000E+00  0.00000000E+00  0.00000000E+00
  0.00000000E+00  0.00000000E+00  0.00000000E+00
  0.00000000E+00  0.00000000E+00  0.00000000E+00
  0.00000000E+00  0.00000000E+00  0.00000000E+00
  0.00000000E+00  0.00000000E+00  0.00000000E+00
  0.00000000E+00  0.00000000E+00  0.00000000E+00
  0.00000000E+00  0.00000000E+00  0.00000000E+00
  0.00000000E+00  0.00000000E+00  0.00000000E+00
  0.00000000E+00  0.00000000E+00  0.00000000E+00
  0.00000000E+00  0.00000000E+00  0.00000000E+00
  0.00000000E+00  0.00000000E+00  0.00000000E+00
  0.00000000E+00  0.00000000E+00  0.00000000E+00
  0.00000000E+00  0.00000000E+00  0.00000000E+00
  0.00000000E+00  0.00000000E+00  0.00000000E+00
  0.00000000E+00  0.00000000E+00  0.00000000E+00
  0.00000000E+00  0.00000000E+00  0.00000000E+00
  0.00000000E+00  0.00000000E+00  0.00000000E+00
  0.00000000E+00  0.00000000E+00  0.00000000E+00
  0.00000000E+00  0.00000000E+00  0.00000000E+00
  0.00000000E+00  0.00000000E+00  0.00000000E+00
  0.00000000E+00  0.00000000E+00  0.00000000E+00
  0.00000000E+00  0.00000000E+00  0.00000000E+00
  0.00000000E+00  0.00000000E+00  0.00000000E+00
  0.00000000E+00  0.00000000E+00  0.00000000E+00
  0.00000000E+00  0.00000000E+00  0.00000000E+00
  0.00000000E+00  0.00000000E+00  0.00000000E+00
  0.00000000E+00  0.00000000E+00  0.00000000E+00
  0.00000000E+00  0.00000000E+00  0.00000000E+00
  0.00000000E+00  0.00000000E+00  0.00000000E+00
  0.00000000E+00  0.00000000E+00  0.00000000E+00
  0.00000000E+00  0.00000000E+00  0.00000000E+00
  0.00000000E+00  0.00000000E+00  0.00000000E+00
  0.00000000E+00  0.00000000E+00  0.00000000E+00
  0.00000000E+00  0.00000000E+00  0.00000000E+00
  0.00000000E+00  0.00000000E+00  0.00000000E+00
  0.00000000E+00  0.00000000E+00  0.00000000E+00
  0.00000000E+00  0.00000000E+00  0.00000000E+00
  0.00000000E+00  0.00000000E+00  0.00000000E+00
  0.00000000E+00  0.00000000E+00  0.00000000E+00
  0.00000000E+00  0.00000000E+00  0.00000000E+00
  0.00000000E+00  0.00000000E+00  0.00000000E+00
  0.00000000E+00  0.00000000E+00  0.00000000E+00
  0.00000000E+00  0.00000000E+00  0.00000000E+00
  0.00000000E+00  0.00000000E+00  0.00000000E+00
  0.00000000E+00  0.00000000E+00  0.00000000E+00
  0.00000000E+00  0.00000000E+00  0.00000000E+00
  0.00000000E+00  0.00000000E+00  0.00000000E+00
  0.00000000E+00  0.00000000E+00  0.00000000E+00
  0.00000000E+00  0.00000000E+00  0.00000000E+00
  0.00000000E+00  0.00000000E+00  0.00000000E+00
  0.00000000E+00  0.00000000E+00  0.00000000E+00
  0.00000000E+00  0.00000000E+00  0.00000000E+00
  0.00000000E+00  0.00000000E+00  0.00000000E+00
  0.00000000E+00  0.00000000E+00  0.00000000E+00
  0.00000000E+00  0.00000000E+00  0.00000000E+00
  0.00000000E+00  0.00000000E+00  0.00000000E+00
  0.00000000E+00  0.00000000E+00  0.00000000E+00
  0.00000000E+00  0.00000000E+00  0.00000000E+00
  0.00000000E+00  0.00000000E+00  0.00000000E+00
  0.00000000E+00  0.00000000E+00  0.00000000E+00
  0.00000000E+00  0.00000000E+00  0.00000000E+00
  0.00000000E+00  0.00000000E+00  0.00000000E+00
  0.00000000E+00  0.00000000E+00  0.00000000E+00
  0.00000000E+00  0.00000000E+00  0.00000000E+00
  0.00000000E+00  0.00000000E+00  0.00000000E+00
  0.00000000E+00  0.00000000E+00  0.00000000E+00
  0.00000000E+00  0.00000000E+00  0.00000000E+00
  0.00000000E+00  0.00000000E+00  0.00000000E+00
  0.00000000E+00  0.00000000E+00  0.00000000E+00
  0.00000000E+00  0.00000000E+00  0.00000000E+00
  0.00000000E+00  0.00000000E+00  0.00000000E+00
  0.00000000E+00  0.00000000E+00  0.00000000E+00
  0.00000000E+00  0.00000000E+00  0.00000000E+00
  0.00000000E+00  0.00000000E+00  0.00000000E+00
  0.00000000E+00  0.00000000E+00  0.00000000E+00
  0.00000000E+00  0.00000000E+00  0.00000000E+00
  0.00000000E+00  0.00000000E+00  0.00000000E+00
  0.00000000E+00  0.00000000E+00  0.00000000E+00
  0.00000000E+00  0.00000000E+00  0.00000000E+00
  0.00000000E+00  0.00000000E+00  0.00000000E+00
  0.00000000E+00  0.00000000E+00  0.00000000E+00
  0.00000000E+00  0.00000000E+00  0.00000000E+00
  0.00000000E+00  0.00000000E+00  0.00000000E+00
  0.00000000E+00  0.00000000E+00  0.00000000E+00
  0.00000000E+00  0.00000000E+00  0.00000000E+00
  0.00000000E+00  0.00000000E+00  0.00000000E+00
  0.00000000E+00  0.00000000E+00  0.00000000E+00
  0.00000000E+00  0.00000000E+00  0.00000000E+00
  0.00000000E+00  0.00000000E+00  0.00000000E+00
  0.00000000E+00  0.00000000E+00  0.00000000E+00
  0.00000000E+00  0.00000000E+00  0.00000000E+00
  0.00000000E+00  0.00000000E+00  0.00000000E+00
  0.00000000E+00  0.00000000E+00  0.00000000E+00
  0.00000000E+00  0.00000000E+00  0.00000000E+00
  0.00000000E+00  0.00000000E+00  0.00000000E+00
  0.00000000E+00  0.00000000E+00  0.00000000E+00
  0.00000000E+00  0.00000000E+00  0.00000000E+00
  0.00000000E+00  0.00000000E+00  0.00000000E+00
  0.00000000E+00  0.00000000E+00  0.00000000E+00
  0.00000000E+00  0.00000000E+00  0.00000000E+00
  0.00000000E+00  0.00000000E+00  0.00000000E+00
  0.00000000E+00  0.00000000E+00  0.00000000E+00
  0.00000000E+00  0.00000000E+00  0.00000000E+00
  0.00000000E+00  0.00000000E+00  0.00000000E+00
  0.00000000E+00  0.00000000E+00  0.00000000E+00
  0.00000000E+00  0.00000000E+00  0.00000000E+00
  0.00000000E+00  0.00000000E+00  0.00000000E+00
  0.00000000E+00  0.00000000E+00  0.00000000E+00
  0.00000000E+00  0.00000000E+00  0.00000000E+00
  0.00000000E+00  0.00000000E+00  0.00000000E+00
  0.00000000E+00  0.00000000E+00  0.00000000E+00
  0.00000000E+00  0.00000000E+00  0.00000000E+00
  0.00000000E+00  0.00000000E+00  0.00000000E+00
  0.00000000E+00  0.00000000E+00  0.00000000E+00
  0.00000000E+00  0.00000000E+00  0.00000000E+00
  0.00000000E+00  0.00000000E+00  0.00000000E+00
  0.00000000E+00  0.00000000E+00  0.00000000E+00
  0.00000000E+00  0.00000000E+00  0.00000000E+00
  0.00000000E+00  0.00000000E+00  0.00000000E+00
