Nb Ti                                   
    1.000000000000000     
    11.7601476041266082   -0.0233625239085748   -0.0047750100674589
    -5.9003240011070996   10.1364318917313003    0.0032834528838814
    -0.0076150531955776    0.0016468661672955   18.6717892943637160
  Nb              Ti            
     8   120
Direct
     0.1656170709255508    0.0852982247543234    0.6882220475188456
     0.5835805017549102    0.4135652694622868    0.8128331670226288
     0.1677988772796629    0.3376574629581195    0.4369285928648937
     0.4165223832759354    0.0880494859158149    0.4366751662863061
     0.6671125931935887    0.8356006268877649    0.1890662640614935
     0.5848440395723902    0.9147666149120949    0.0612567448355960
     0.9183972486995343    0.3343629545670532    0.9373903266715309
     0.4157303470795361    0.8366584631507424    0.6875095095300658
     0.1666321611981999    0.3332664354316870    0.1871993662811040
     0.4175116786485313    0.5857779473226572    0.1872196922627281
     0.0830041177592094    0.6655523888166167    0.0627574217446318
     0.8327408560190767    0.6657932810473167    0.8122607726527500
     0.9171006978523677    0.5841124313076809    0.4373355460599415
     0.9148604781002586    0.0828891034116543    0.9377895312415012
     0.1676194209796355    0.3353655004135231    0.9375667043174503
     0.1677970514110633    0.5853937804599231    0.6874628899117705
     0.8338033649289930    0.4160008890310177    0.0642083543540989
     0.4148164568559690    0.3349218132134330    0.4369310095408231
     0.1659879363977773    0.0831436859677574    0.9383137150235791
     0.5831337533742308    0.4153861158123097    0.3127738388411596
     0.9163676555112861    0.0829770764659502    0.1872335694151143
     0.6668595937501426    0.3337605781734479    0.9394027308334197
     0.1663895453316094    0.8352790762230197    0.6876437732490710
     0.4161270839466241    0.8337682591475890    0.4375580314720878
     0.5831904636388821    0.4159003449891576    0.0630032805727201
     0.6672837878832438    0.0852884764876331    0.4380228874700913
     0.5831796744863581    0.1665842951189183    0.3115663390587308
     0.3325447216025479    0.9159926761363492    0.8145264056544080
     0.9167129659137074    0.8328973688188901    0.6873920286129767
     0.4165261598075440    0.5854605450859172    0.6872276016348439
     0.5833938770362748    0.6654335727810331    0.3141026272391978
     0.5843225790472681    0.9141765869852181    0.5614547742015982
     0.1665725951834802    0.0847612833022799    0.4369632315513982
     0.4158323153409401    0.0836597740277722    0.1873864897478635
     0.5827318485471344    0.1649238392055193    0.0628449120827283
     0.4158250583224176    0.3347019917869634    0.9395620683933982
     0.3334750637952585    0.6657782461474797    0.5608533937826919
     0.9167730385619094    0.8328890300747076    0.9371401078296753
     0.8343914969871594    0.6654319173894020    0.0624715012746029
     0.4175480077989922    0.0852837293081660    0.9379918437538045
     0.0830183463533309    0.1663140071267699    0.0622900602010494
     0.3344043194267123    0.9163302563848781    0.5621175898451444
     0.5841321089743616    0.6655729860974504    0.5624456409101616
     0.1652893981772491    0.0833672530413241    0.1868630839668684
     0.3325885240801383    0.9165192937262128    0.3114569028382200
     0.5828599126299676    0.9162333651815543    0.3139209154358935
     0.9164372458243799    0.0842278269290924    0.4376167619092219
     0.3329241229463727    0.9157895129224456    0.0625966613214269
     0.3341061157330517    0.6656139404625528    0.8136689680527420
     0.3324337048486701    0.1667997858352416    0.3104605929078890
     0.4166184113973709    0.8337511326844153    0.9365902549223628
     0.3331318614557223    0.6668208081294829    0.0628655822304203
     0.6666988802088399    0.3337025732086508    0.6856662589425971
     0.3319145934931286    0.1665518005513823    0.8145811564272682
     0.8343963723600998    0.9164396316265552    0.3141641057856724
     0.4190058931734871    0.3350989727749759    0.6866169024354443
     0.4173226708081048    0.3349005365802479    0.1872239194052077
     0.9166912992581634    0.5842333149462137    0.1879659117700440
     0.9155639594646807    0.3330125169537116    0.1879380943555627
     0.3335298015083594    0.1650829114199844    0.5625296222095268
     0.8344810357903536    0.9160971540299430    0.8118037128851200
     0.6675192450121573    0.8337851682305424    0.6874121772905442
     0.1649603205357108    0.5844660969967529    0.4373905910356350
     0.0835676031090741    0.9158332141823157    0.8140203311064658
     0.3337211288511054    0.4156774729393089    0.8124915768365606
     0.5837246664742831    0.1658268094358683    0.8121679283186310
     0.1660687293771821    0.3334461161496649    0.6879480758012784
     0.0833739395926054    0.9164106387596056    0.5612730473906700
     0.6663770544328826    0.5838581677541095    0.1876712761377850
     0.8332699968167868    0.1655025837197452    0.3130166796468881
     0.1659665451834229    0.8341803332146839    0.1872695741058019
     0.8328328548774697    0.4160715846788726    0.3127675992288303
     0.6673728764252317    0.5835901506502531    0.4371913028513806
     0.8321545167555989    0.1657830096128723    0.0640205341520733
     0.9160520192149443    0.5828506606324843    0.9371690849706921
     0.9167283634661195    0.8337204640468996    0.1873550079677251
     0.6669823467623897    0.0846856226726365    0.9355858176498769
     0.8340922938731998    0.6657452290028721    0.5622384135191376
     0.6671992509467314    0.0826138363274473    0.6870462919853511
     0.8330600624575074    0.1659293492171938    0.5622185010600141
     0.9161766458648414    0.3335024474547306    0.6871211638078341
     0.0829022968430270    0.1666212563620951    0.3110771944083806
     0.8340113754253998    0.9139056584911111    0.0608238763641969
     0.0834011296865900    0.6668154671553792    0.3122225059983947
     0.1676527963410787    0.5851657756985578    0.1875862525740780
     0.4151539411836923    0.0839669275297127    0.6885198831248706
     0.5841694721275977    0.6659264277379335    0.0610852748962918
     0.3329602333367435    0.6653036555832910    0.3128236269549369
     0.6651280459739455    0.0840599837404609    0.1892007024270317
     0.0835960190613336    0.6665881237523558    0.5625160220550276
     0.5833937823173797    0.4154888567130743    0.5616451357313675
     0.6678385874284418    0.3337506680059233    0.4375271497908742
     0.8343064417720564    0.4166730587945040    0.5619867672441643
     0.4159521374427403    0.8347802393282906    0.1890354694973922
     0.3333724618470915    0.4161557951755182    0.5639487881768073
     0.9168655831227533    0.3343499254889316    0.4375576562816014
     0.0824770610061330    0.1657407487581750    0.8145005999257401
     0.6666007764358218    0.5834141677872635    0.6858649217979754
     0.0830430324224687    0.6658375360533852    0.8125767425871716
     0.5829309428861819    0.1636557419941932    0.5638151005622393
     0.0838699619424497    0.1672132693383472    0.5621974434539545
     0.8332573611764018    0.6659302806127804    0.3124954377462755
     0.5826082799434030    0.9149826094086447    0.8130872425469416
     0.6673691181370524    0.8336664171765122    0.4376721854705544
     0.6659361388203829    0.3343856824557520    0.1878594461136321
     0.1656643507906511    0.8326253155785234    0.9381611691261984
     0.4163501852502229    0.5836036289345167    0.9376485295757205
     0.9170873077380981    0.8339022484336814    0.4374735812454080
     0.0831188666188587    0.9156282603216956    0.0627382505969579
     0.8337473510460066    0.9156371958361388    0.5627211641257691
     0.1664202748531700    0.8335968825099118    0.4372442424014955
     0.0834292720300446    0.9160136247495416    0.3120914749633169
     0.8339541813780220    0.1655395059566914    0.8107678090159655
     0.3330437038902690    0.4169494703291149    0.0626726320275544
     0.8324616917068158    0.4142655329465881    0.8110718676056353
     0.0834009263557809    0.4165694801418054    0.5636249852918616
     0.6672852672566842    0.8326161180284137    0.9355423930980229
     0.6670208831116808    0.5827700596263286    0.9386893344674517
     0.9169562133069490    0.0840685775184805    0.6870431167618288
     0.0827094874346355    0.4165879247067337    0.3111023671353689
     0.3330969495182949    0.1654807879245883    0.0627792767409058
     0.0834608745569986    0.4168184797617413    0.8113198697764998
     0.4177918461656812    0.5839538605639245    0.4375483599630863
     0.0832742348428087    0.4158653892032163    0.0638644584017796
     0.1668269199974861    0.5836638121027499    0.9376465490211503
     0.9176763833559346    0.5845021228915042    0.6872459915295578
     0.3335306711225515    0.4168678538029300    0.3107049245598091
     0.5834884232513204    0.6636467641979439    0.8118662943643906
 
  0.00000000E+00  0.00000000E+00  0.00000000E+00
  0.00000000E+00  0.00000000E+00  0.00000000E+00
  0.00000000E+00  0.00000000E+00  0.00000000E+00
  0.00000000E+00  0.00000000E+00  0.00000000E+00
  0.00000000E+00  0.00000000E+00  0.00000000E+00
  0.00000000E+00  0.00000000E+00  0.00000000E+00
  0.00000000E+00  0.00000000E+00  0.00000000E+00
  0.00000000E+00  0.00000000E+00  0.00000000E+00
  0.00000000E+00  0.00000000E+00  0.00000000E+00
  0.00000000E+00  0.00000000E+00  0.00000000E+00
  0.00000000E+00  0.00000000E+00  0.00000000E+00
  0.00000000E+00  0.00000000E+00  0.00000000E+00
  0.00000000E+00  0.00000000E+00  0.00000000E+00
  0.00000000E+00  0.00000000E+00  0.00000000E+00
  0.00000000E+00  0.00000000E+00  0.00000000E+00
  0.00000000E+00  0.00000000E+00  0.00000000E+00
  0.00000000E+00  0.00000000E+00  0.00000000E+00
  0.00000000E+00  0.00000000E+00  0.00000000E+00
  0.00000000E+00  0.00000000E+00  0.00000000E+00
  0.00000000E+00  0.00000000E+00  0.00000000E+00
  0.00000000E+00  0.00000000E+00  0.00000000E+00
  0.00000000E+00  0.00000000E+00  0.00000000E+00
  0.00000000E+00  0.00000000E+00  0.00000000E+00
  0.00000000E+00  0.00000000E+00  0.00000000E+00
  0.00000000E+00  0.00000000E+00  0.00000000E+00
  0.00000000E+00  0.00000000E+00  0.00000000E+00
  0.00000000E+00  0.00000000E+00  0.00000000E+00
  0.00000000E+00  0.00000000E+00  0.00000000E+00
  0.00000000E+00  0.00000000E+00  0.00000000E+00
  0.00000000E+00  0.00000000E+00  0.00000000E+00
  0.00000000E+00  0.00000000E+00  0.00000000E+00
  0.00000000E+00  0.00000000E+00  0.00000000E+00
  0.00000000E+00  0.00000000E+00  0.00000000E+00
  0.00000000E+00  0.00000000E+00  0.00000000E+00
  0.00000000E+00  0.00000000E+00  0.00000000E+00
  0.00000000E+00  0.00000000E+00  0.00000000E+00
  0.00000000E+00  0.00000000E+00  0.00000000E+00
  0.00000000E+00  0.00000000E+00  0.00000000E+00
  0.00000000E+00  0.00000000E+00  0.00000000E+00
  0.00000000E+00  0.00000000E+00  0.00000000E+00
  0.00000000E+00  0.00000000E+00  0.00000000E+00
  0.00000000E+00  0.00000000E+00  0.00000000E+00
  0.00000000E+00  0.00000000E+00  0.00000000E+00
  0.00000000E+00  0.00000000E+00  0.00000000E+00
  0.00000000E+00  0.00000000E+00  0.00000000E+00
  0.00000000E+00  0.00000000E+00  0.00000000E+00
  0.00000000E+00  0.00000000E+00  0.00000000E+00
  0.00000000E+00  0.00000000E+00  0.00000000E+00
  0.00000000E+00  0.00000000E+00  0.00000000E+00
  0.00000000E+00  0.00000000E+00  0.00000000E+00
  0.00000000E+00  0.00000000E+00  0.00000000E+00
  0.00000000E+00  0.00000000E+00  0.00000000E+00
  0.00000000E+00  0.00000000E+00  0.00000000E+00
  0.00000000E+00  0.00000000E+00  0.00000000E+00
  0.00000000E+00  0.00000000E+00  0.00000000E+00
  0.00000000E+00  0.00000000E+00  0.00000000E+00
  0.00000000E+00  0.00000000E+00  0.00000000E+00
  0.00000000E+00  0.00000000E+00  0.00000000E+00
  0.00000000E+00  0.00000000E+00  0.00000000E+00
  0.00000000E+00  0.00000000E+00  0.00000000E+00
  0.00000000E+00  0.00000000E+00  0.00000000E+00
  0.00000000E+00  0.00000000E+00  0.00000000E+00
  0.00000000E+00  0.00000000E+00  0.00000000E+00
  0.00000000E+00  0.00000000E+00  0.00000000E+00
  0.00000000E+00  0.00000000E+00  0.00000000E+00
  0.00000000E+00  0.00000000E+00  0.00000000E+00
  0.00000000E+00  0.00000000E+00  0.00000000E+00
  0.00000000E+00  0.00000000E+00  0.00000000E+00
  0.00000000E+00  0.00000000E+00  0.00000000E+00
  0.00000000E+00  0.00000000E+00  0.00000000E+00
  0.00000000E+00  0.00000000E+00  0.00000000E+00
  0.00000000E+00  0.00000000E+00  0.00000000E+00
  0.00000000E+00  0.00000000E+00  0.00000000E+00
  0.00000000E+00  0.00000000E+00  0.00000000E+00
  0.00000000E+00  0.00000000E+00  0.00000000E+00
  0.00000000E+00  0.00000000E+00  0.00000000E+00
  0.00000000E+00  0.00000000E+00  0.00000000E+00
  0.00000000E+00  0.00000000E+00  0.00000000E+00
  0.00000000E+00  0.00000000E+00  0.00000000E+00
  0.00000000E+00  0.00000000E+00  0.00000000E+00
  0.00000000E+00  0.00000000E+00  0.00000000E+00
  0.00000000E+00  0.00000000E+00  0.00000000E+00
  0.00000000E+00  0.00000000E+00  0.00000000E+00
  0.00000000E+00  0.00000000E+00  0.00000000E+00
  0.00000000E+00  0.00000000E+00  0.00000000E+00
  0.00000000E+00  0.00000000E+00  0.00000000E+00
  0.00000000E+00  0.00000000E+00  0.00000000E+00
  0.00000000E+00  0.00000000E+00  0.00000000E+00
  0.00000000E+00  0.00000000E+00  0.00000000E+00
  0.00000000E+00  0.00000000E+00  0.00000000E+00
  0.00000000E+00  0.00000000E+00  0.00000000E+00
  0.00000000E+00  0.00000000E+00  0.00000000E+00
  0.00000000E+00  0.00000000E+00  0.00000000E+00
  0.00000000E+00  0.00000000E+00  0.00000000E+00
  0.00000000E+00  0.00000000E+00  0.00000000E+00
  0.00000000E+00  0.00000000E+00  0.00000000E+00
  0.00000000E+00  0.00000000E+00  0.00000000E+00
  0.00000000E+00  0.00000000E+00  0.00000000E+00
  0.00000000E+00  0.00000000E+00  0.00000000E+00
  0.00000000E+00  0.00000000E+00  0.00000000E+00
  0.00000000E+00  0.00000000E+00  0.00000000E+00
  0.00000000E+00  0.00000000E+00  0.00000000E+00
  0.00000000E+00  0.00000000E+00  0.00000000E+00
  0.00000000E+00  0.00000000E+00  0.00000000E+00
  0.00000000E+00  0.00000000E+00  0.00000000E+00
  0.00000000E+00  0.00000000E+00  0.00000000E+00
  0.00000000E+00  0.00000000E+00  0.00000000E+00
  0.00000000E+00  0.00000000E+00  0.00000000E+00
  0.00000000E+00  0.00000000E+00  0.00000000E+00
  0.00000000E+00  0.00000000E+00  0.00000000E+00
  0.00000000E+00  0.00000000E+00  0.00000000E+00
  0.00000000E+00  0.00000000E+00  0.00000000E+00
  0.00000000E+00  0.00000000E+00  0.00000000E+00
  0.00000000E+00  0.00000000E+00  0.00000000E+00
  0.00000000E+00  0.00000000E+00  0.00000000E+00
  0.00000000E+00  0.00000000E+00  0.00000000E+00
  0.00000000E+00  0.00000000E+00  0.00000000E+00
  0.00000000E+00  0.00000000E+00  0.00000000E+00
  0.00000000E+00  0.00000000E+00  0.00000000E+00
  0.00000000E+00  0.00000000E+00  0.00000000E+00
  0.00000000E+00  0.00000000E+00  0.00000000E+00
  0.00000000E+00  0.00000000E+00  0.00000000E+00
  0.00000000E+00  0.00000000E+00  0.00000000E+00
  0.00000000E+00  0.00000000E+00  0.00000000E+00
  0.00000000E+00  0.00000000E+00  0.00000000E+00
  0.00000000E+00  0.00000000E+00  0.00000000E+00
  0.00000000E+00  0.00000000E+00  0.00000000E+00
  0.00000000E+00  0.00000000E+00  0.00000000E+00
