Nb Ti                                   
    1.000000000000000     
    13.1015346885952901   -0.0595373935483054   -0.0114237019086694
    -6.4971256106187436    9.2981998050839039    0.0079066035171145
    -0.0176888639811897   -0.0010458675314128   18.5259769119130127
  Nb              Ti            
    68    60
Direct
     0.9349969101741596    0.6265609914399989    0.4385698257876283
     0.0677910493094896    0.8786915656843917    0.0612232018607346
     0.5627227209805954    0.6238743480916251    0.3137911231814376
     0.5647483100089641    0.6168926037777501    0.5618828588716758
     0.0556770892441126    0.3632672870594671    0.8116238697771603
     0.9298532122380071    0.6115998537491957    0.9358965673235591
     0.5613842504695157    0.6239625249728112    0.0616465109614822
     0.5679184065722632    0.3785948558712587    0.0620048895497492
     0.3134796121412509    0.1294120893150780    0.5623621680104587
     0.6957332174361268    0.8831960566957699    0.1872848266314313
     0.1871069757157813    0.1226751990149079    0.4370219975175845
     0.3141121679943688    0.3811313572061563    0.3112009184826663
     0.0611845153017409    0.1171056749626654    0.0639082332375659
     0.5596751617302802    0.1154880813159486    0.5613710408405662
     0.1860040000346007    0.1266664302160427    0.6892223304563294
     0.9424284361394477    0.1337431666478366    0.1866181052987348
     0.8216757762494027    0.6279454926534505    0.3107224283104415
     0.5576791133372160    0.8652963343010025    0.0651859744155004
     0.8132311072462161    0.8723322690681907    0.0634484683325696
     0.8094626799609859    0.3707506591109231    0.3138161204708741
     0.8060989812480429    0.8725895878799669    0.8089127546860958
     0.1862650871560762    0.1218105336192975    0.1899728939200339
     0.3126660852827583    0.6271364619954825    0.3142728429435617
     0.5583490719763843    0.8668466497856799    0.3102742742042293
     0.6890811134746555    0.3786138574030843    0.4359376054040049
     0.0605501647874468    0.8748557392427847    0.5636829367803975
     0.3127503855341698    0.8758084558958310    0.5631000260807586
     0.1904765954730034    0.8737524040736401    0.4380512713139469
     0.1811097635996393    0.8733232794838304    0.1859289874789251
     0.1874168134610239    0.6275439649398270    0.6891483335901387
     0.4435128487221707    0.8811044549505892    0.1882734511759334
     0.0662463849241399    0.8727362055101405    0.8119768067266560
     0.4391293769430918    0.1260356723775361    0.6850760257040979
     0.5559946993630159    0.3714098109714769    0.8164098084316197
     0.1896697546425191    0.3756029399510376    0.4385586039096934
     0.1847659103139636    0.6236723679881383    0.9342352844602556
     0.5667024760600052    0.8698057775829686    0.5608791749644790
     0.4358145910198411    0.1200714298739298    0.1887659696331999
     0.4316187821875587    0.3691289978370620    0.9410318578846739
     0.0603565470401857    0.1263356869218276    0.5632451184749289
     0.1927342448294650    0.6262372212037471    0.4370997068011167
     0.3155636695539583    0.1253164978030674    0.8112585397062093
     0.0641404729158516    0.6249945707961838    0.8148251516878630
     0.9388438362098641    0.1223233150775721    0.4373336027244482
     0.6826744940712517    0.3687720780598284    0.1862893465758069
     0.3168172456123663    0.6337792232254760    0.5631583753970271
     0.3096377352084941    0.3756729775360900    0.0614587222490174
     0.0597675426587157    0.6227742720478130    0.5608018300055745
     0.3195181921318082    0.1338897559704997    0.3145347512128033
     0.9413744515987741    0.3708985206233855    0.6872902678823647
     0.6928294617098785    0.1306385592140619    0.1842978290719296
     0.6831604974789526    0.6246868704613641    0.9374126971929024
     0.9368986049618255    0.3756954139227215    0.1881175075421666
     0.1882426206177968    0.8767173065232954    0.6874614683502440
     0.0594028949893904    0.1221075373444531    0.3118603729093449
     0.9360488971264375    0.3659805854999356    0.9370293106927934
     0.9348928170114287    0.8723969556502317    0.4403277596172154
     0.0542532592075963    0.1113420405955262    0.8114942202058714
     0.1921595256399195    0.3777877836376580    0.6893775762686537
     0.4442557786319993    0.1303546016123655    0.4382103434153267
     0.8144668634258204    0.8686517997961101    0.3122879279663211
     0.9358772233900005    0.6180207018310309    0.1859675563573735
     0.8181161517053825    0.6302467892925194    0.0616725560328979
     0.5638451160224975    0.6282841135174041    0.8141048971418984
     0.0633547505832222    0.3760167449069962    0.5655914602258666
     0.1941426853980111    0.3771788178430132    0.1853427586944485
     0.6838196509632225    0.3739514379926194    0.9356091892575025
     0.3180817496305164    0.3838206210027231    0.5630076388982215
     0.3203891539760996    0.1336439280922813    0.0636827537356314
     0.4443587349085592    0.6283212862095112    0.6869442783489810
     0.8081339625077975    0.3745169106528237    0.5646495455284091
     0.6968787203171276    0.1558000134463053    0.6803091482358303
     0.3073500340086825    0.8726803021635288    0.3096047838779203
     0.6833416667784681    0.3958175461809645    0.6911183258933067
     0.6804896652684451    0.6470198176936809    0.6889577275694967
     0.4409685556685511    0.6284251856402110    0.1872901847689047
     0.6779515173155664    0.8975071046995655    0.6947520614940358
     0.4442289072065231    0.8801861382720345    0.6899650276577808
     0.8110682432211935    0.3724741356899995    0.0608278650481727
     0.6985150836782520    0.8855737096639628    0.9399946945009806
     0.1955364164134771    0.3897609111135464    0.9353565403421298
     0.6745724740595863    0.1235831316755439    0.9319933450855442
     0.9339366248721838    0.8692367176616668    0.9351633406665163
     0.6855268327005324    0.6243481357752335    0.1884584636078118
     0.8056471218670866    0.8761412633709490    0.5674257973849717
     0.6894008507988851    0.1386098620484964    0.4383929331276493
     0.6928470866979647    0.8866459523372848    0.4342114486444701
     0.9352177041208032    0.1197661267345742    0.6869058581127808
     0.4356552464715039    0.3750612828389805    0.4365311163848772
     0.8115157154523003    0.6304479345568833    0.5685738536759283
     0.9411072388392321    0.3777331899582685    0.4388454417897305
     0.0700310623605854    0.8790208561215876    0.3137636564642114
     0.0633364195292417    0.6243718190660370    0.0590353250477820
     0.8147473772782262    0.3764869259244306    0.8111321010664356
     0.4454104508952508    0.6349594733644462    0.9367607209256462
     0.0569091805418511    0.6180369189733035    0.3154466624136493
     0.3061709614134418    0.8740231487086605    0.0713335909336488
     0.3175461276530290    0.8769261286468598    0.8151806051509590
     0.6869736172879367    0.6234509495282352    0.4370918897418478
     0.5626924322348580    0.1190611971954836    0.3122898622352787
     0.1847559828225052    0.1260706969573474    0.9357371689007055
     0.9419058800144225    0.6151879354268437    0.6884056636136441
     0.5594583919427255    0.1187064909606770    0.0613981648101537
     0.5694588773551692    0.3829495229406253    0.3113940452698845
     0.5653539186158105    0.3683303462247995    0.5595045787523459
     0.4388393344076853    0.3745375667077840    0.6879409151320127
     0.9508461748232656    0.1323170446430210    0.9366256462197334
     0.8102699114083844    0.1196850714783977    0.3136307799379610
     0.4418574699528236    0.6290818495327585    0.4386332971694376
     0.4346222988280016    0.3686154826377709    0.1847112447375288
     0.9374828225827824    0.8714678065039330    0.1875919339774305
     0.4253924523515872    0.8698677610738323    0.9510122998190838
     0.8082778319328128    0.6249353791537530    0.8103365023326291
     0.9364377801956626    0.8648039172519641    0.6883640303155958
     0.1916002559946559    0.6284476045006456    0.1897201578971499
     0.3034460005413286    0.6105791791118358    0.8115992242012307
     0.1818883192313629    0.8647040160681817    0.9387720924909585
     0.0572040988511358    0.3620566451198409    0.0605712425288785
     0.3057129008167160    0.6210530811805667    0.0587616903915156
     0.0671037971185925    0.3759388733899044    0.3094850438135999
     0.4414510156318099    0.1208554658239719    0.9316596811389367
     0.4416841276536726    0.8782659903255997    0.4354373579652750
     0.5671569489774566    0.1225711010703424    0.8016522899096603
     0.5480604574193797    0.8662435311509127    0.8253832170898699
     0.8147403543760686    0.1279856569526518    0.5582963201468691
     0.3117191762752750    0.3665207336138415    0.8144354376339032
     0.7994772333376761    0.1166420160776059    0.8099115669194515
     0.8049812694194507    0.1160338456890752    0.0572806062542108
 
  0.00000000E+00  0.00000000E+00  0.00000000E+00
  0.00000000E+00  0.00000000E+00  0.00000000E+00
  0.00000000E+00  0.00000000E+00  0.00000000E+00
  0.00000000E+00  0.00000000E+00  0.00000000E+00
  0.00000000E+00  0.00000000E+00  0.00000000E+00
  0.00000000E+00  0.00000000E+00  0.00000000E+00
  0.00000000E+00  0.00000000E+00  0.00000000E+00
  0.00000000E+00  0.00000000E+00  0.00000000E+00
  0.00000000E+00  0.00000000E+00  0.00000000E+00
  0.00000000E+00  0.00000000E+00  0.00000000E+00
  0.00000000E+00  0.00000000E+00  0.00000000E+00
  0.00000000E+00  0.00000000E+00  0.00000000E+00
  0.00000000E+00  0.00000000E+00  0.00000000E+00
  0.00000000E+00  0.00000000E+00  0.00000000E+00
  0.00000000E+00  0.00000000E+00  0.00000000E+00
  0.00000000E+00  0.00000000E+00  0.00000000E+00
  0.00000000E+00  0.00000000E+00  0.00000000E+00
  0.00000000E+00  0.00000000E+00  0.00000000E+00
  0.00000000E+00  0.00000000E+00  0.00000000E+00
  0.00000000E+00  0.00000000E+00  0.00000000E+00
  0.00000000E+00  0.00000000E+00  0.00000000E+00
  0.00000000E+00  0.00000000E+00  0.00000000E+00
  0.00000000E+00  0.00000000E+00  0.00000000E+00
  0.00000000E+00  0.00000000E+00  0.00000000E+00
  0.00000000E+00  0.00000000E+00  0.00000000E+00
  0.00000000E+00  0.00000000E+00  0.00000000E+00
  0.00000000E+00  0.00000000E+00  0.00000000E+00
  0.00000000E+00  0.00000000E+00  0.00000000E+00
  0.00000000E+00  0.00000000E+00  0.00000000E+00
  0.00000000E+00  0.00000000E+00  0.00000000E+00
  0.00000000E+00  0.00000000E+00  0.00000000E+00
  0.00000000E+00  0.00000000E+00  0.00000000E+00
  0.00000000E+00  0.00000000E+00  0.00000000E+00
  0.00000000E+00  0.00000000E+00  0.00000000E+00
  0.00000000E+00  0.00000000E+00  0.00000000E+00
  0.00000000E+00  0.00000000E+00  0.00000000E+00
  0.00000000E+00  0.00000000E+00  0.00000000E+00
  0.00000000E+00  0.00000000E+00  0.00000000E+00
  0.00000000E+00  0.00000000E+00  0.00000000E+00
  0.00000000E+00  0.00000000E+00  0.00000000E+00
  0.00000000E+00  0.00000000E+00  0.00000000E+00
  0.00000000E+00  0.00000000E+00  0.00000000E+00
  0.00000000E+00  0.00000000E+00  0.00000000E+00
  0.00000000E+00  0.00000000E+00  0.00000000E+00
  0.00000000E+00  0.00000000E+00  0.00000000E+00
  0.00000000E+00  0.00000000E+00  0.00000000E+00
  0.00000000E+00  0.00000000E+00  0.00000000E+00
  0.00000000E+00  0.00000000E+00  0.00000000E+00
  0.00000000E+00  0.00000000E+00  0.00000000E+00
  0.00000000E+00  0.00000000E+00  0.00000000E+00
  0.00000000E+00  0.00000000E+00  0.00000000E+00
  0.00000000E+00  0.00000000E+00  0.00000000E+00
  0.00000000E+00  0.00000000E+00  0.00000000E+00
  0.00000000E+00  0.00000000E+00  0.00000000E+00
  0.00000000E+00  0.00000000E+00  0.00000000E+00
  0.00000000E+00  0.00000000E+00  0.00000000E+00
  0.00000000E+00  0.00000000E+00  0.00000000E+00
  0.00000000E+00  0.00000000E+00  0.00000000E+00
  0.00000000E+00  0.00000000E+00  0.00000000E+00
  0.00000000E+00  0.00000000E+00  0.00000000E+00
  0.00000000E+00  0.00000000E+00  0.00000000E+00
  0.00000000E+00  0.00000000E+00  0.00000000E+00
  0.00000000E+00  0.00000000E+00  0.00000000E+00
  0.00000000E+00  0.00000000E+00  0.00000000E+00
  0.00000000E+00  0.00000000E+00  0.00000000E+00
  0.00000000E+00  0.00000000E+00  0.00000000E+00
  0.00000000E+00  0.00000000E+00  0.00000000E+00
  0.00000000E+00  0.00000000E+00  0.00000000E+00
  0.00000000E+00  0.00000000E+00  0.00000000E+00
  0.00000000E+00  0.00000000E+00  0.00000000E+00
  0.00000000E+00  0.00000000E+00  0.00000000E+00
  0.00000000E+00  0.00000000E+00  0.00000000E+00
  0.00000000E+00  0.00000000E+00  0.00000000E+00
  0.00000000E+00  0.00000000E+00  0.00000000E+00
  0.00000000E+00  0.00000000E+00  0.00000000E+00
  0.00000000E+00  0.00000000E+00  0.00000000E+00
  0.00000000E+00  0.00000000E+00  0.00000000E+00
  0.00000000E+00  0.00000000E+00  0.00000000E+00
  0.00000000E+00  0.00000000E+00  0.00000000E+00
  0.00000000E+00  0.00000000E+00  0.00000000E+00
  0.00000000E+00  0.00000000E+00  0.00000000E+00
  0.00000000E+00  0.00000000E+00  0.00000000E+00
  0.00000000E+00  0.00000000E+00  0.00000000E+00
  0.00000000E+00  0.00000000E+00  0.00000000E+00
  0.00000000E+00  0.00000000E+00  0.00000000E+00
  0.00000000E+00  0.00000000E+00  0.00000000E+00
  0.00000000E+00  0.00000000E+00  0.00000000E+00
  0.00000000E+00  0.00000000E+00  0.00000000E+00
  0.00000000E+00  0.00000000E+00  0.00000000E+00
  0.00000000E+00  0.00000000E+00  0.00000000E+00
  0.00000000E+00  0.00000000E+00  0.00000000E+00
  0.00000000E+00  0.00000000E+00  0.00000000E+00
  0.00000000E+00  0.00000000E+00  0.00000000E+00
  0.00000000E+00  0.00000000E+00  0.00000000E+00
  0.00000000E+00  0.00000000E+00  0.00000000E+00
  0.00000000E+00  0.00000000E+00  0.00000000E+00
  0.00000000E+00  0.00000000E+00  0.00000000E+00
  0.00000000E+00  0.00000000E+00  0.00000000E+00
  0.00000000E+00  0.00000000E+00  0.00000000E+00
  0.00000000E+00  0.00000000E+00  0.00000000E+00
  0.00000000E+00  0.00000000E+00  0.00000000E+00
  0.00000000E+00  0.00000000E+00  0.00000000E+00
  0.00000000E+00  0.00000000E+00  0.00000000E+00
  0.00000000E+00  0.00000000E+00  0.00000000E+00
  0.00000000E+00  0.00000000E+00  0.00000000E+00
  0.00000000E+00  0.00000000E+00  0.00000000E+00
  0.00000000E+00  0.00000000E+00  0.00000000E+00
  0.00000000E+00  0.00000000E+00  0.00000000E+00
  0.00000000E+00  0.00000000E+00  0.00000000E+00
  0.00000000E+00  0.00000000E+00  0.00000000E+00
  0.00000000E+00  0.00000000E+00  0.00000000E+00
  0.00000000E+00  0.00000000E+00  0.00000000E+00
  0.00000000E+00  0.00000000E+00  0.00000000E+00
  0.00000000E+00  0.00000000E+00  0.00000000E+00
  0.00000000E+00  0.00000000E+00  0.00000000E+00
  0.00000000E+00  0.00000000E+00  0.00000000E+00
  0.00000000E+00  0.00000000E+00  0.00000000E+00
  0.00000000E+00  0.00000000E+00  0.00000000E+00
  0.00000000E+00  0.00000000E+00  0.00000000E+00
  0.00000000E+00  0.00000000E+00  0.00000000E+00
  0.00000000E+00  0.00000000E+00  0.00000000E+00
  0.00000000E+00  0.00000000E+00  0.00000000E+00
  0.00000000E+00  0.00000000E+00  0.00000000E+00
  0.00000000E+00  0.00000000E+00  0.00000000E+00
  0.00000000E+00  0.00000000E+00  0.00000000E+00
  0.00000000E+00  0.00000000E+00  0.00000000E+00
  0.00000000E+00  0.00000000E+00  0.00000000E+00
  0.00000000E+00  0.00000000E+00  0.00000000E+00
