Hf Ta                                   
    1.000000000000000     
    11.8115418418062852    1.0618873241844224   -0.0099306080174817
    -5.0085169853883409   10.7593840345426770    0.0058810850588932
    -0.0455879802456789   -0.0502773100747963   19.1945905349286186
  Hf             Ta           
              52              76
Direct
  0.3160336159268574  0.1844137930221452  0.5595796983773510
  0.8020924501492499  0.9474965629993783  0.0678951936038033
  0.4482916708451370  0.8145082290731956  0.9374418636710538
  0.6684565702451064  0.0733140507451783  0.4314176737487629
  0.5486375584766647  0.1693018239723975  0.3165491510836689
  0.8130146939254366  0.6860907388806387  0.0591495311900475
  0.3052328851879819  0.1876577635454764  0.3115384992291656
  0.9357512753620983  0.5572265665728707  0.9377175406731970
  0.9378386404469874  0.0635900323825542  0.9369071886886257
  0.9361362709487036  0.5594125808117263  0.6855019016764803
  0.0691386029448675  0.6973547214551565  0.8096773148615198
  0.6744484396740283  0.0563890715511925  0.9400584499060259
  0.5592590919140336  0.6890394832710421  0.0637977283632515
  0.4301231554091028  0.0521325123349108  0.1849411770457355
  0.0611914313155771  0.4361638489064906  0.5659014681837168
  0.9425831996477870  0.3118834415379148  0.4302449431395846
  0.1971376348285139  0.7868749587468343  0.9457259410449682
  0.9368203986117832  0.8041572398468162  0.4390788621565017
  0.0610962036647334  0.6895448462314389  0.0784900893700989
  0.0597387052383856  0.6964427025832806  0.3077773176488400
  0.5581956609265504  0.6840023425904610  0.8144757417151010
  0.1921719036193927  0.8100707586905183  0.4389490908399964
  0.1988508200045772  0.3125759332391407  0.1826728941552070
  0.4394628623471605  0.0590360132050942  0.6865493213392113
  0.1862895548089285  0.5723651155996149  0.1907390437003161
  0.0657781124512314  0.4341913896298502  0.0559620967088724
  0.3075796009341267  0.9251924680104057  0.8145641141866691
  0.5590447916395568  0.9375054966365511  0.5613149017356173
  0.9744955734683989  0.8265984246900014  0.9315095149614268
  0.8089120732721994  0.6848022664299801  0.8126503455300719
  0.9404366089040048  0.3147065639599816  0.1875149821250112
  0.8180476069852076  0.1776903692448720  0.5631040556538583
  0.6887915224275811  0.3206937491536712  0.1962621588652344
  0.3154229232009447  0.4412349529263809  0.5624218514367526
  0.0528196271913838  0.1954791324056146  0.3133323970444415
  0.0649205747356855  0.1962711299762684  0.8087208312279669
  0.3117172669338283  0.4339591802224859  0.8099427014740199
  0.9272999573013190  0.0544114526633085  0.4415539452064093
  0.6905117253214623  0.5728977701481244  0.4390191371307623
  0.5640075108549140  0.1880108078562741  0.0621780855287717
  0.5658994368235531  0.6812188746645671  0.5642170095660680
  0.7143680279877355  0.8125359347333492  0.9346301408462836
  0.5573856540924523  0.6809792152482118  0.3137661020653679
  0.3125420197753016  0.4457106524471721  0.3150032070733883
  0.6908900039880008  0.8320199746591185  0.4387825844348529
  0.6971091640688273  0.0620481117048512  0.6920687598076460
  0.3193989329841250  0.1775620282059191  0.8179960032009365
  0.8039548330074840  0.4392386813274598  0.5588032873820868
  0.4413327741359878  0.3231316563576425  0.6904718887855731
  0.6801747023705385  0.3265987969343543  0.4287142938873895
  0.6933826582035816  0.3172536393372958  0.9363945603753071
  0.6938217278348812  0.0609319554409295  0.1859212424198478
  0.8125472423549782  0.4291796500794261  0.8084142973226972
  0.1932550253194406  0.3060216366123392  0.4387415590455558
  0.9451381652623088  0.8166311310936781  0.6877957822865953
  0.0651818872534394  0.9502710345988808  0.8040974094382942
  0.4374034676728721  0.3127981686779215  0.9413508059283853
  0.9474242290871671  0.0598834441160950  0.1880662651323126
  0.8144252917077710  0.9226828689182554  0.5716189992682376
  0.5392632438404534  0.9327078638557011  0.0724935339009692
  0.8104810747370568  0.4334389178670995  0.0679296365475928
  0.4185497962914279  0.0573367045466356  0.4447968261193022
  0.4338654801034031  0.8020370705926315  0.1889101434113237
  0.5636306953881998  0.4388194447795692  0.0625589530612924
  0.8026338526254554  0.1966841779692186  0.3084885783080449
  0.4331223786004133  0.5501107728196090  0.9397082318819803
  0.8216380599749830  0.6896315089661154  0.5748359249350177
  0.3220461682590112  0.4406269936248964  0.0604104294840084
  0.1825797092336971  0.0598673136997161  0.1847954761505180
  0.8118315894758695  0.9432590614633743  0.8046914949944314
  0.5558817356876481  0.9242908605356290  0.3101876392845961
  0.1894838800242684  0.0623695848502685  0.9413275642360814
  0.0616959424648231  0.6918254028498981  0.5624398569374569
  0.8208176515100343  0.4525951743606259  0.3141717273788725
  0.3077934247661573  0.6834637316499752  0.0602453646775397
  0.0613262188685751  0.1830912432746947  0.0636437288717402
  0.4317671153309828  0.5645651692978231  0.4384703421266337
  0.3099389139728415  0.6911349049955076  0.5633335231968881
  0.1890126425521331  0.8121564683827405  0.6824577344458033
  0.5712260032661763  0.1839318493432715  0.8117734893296827
  0.8092562593498368  0.6985597669966340  0.3045173607266010
  0.4287787812995124  0.0701345598650894  0.9359993183061651
  0.5622047148963902  0.4318499413709688  0.3112699553431986
  0.6885522803160662  0.8096825507122773  0.1935181118872700
  0.9350679933995782  0.3034368156465631  0.6934370536871757
  0.3088885136198158  0.1892214388111101  0.0639860776811439
  0.1945090657645375  0.5582475667585953  0.4375722995181505
  0.3147443223529405  0.6984782529845250  0.3182404284357053
  0.9135882902569560  0.5578121346294387  0.1911197819416542
  0.6779845688879754  0.5536627982044724  0.6863183594646061
  0.4363001380214042  0.8064462410774709  0.6897744063748369
  0.1989787359082434  0.8329087917573019  0.1893188463629374
  0.9399454530465896  0.8162111797618442  0.1891568321425710
  0.0643812865885300  0.9438241066009948  0.0667465696272198
  0.4430036206168780  0.3171113700471275  0.1817339699542488
  0.3106226993484681  0.6788544670856732  0.8083625863554601
  0.4329835995197788  0.3227780003362478  0.4342362438298610
  0.1899278797911906  0.3083958906777055  0.9411112084074388
  0.3043095119426473  0.9282838136946169  0.5648708037500174
  0.4337250525354327  0.5555412703254026  0.1844128080414937
  0.1760737830361956  0.3130072013210772  0.6799015005650862
  0.4375064520927451  0.8113071193163912  0.4362435521622666
  0.8122554570449551  0.1905599025725193  0.8151731633249308
  0.0585037247621133  0.4553022891243062  0.3173424771944724
  0.5728164235052821  0.4320831105067420  0.8162070325738237
  0.3116607209303227  0.9380409390960399  0.3153207239740589
  0.6910482032445440  0.3122843290001804  0.6878189317888873
  0.0694567588856344  0.1836746350379415  0.5622561583898203
  0.5566240282964262  0.4221119969167663  0.5596995159451263
  0.1773928363969278  0.0573753768320289  0.4367576074088830
  0.9467285424226561  0.3128512711878612  0.9299762699476485
  0.0598174549970573  0.9444621123232861  0.3104018010763590
  0.6778196394627004  0.5671770335781906  0.1885041135444645
  0.1921885445509552  0.5654628082407599  0.6878072155525774
  0.9545134414638501  0.5606359641957183  0.4371547742367952
  0.8279891573848742  0.2052056876189347  0.0537549151519541
  0.3072697555724335  0.9381535986554496  0.0603571445735700
  0.8120486621392263  0.9419573836958905  0.3068535682011032
  0.0657777715782446  0.9374685743699384  0.5644999473339448
  0.5730237513628645  0.1934363467997523  0.5602530347813903
  0.5633599777523548  0.9393088675512713  0.8063258763355882
  0.1981928539484853  0.5461242187495641  0.9305414056531095
  0.4332959305978604  0.5739880568073880  0.6881021155942988
  0.6909084377507498  0.8046252893890021  0.6906837200291284
  0.9431439072647207  0.0598444164439596  0.6838659796340809
  0.6685365554480465  0.5546621255045772  0.9366571643710775
  0.0590491178941348  0.4408233534385590  0.8087384311804627
  0.1832465977554478  0.0612939217502400  0.6857456958626756
 
  0.00000000E+00  0.00000000E+00  0.00000000E+00
  0.00000000E+00  0.00000000E+00  0.00000000E+00
  0.00000000E+00  0.00000000E+00  0.00000000E+00
  0.00000000E+00  0.00000000E+00  0.00000000E+00
  0.00000000E+00  0.00000000E+00  0.00000000E+00
  0.00000000E+00  0.00000000E+00  0.00000000E+00
  0.00000000E+00  0.00000000E+00  0.00000000E+00
  0.00000000E+00  0.00000000E+00  0.00000000E+00
  0.00000000E+00  0.00000000E+00  0.00000000E+00
  0.00000000E+00  0.00000000E+00  0.00000000E+00
  0.00000000E+00  0.00000000E+00  0.00000000E+00
  0.00000000E+00  0.00000000E+00  0.00000000E+00
  0.00000000E+00  0.00000000E+00  0.00000000E+00
  0.00000000E+00  0.00000000E+00  0.00000000E+00
  0.00000000E+00  0.00000000E+00  0.00000000E+00
  0.00000000E+00  0.00000000E+00  0.00000000E+00
  0.00000000E+00  0.00000000E+00  0.00000000E+00
  0.00000000E+00  0.00000000E+00  0.00000000E+00
  0.00000000E+00  0.00000000E+00  0.00000000E+00
  0.00000000E+00  0.00000000E+00  0.00000000E+00
  0.00000000E+00  0.00000000E+00  0.00000000E+00
  0.00000000E+00  0.00000000E+00  0.00000000E+00
  0.00000000E+00  0.00000000E+00  0.00000000E+00
  0.00000000E+00  0.00000000E+00  0.00000000E+00
  0.00000000E+00  0.00000000E+00  0.00000000E+00
  0.00000000E+00  0.00000000E+00  0.00000000E+00
  0.00000000E+00  0.00000000E+00  0.00000000E+00
  0.00000000E+00  0.00000000E+00  0.00000000E+00
  0.00000000E+00  0.00000000E+00  0.00000000E+00
  0.00000000E+00  0.00000000E+00  0.00000000E+00
  0.00000000E+00  0.00000000E+00  0.00000000E+00
  0.00000000E+00  0.00000000E+00  0.00000000E+00
  0.00000000E+00  0.00000000E+00  0.00000000E+00
  0.00000000E+00  0.00000000E+00  0.00000000E+00
  0.00000000E+00  0.00000000E+00  0.00000000E+00
  0.00000000E+00  0.00000000E+00  0.00000000E+00
  0.00000000E+00  0.00000000E+00  0.00000000E+00
  0.00000000E+00  0.00000000E+00  0.00000000E+00
  0.00000000E+00  0.00000000E+00  0.00000000E+00
  0.00000000E+00  0.00000000E+00  0.00000000E+00
  0.00000000E+00  0.00000000E+00  0.00000000E+00
  0.00000000E+00  0.00000000E+00  0.00000000E+00
  0.00000000E+00  0.00000000E+00  0.00000000E+00
  0.00000000E+00  0.00000000E+00  0.00000000E+00
  0.00000000E+00  0.00000000E+00  0.00000000E+00
  0.00000000E+00  0.00000000E+00  0.00000000E+00
  0.00000000E+00  0.00000000E+00  0.00000000E+00
  0.00000000E+00  0.00000000E+00  0.00000000E+00
  0.00000000E+00  0.00000000E+00  0.00000000E+00
  0.00000000E+00  0.00000000E+00  0.00000000E+00
  0.00000000E+00  0.00000000E+00  0.00000000E+00
  0.00000000E+00  0.00000000E+00  0.00000000E+00
  0.00000000E+00  0.00000000E+00  0.00000000E+00
  0.00000000E+00  0.00000000E+00  0.00000000E+00
  0.00000000E+00  0.00000000E+00  0.00000000E+00
  0.00000000E+00  0.00000000E+00  0.00000000E+00
  0.00000000E+00  0.00000000E+00  0.00000000E+00
  0.00000000E+00  0.00000000E+00  0.00000000E+00
  0.00000000E+00  0.00000000E+00  0.00000000E+00
  0.00000000E+00  0.00000000E+00  0.00000000E+00
  0.00000000E+00  0.00000000E+00  0.00000000E+00
  0.00000000E+00  0.00000000E+00  0.00000000E+00
  0.00000000E+00  0.00000000E+00  0.00000000E+00
  0.00000000E+00  0.00000000E+00  0.00000000E+00
  0.00000000E+00  0.00000000E+00  0.00000000E+00
  0.00000000E+00  0.00000000E+00  0.00000000E+00
  0.00000000E+00  0.00000000E+00  0.00000000E+00
  0.00000000E+00  0.00000000E+00  0.00000000E+00
  0.00000000E+00  0.00000000E+00  0.00000000E+00
  0.00000000E+00  0.00000000E+00  0.00000000E+00
  0.00000000E+00  0.00000000E+00  0.00000000E+00
  0.00000000E+00  0.00000000E+00  0.00000000E+00
  0.00000000E+00  0.00000000E+00  0.00000000E+00
  0.00000000E+00  0.00000000E+00  0.00000000E+00
  0.00000000E+00  0.00000000E+00  0.00000000E+00
  0.00000000E+00  0.00000000E+00  0.00000000E+00
  0.00000000E+00  0.00000000E+00  0.00000000E+00
  0.00000000E+00  0.00000000E+00  0.00000000E+00
  0.00000000E+00  0.00000000E+00  0.00000000E+00
  0.00000000E+00  0.00000000E+00  0.00000000E+00
  0.00000000E+00  0.00000000E+00  0.00000000E+00
  0.00000000E+00  0.00000000E+00  0.00000000E+00
  0.00000000E+00  0.00000000E+00  0.00000000E+00
  0.00000000E+00  0.00000000E+00  0.00000000E+00
  0.00000000E+00  0.00000000E+00  0.00000000E+00
  0.00000000E+00  0.00000000E+00  0.00000000E+00
  0.00000000E+00  0.00000000E+00  0.00000000E+00
  0.00000000E+00  0.00000000E+00  0.00000000E+00
  0.00000000E+00  0.00000000E+00  0.00000000E+00
  0.00000000E+00  0.00000000E+00  0.00000000E+00
  0.00000000E+00  0.00000000E+00  0.00000000E+00
  0.00000000E+00  0.00000000E+00  0.00000000E+00
  0.00000000E+00  0.00000000E+00  0.00000000E+00
  0.00000000E+00  0.00000000E+00  0.00000000E+00
  0.00000000E+00  0.00000000E+00  0.00000000E+00
  0.00000000E+00  0.00000000E+00  0.00000000E+00
  0.00000000E+00  0.00000000E+00  0.00000000E+00
  0.00000000E+00  0.00000000E+00  0.00000000E+00
  0.00000000E+00  0.00000000E+00  0.00000000E+00
  0.00000000E+00  0.00000000E+00  0.00000000E+00
  0.00000000E+00  0.00000000E+00  0.00000000E+00
  0.00000000E+00  0.00000000E+00  0.00000000E+00
  0.00000000E+00  0.00000000E+00  0.00000000E+00
  0.00000000E+00  0.00000000E+00  0.00000000E+00
  0.00000000E+00  0.00000000E+00  0.00000000E+00
  0.00000000E+00  0.00000000E+00  0.00000000E+00
  0.00000000E+00  0.00000000E+00  0.00000000E+00
  0.00000000E+00  0.00000000E+00  0.00000000E+00
  0.00000000E+00  0.00000000E+00  0.00000000E+00
  0.00000000E+00  0.00000000E+00  0.00000000E+00
  0.00000000E+00  0.00000000E+00  0.00000000E+00
  0.00000000E+00  0.00000000E+00  0.00000000E+00
  0.00000000E+00  0.00000000E+00  0.00000000E+00
  0.00000000E+00  0.00000000E+00  0.00000000E+00
  0.00000000E+00  0.00000000E+00  0.00000000E+00
  0.00000000E+00  0.00000000E+00  0.00000000E+00
  0.00000000E+00  0.00000000E+00  0.00000000E+00
  0.00000000E+00  0.00000000E+00  0.00000000E+00
  0.00000000E+00  0.00000000E+00  0.00000000E+00
  0.00000000E+00  0.00000000E+00  0.00000000E+00
  0.00000000E+00  0.00000000E+00  0.00000000E+00
  0.00000000E+00  0.00000000E+00  0.00000000E+00
  0.00000000E+00  0.00000000E+00  0.00000000E+00
  0.00000000E+00  0.00000000E+00  0.00000000E+00
  0.00000000E+00  0.00000000E+00  0.00000000E+00
  0.00000000E+00  0.00000000E+00  0.00000000E+00
  0.00000000E+00  0.00000000E+00  0.00000000E+00
  0.00000000E+00  0.00000000E+00  0.00000000E+00
