Nb Ti                                   
    1.000000000000000     
    11.3116409280821166    1.0924290551909615    0.0335499617960300
    -4.7511134761860925   10.2613842275751797    0.0513227788016995
    -0.0694210010547650   -0.1420861569277859   18.5758051268406206
  Nb              Ti            
    72    56
Direct
     0.1781384886167419    0.0486837097974599    0.4341518824141440
     0.1875487901982952    0.5627426084701385    0.4365333375789720
     0.5672334920883607    0.9329867253596477    0.0634641053739908
     0.0637266353252305    0.1862143300810112    0.3112805046824315
     0.5616237418166433    0.4390887970161064    0.0611826914325865
     0.6861979407755957    0.5611203617445101    0.4387837780961726
     0.5687213631795213    0.4378341901563248    0.5628059794275038
     0.0615674936825858    0.6900129874603322    0.0672853826998105
     0.5610719118236780    0.4323231343700082    0.8072288975247823
     0.2022498190503782    0.0621767015046755    0.6825418363205188
     0.4340827966158142    0.3130209239158163    0.1868570436760183
     0.0618377696111126    0.4348573303397419    0.8074059086032956
     0.9382210567766687    0.0657352850435877    0.4372573825200474
     0.3169744177228988    0.1958900954781147    0.0627603113271372
     0.9350391111962179    0.3090044243179498    0.4381708224444016
     0.6860851332991088    0.8149549387185265    0.6861261992187274
     0.8083593104064282    0.4390901303754551    0.0603616634185443
     0.8177920453521479    0.6859613948389502    0.5654078224751792
     0.0617390226837717    0.1887609133233279    0.8147393708376158
     0.3083789630001670    0.9309073657980182    0.8173115771859497
     0.5538015376212760    0.1818611301932086    0.3128915051669244
     0.4378455571861631    0.5656761997683938    0.1842962713662204
     0.1852609670525371    0.3132428682021228    0.9377740358418141
     0.9447855709705157    0.3200043890715847    0.1859343373358965
     0.4358615466045104    0.8129684515530716    0.6863125724635898
     0.9356613232944269    0.5564766764665666    0.4338873429085167
     0.6874833623803756    0.8155636087054958    0.1908148584028552
     0.0629591057042277    0.6915243127738578    0.3126330330671450
     0.9422171874493150    0.5638207763361825    0.9406730643954985
     0.8187241677916092    0.9394478661547607    0.0635149214996501
     0.8165592379263885    0.9350083232799192    0.5621415565092583
     0.0626411298694602    0.6906627059257877    0.5619295089182794
     0.6816086818030509    0.0607751692611979    0.1837621451589563
     0.5656401364775977    0.6855477299562773    0.8137737924812961
     0.3089757023535626    0.4350405260710229    0.0610339138903436
     0.5647247856209421    0.1899151585568452    0.8173517120936939
     0.5559177220288504    0.6845975628313745    0.3143633447712164
     0.6890139411056835    0.5656074132380206    0.1868895341368615
     0.8116912891196859    0.6892874711618310    0.0604883035301003
     0.4308228002940209    0.5640659711210911    0.4386953591954245
     0.6849446948225705    0.8134881437498456    0.4369291548520199
     0.4331265980074727    0.5658140565935514    0.6873392827952880
     0.6845072137211275    0.0577580808985736    0.4397909453767929
     0.3074659342451772    0.6895340120402836    0.3105133641191467
     0.8102615861798702    0.4335316318018093    0.3111058622655770
     0.1870631799119795    0.8092352639662075    0.4421224237448385
     0.4368573961017935    0.0629025343826210    0.1912995591444970
     0.5607479737450382    0.9362171080060376    0.8119629253837127
     0.1897704960252203    0.8106610845119724    0.6893942795811345
     0.8097489036839233    0.1870565178213075    0.8110709264303355
     0.1852874360130156    0.3089731531777853    0.1880497042810186
     0.4332960325753450    0.8107179468190404    0.1868012170697337
     0.5633349716938787    0.6879161260687997    0.0621174349766697
     0.9397210436490521    0.8123308299386924    0.9361760788829466
     0.9364003692049300    0.5609003161216284    0.1883817209775509
     0.1877410982833797    0.5593763575032946    0.6879940288121555
     0.5671607960247022    0.4359966964819814    0.3097912173131308
     0.9347020878539042    0.0582135926072001    0.9373697589556393
     0.0646824317471642    0.4428434160092976    0.5629128027206279
     0.6900818451435767    0.3098246916037525    0.9386025489560872
     0.0622217688958161    0.9374769850346190    0.3110270815327604
     0.5616052807331017    0.6844575732100643    0.5610263964426342
     0.6887248240194292    0.5660618047229694    0.6877309287763385
     0.8132079898342250    0.4332898702367185    0.5625748422470239
     0.6936986172759070    0.0646560476414113    0.6892960987954504
     0.0605895367027864    0.1959827264243268    0.5623223232330612
     0.4305500658392060    0.0626834301605414    0.9351583138559698
     0.8127566902015119    0.6893019989764441    0.8134859464386798
     0.9347275900453258    0.3106158438501757    0.9345049681476929
     0.8161482746175152    0.9343603201910899    0.3145370228477157
     0.0654243239426080    0.9308387516698441    0.0630720670972826
     0.8062474718343109    0.1832833338380776    0.5633267599685321
     0.3035279048147839    0.1848298125757927    0.5497012992389707
     0.4464479046077896    0.8257432184620551    0.9385829745750547
     0.0601976099068834    0.4400449976400082    0.0575193507722246
     0.1871135949686596    0.0650753277288256    0.1854166109899036
     0.3120761460035925    0.1840372443667419    0.8097714624476133
     0.9402659626513550    0.5648919733944979    0.6872945158258793
     0.1904794101344804    0.3084645288493949    0.4346467239495597
     0.6823416362201710    0.0579588763079828    0.9380109865428815
     0.1872622355581320    0.5584969818968306    0.1860879814755132
     0.5675912298467917    0.9385074835780056    0.3107928421512733
     0.6913249855795063    0.8098032439901170    0.9380845721834354
     0.6860916572567211    0.5561065212030665    0.9333484386781675
     0.0643390992907353    0.9434575585538143    0.5660465658198894
     0.9345066899783853    0.3113932090568053    0.6847997893244454
     0.5532031969921827    0.1842544365689093    0.5675434409849951
     0.4320880721123087    0.3124360044602246    0.6794972007771174
     0.3151182271955192    0.4425659754734519    0.3102902777725995
     0.0648146040583352    0.1799726752895888    0.0617776373632846
     0.3211416618465814    0.9468961029780095    0.0643198609876615
     0.3203312367200076    0.6898996699042474    0.8119775545666840
     0.0692830863898041    0.9470227783036702    0.8129190919834698
     0.6845506759352384    0.3147864712837743    0.6898965353672250
     0.0628292293852870    0.6878905423074287    0.8158650822140766
     0.3149459289892760    0.4339373861718053    0.5633131815565091
     0.8142141940297645    0.4423880876056805    0.8143959051105349
     0.3165191115110115    0.9428628948030030    0.5670899389673481
     0.8143307128318642    0.9363255941614271    0.8104203797558949
     0.5587384590691507    0.1799085003217032    0.0596793733281039
     0.5651201773687797    0.9329809876476468    0.5657005240462778
     0.1905795549074822    0.8105359532897430    0.9428383686238803
     0.9364470768009818    0.8157452781159545    0.6917736644058572
     0.9357002554541015    0.8124462212577881    0.4396834375039363
     0.9517484621353351    0.0664470821962130    0.6871413971424051
     0.4431311945773167    0.0603130029248375    0.6970137935959256
     0.3142715743140866    0.9368785914789823    0.3186287806848737
     0.8091756230139050    0.6842267385633470    0.3139514869692197
     0.4366647491608274    0.5715384965152731    0.9390702089378156
     0.3112320516061163    0.6876013467262524    0.5623421973718613
     0.8076795857009398    0.1845820256635734    0.3097532235932715
     0.4361636912396625    0.0752110117041413    0.4403999380734230
     0.4361225207331446    0.8164896496535431    0.4365739174695725
     0.9324314726832007    0.0691970956013997    0.1891874416288364
     0.4392382738456579    0.3151453199144580    0.9355468675237890
     0.9376035215194696    0.8129693498340005    0.1887441840880105
     0.1905251573948498    0.8148563612407205    0.1902590714610167
     0.3123846556601006    0.4385427266557576    0.8141475344770377
     0.3107946599794452    0.1885160797894163    0.3154494381355873
     0.1825434857157683    0.3036868741117862    0.6906089794679183
     0.6877118017893429    0.3099803973407393    0.1864482692960492
     0.1879560853502196    0.0691456146025940    0.9422228448747653
     0.4465582737558081    0.3281486898770948    0.4355022109968583
     0.0584120399658892    0.4337642058596219    0.3135781416728128
     0.1848294828690192    0.5548033050210498    0.9273419948090763
     0.8154701703974460    0.1914048288570776    0.0642218317324572
     0.3087562719904067    0.6836031838592018    0.0580311602995712
     0.6834849357361243    0.3025214276628072    0.4361439199941781
 
  0.00000000E+00  0.00000000E+00  0.00000000E+00
  0.00000000E+00  0.00000000E+00  0.00000000E+00
  0.00000000E+00  0.00000000E+00  0.00000000E+00
  0.00000000E+00  0.00000000E+00  0.00000000E+00
  0.00000000E+00  0.00000000E+00  0.00000000E+00
  0.00000000E+00  0.00000000E+00  0.00000000E+00
  0.00000000E+00  0.00000000E+00  0.00000000E+00
  0.00000000E+00  0.00000000E+00  0.00000000E+00
  0.00000000E+00  0.00000000E+00  0.00000000E+00
  0.00000000E+00  0.00000000E+00  0.00000000E+00
  0.00000000E+00  0.00000000E+00  0.00000000E+00
  0.00000000E+00  0.00000000E+00  0.00000000E+00
  0.00000000E+00  0.00000000E+00  0.00000000E+00
  0.00000000E+00  0.00000000E+00  0.00000000E+00
  0.00000000E+00  0.00000000E+00  0.00000000E+00
  0.00000000E+00  0.00000000E+00  0.00000000E+00
  0.00000000E+00  0.00000000E+00  0.00000000E+00
  0.00000000E+00  0.00000000E+00  0.00000000E+00
  0.00000000E+00  0.00000000E+00  0.00000000E+00
  0.00000000E+00  0.00000000E+00  0.00000000E+00
  0.00000000E+00  0.00000000E+00  0.00000000E+00
  0.00000000E+00  0.00000000E+00  0.00000000E+00
  0.00000000E+00  0.00000000E+00  0.00000000E+00
  0.00000000E+00  0.00000000E+00  0.00000000E+00
  0.00000000E+00  0.00000000E+00  0.00000000E+00
  0.00000000E+00  0.00000000E+00  0.00000000E+00
  0.00000000E+00  0.00000000E+00  0.00000000E+00
  0.00000000E+00  0.00000000E+00  0.00000000E+00
  0.00000000E+00  0.00000000E+00  0.00000000E+00
  0.00000000E+00  0.00000000E+00  0.00000000E+00
  0.00000000E+00  0.00000000E+00  0.00000000E+00
  0.00000000E+00  0.00000000E+00  0.00000000E+00
  0.00000000E+00  0.00000000E+00  0.00000000E+00
  0.00000000E+00  0.00000000E+00  0.00000000E+00
  0.00000000E+00  0.00000000E+00  0.00000000E+00
  0.00000000E+00  0.00000000E+00  0.00000000E+00
  0.00000000E+00  0.00000000E+00  0.00000000E+00
  0.00000000E+00  0.00000000E+00  0.00000000E+00
  0.00000000E+00  0.00000000E+00  0.00000000E+00
  0.00000000E+00  0.00000000E+00  0.00000000E+00
  0.00000000E+00  0.00000000E+00  0.00000000E+00
  0.00000000E+00  0.00000000E+00  0.00000000E+00
  0.00000000E+00  0.00000000E+00  0.00000000E+00
  0.00000000E+00  0.00000000E+00  0.00000000E+00
  0.00000000E+00  0.00000000E+00  0.00000000E+00
  0.00000000E+00  0.00000000E+00  0.00000000E+00
  0.00000000E+00  0.00000000E+00  0.00000000E+00
  0.00000000E+00  0.00000000E+00  0.00000000E+00
  0.00000000E+00  0.00000000E+00  0.00000000E+00
  0.00000000E+00  0.00000000E+00  0.00000000E+00
  0.00000000E+00  0.00000000E+00  0.00000000E+00
  0.00000000E+00  0.00000000E+00  0.00000000E+00
  0.00000000E+00  0.00000000E+00  0.00000000E+00
  0.00000000E+00  0.00000000E+00  0.00000000E+00
  0.00000000E+00  0.00000000E+00  0.00000000E+00
  0.00000000E+00  0.00000000E+00  0.00000000E+00
  0.00000000E+00  0.00000000E+00  0.00000000E+00
  0.00000000E+00  0.00000000E+00  0.00000000E+00
  0.00000000E+00  0.00000000E+00  0.00000000E+00
  0.00000000E+00  0.00000000E+00  0.00000000E+00
  0.00000000E+00  0.00000000E+00  0.00000000E+00
  0.00000000E+00  0.00000000E+00  0.00000000E+00
  0.00000000E+00  0.00000000E+00  0.00000000E+00
  0.00000000E+00  0.00000000E+00  0.00000000E+00
  0.00000000E+00  0.00000000E+00  0.00000000E+00
  0.00000000E+00  0.00000000E+00  0.00000000E+00
  0.00000000E+00  0.00000000E+00  0.00000000E+00
  0.00000000E+00  0.00000000E+00  0.00000000E+00
  0.00000000E+00  0.00000000E+00  0.00000000E+00
  0.00000000E+00  0.00000000E+00  0.00000000E+00
  0.00000000E+00  0.00000000E+00  0.00000000E+00
  0.00000000E+00  0.00000000E+00  0.00000000E+00
  0.00000000E+00  0.00000000E+00  0.00000000E+00
  0.00000000E+00  0.00000000E+00  0.00000000E+00
  0.00000000E+00  0.00000000E+00  0.00000000E+00
  0.00000000E+00  0.00000000E+00  0.00000000E+00
  0.00000000E+00  0.00000000E+00  0.00000000E+00
  0.00000000E+00  0.00000000E+00  0.00000000E+00
  0.00000000E+00  0.00000000E+00  0.00000000E+00
  0.00000000E+00  0.00000000E+00  0.00000000E+00
  0.00000000E+00  0.00000000E+00  0.00000000E+00
  0.00000000E+00  0.00000000E+00  0.00000000E+00
  0.00000000E+00  0.00000000E+00  0.00000000E+00
  0.00000000E+00  0.00000000E+00  0.00000000E+00
  0.00000000E+00  0.00000000E+00  0.00000000E+00
  0.00000000E+00  0.00000000E+00  0.00000000E+00
  0.00000000E+00  0.00000000E+00  0.00000000E+00
  0.00000000E+00  0.00000000E+00  0.00000000E+00
  0.00000000E+00  0.00000000E+00  0.00000000E+00
  0.00000000E+00  0.00000000E+00  0.00000000E+00
  0.00000000E+00  0.00000000E+00  0.00000000E+00
  0.00000000E+00  0.00000000E+00  0.00000000E+00
  0.00000000E+00  0.00000000E+00  0.00000000E+00
  0.00000000E+00  0.00000000E+00  0.00000000E+00
  0.00000000E+00  0.00000000E+00  0.00000000E+00
  0.00000000E+00  0.00000000E+00  0.00000000E+00
  0.00000000E+00  0.00000000E+00  0.00000000E+00
  0.00000000E+00  0.00000000E+00  0.00000000E+00
  0.00000000E+00  0.00000000E+00  0.00000000E+00
  0.00000000E+00  0.00000000E+00  0.00000000E+00
  0.00000000E+00  0.00000000E+00  0.00000000E+00
  0.00000000E+00  0.00000000E+00  0.00000000E+00
  0.00000000E+00  0.00000000E+00  0.00000000E+00
  0.00000000E+00  0.00000000E+00  0.00000000E+00
  0.00000000E+00  0.00000000E+00  0.00000000E+00
  0.00000000E+00  0.00000000E+00  0.00000000E+00
  0.00000000E+00  0.00000000E+00  0.00000000E+00
  0.00000000E+00  0.00000000E+00  0.00000000E+00
  0.00000000E+00  0.00000000E+00  0.00000000E+00
  0.00000000E+00  0.00000000E+00  0.00000000E+00
  0.00000000E+00  0.00000000E+00  0.00000000E+00
  0.00000000E+00  0.00000000E+00  0.00000000E+00
  0.00000000E+00  0.00000000E+00  0.00000000E+00
  0.00000000E+00  0.00000000E+00  0.00000000E+00
  0.00000000E+00  0.00000000E+00  0.00000000E+00
  0.00000000E+00  0.00000000E+00  0.00000000E+00
  0.00000000E+00  0.00000000E+00  0.00000000E+00
  0.00000000E+00  0.00000000E+00  0.00000000E+00
  0.00000000E+00  0.00000000E+00  0.00000000E+00
  0.00000000E+00  0.00000000E+00  0.00000000E+00
  0.00000000E+00  0.00000000E+00  0.00000000E+00
  0.00000000E+00  0.00000000E+00  0.00000000E+00
  0.00000000E+00  0.00000000E+00  0.00000000E+00
  0.00000000E+00  0.00000000E+00  0.00000000E+00
  0.00000000E+00  0.00000000E+00  0.00000000E+00
  0.00000000E+00  0.00000000E+00  0.00000000E+00
  0.00000000E+00  0.00000000E+00  0.00000000E+00
  0.00000000E+00  0.00000000E+00  0.00000000E+00
