Hf Ta                                   
    1.000000000000000     
    12.1085855971518832    0.8218883747838593    0.0200926861302805
    -5.3935936522744434   10.5461475805980172   -0.0086768217935857
    -0.0138871422943507   -0.0465425630874862   19.0908526147162334
  Hf             Ta           
              44              84
Direct
  0.4364361787654269  0.0424266462815079  0.1825597195948097
  0.4382695535264785  0.0435013526524800  0.4348081604341382
  0.4418550709467647  0.5462535173689046  0.6874412816300212
  0.3166561622944791  0.3681496462360367  0.0593189954114636
  0.4193823393418536  0.5400925546031764  0.1868466575200668
  0.8149586967670760  0.4392681643645615  0.5642211375485268
  0.1750285678090099  0.3807175560925470  0.9350327824694895
  0.4303282394910051  0.7903055338001151  0.1907643929954138
  0.6856250064372554  0.8052279129443117  0.6887686466622546
  0.6888948825371158  0.7968857917694511  0.9400812355097922
  0.0848310257010669  0.4530681698174064  0.5639598425106096
  0.3103452664234055  0.1133503375828116  0.8146845075019105
  0.6843627546932539  0.0641661273751467  0.6892600427965413
  0.6891193878112974  0.5621694841919627  0.4387724119367885
  0.4398040037743526  0.2927916343976748  0.1882863048755170
  0.3340217305239337  0.6395538291078042  0.5622366864955308
  0.6851280815938601  0.5560098866648959  0.1859293940052832
  0.8250039441936462  0.2238051193453935  0.8145770814783554
  0.9365055204322582  0.1763040973850464  0.9428840733362914
  0.5750428278183303  0.4205736139766217  0.8131673048163736
  0.8107984447607067  0.1878330162763110  0.3116270058010026
  0.3228786646006192  0.3789022184625045  0.8123306607901203
  0.5712848309393852  0.1725801067971083  0.5703039649359700
  0.0582429413058282  0.4472717410769821  0.3138124419916832
  0.6786820599292082  0.0519778430595366  0.9357321566520886
  0.8109307373529919  0.9328948037831927  0.3092139421392074
  0.4224937075137007  0.2919895989437838  0.4375471615124121
  0.6758742525567605  0.3021199892880441  0.4310333506591958
  0.5632895658305624  0.9201908890254682  0.0632378534933249
  0.4213325047268352  0.5398907542370164  0.4361116427236111
  0.0678388245547151  0.7036525051373617  0.5606762328171676
  0.1780915943151646  0.1076076863399513  0.1868547239010484
  0.0675584155347728  0.1959068220108692  0.5606125366868565
  0.1801708079896743  0.6381799552950533  0.9387113263384220
  0.0668859990511513  0.1818951069434921  0.8098378972078727
  0.1674406797269520  0.3555191512501426  0.1897359908036409
  0.3112740050475376  0.1193894584255506  0.5628141879655352
  0.5559445067749137  0.9042212684409083  0.8105926791069118
  0.4401619359710698  0.7973872191569938  0.4346952770505579
  0.5728260528508449  0.6800731725632811  0.3105455695276580
  0.1845296708382809  0.6235257630912063  0.6901207311050180
  0.8250441196219109  0.9576382788190541  0.8146667897307257
  0.9273951064365203  0.3222677685769591  0.4473044197443035
  0.1748069387147279  0.8533156037460942  0.1886993359153987
  0.6876934430262962  0.3146821083642556  0.6966588101230032
  0.5714519588610022  0.9158944330484649  0.5626100217898052
  0.8103075874036832  0.4468028578530522  0.3095625502642712
  0.9320261929805170  0.5718972847921823  0.1890259912952322
  0.6941054268529269  0.5500574206881674  0.9397776658659746
  0.1752242157110199  0.6088492149696998  0.1896726714941187
  0.4291776407181701  0.8035141020085996  0.6851564840679817
  0.0615812778430791  0.9285820008676532  0.0648121016225003
  0.6914850912899122  0.0518290431339099  0.4406754803755299
  0.8256677743630338  0.6899826475832701  0.3123011422583214
  0.0664720950696998  0.4416946027822632  0.8052500411760075
  0.5716794853480732  0.4233010063791459  0.0563526816066100
  0.8140761093157450  0.4502120212614643  0.0625869244578368
  0.0561636460495122  0.4322468316776610  0.0646813685190196
  0.6893570434703942  0.0560347407948912  0.1854936659203741
  0.8214952863624884  0.9579230064178206  0.0635817976439705
  0.9306172163111603  0.0688990522518479  0.6821918187531729
  0.8156761829568044  0.1787542492894519  0.5667088073226368
  0.3031377673780744  0.8607175576785560  0.8129925857431218
  0.9502665198656751  0.9371589347126056  0.9413260369203456
  0.3164781622042285  0.3625542871355645  0.3139091039344630
  0.5708996845212936  0.1816433690883064  0.0587203304715133
  0.8163837502891799  0.6956133802700689  0.5649862470168237
  0.9340519641030389  0.8222908193780647  0.6852881197145465
  0.9433699606372916  0.4473311592234364  0.9378210688934095
  0.3144058972350935  0.6223672776458996  0.0639873991752064
  0.0593358724220617  0.9456227251350001  0.5604785641316247
  0.6977205079404000  0.8154024622165010  0.4414688554434698
  0.0583592506709830  0.6844870847397204  0.8097795283472559
  0.4322967420567687  0.0410483736125725  0.9371196380460330
  0.9344883880247229  0.8234966394646922  0.4362687128483945
  0.1806564174973117  0.8770163955162833  0.6859671405868927
  0.5691401692071569  0.4136166753703338  0.3154350489864731
  0.9275248172040411  0.8210938995364928  0.1888876950676651
  0.9463408556341854  0.6963880739597201  0.9379743232104980
  0.5722970418513453  0.9411740271342951  0.3117448860249141
  0.1834561714118953  0.8694512371639933  0.4358921854367626
  0.3196539862029891  0.8679846082597975  0.3134397547593537
  0.1741244663162264  0.1121748033073636  0.6852623836590886
  0.6888968747409737  0.8118347123826779  0.1776785376126750
  0.1794286104340323  0.3585820824616200  0.6872683640511958
  0.4438884367203331  0.5520183095539511  0.9400581702352367
  0.3163812638167623  0.1135612229818170  0.3134512229103685
  0.8161353357383195  0.9396622484785490  0.5619567750102390
  0.1818959974537269  0.8889626700118498  0.9371782613415134
  0.9357021493135089  0.5787712001115828  0.4310243656969543
  0.5659343446564574  0.4278565304972854  0.5699388526045670
  0.6970960360574721  0.5577243528426813  0.6864005215023031
  0.6883116679353268  0.3055794641545075  0.9372028800363470
  0.0646862930044191  0.7003874785950439  0.3138364860989145
  0.6883674446609995  0.3028710186001067  0.1852884026195365
  0.3280415510494343  0.6314926329922442  0.8145705672395248
  0.1803287680414859  0.6203539981707179  0.4345908410336694
  0.9307820684391214  0.5752838772296046  0.6871552788278426
  0.9233613043701474  0.3229834242919209  0.1847299888854015
  0.4366090421380779  0.2937050318808168  0.9401713638213475
  0.4299826250155744  0.7920439811520181  0.9376346297194088
  0.8095696460057715  0.2033142619310977  0.0646032184749256
  0.0579475712893585  0.6782517714118628  0.0655498932848170
  0.1791184089471794  0.3606120308137242  0.4345160691620789
  0.4281514156301937  0.0424988513722593  0.6920884806134732
  0.5673235427383783  0.1662868246607851  0.8141723423193923
  0.3251855315458398  0.8802665812239665  0.5631091949640801
  0.3037853515529194  0.8575239094643475  0.0570433596950326
  0.3175123542196636  0.1104177527219890  0.0565117453800722
  0.0650882845805889  0.9455825571589129  0.3124122315339194
  0.0585973583816137  0.1794204315079618  0.0667294328113729
  0.9277773825055617  0.0665541276855290  0.4367241403805500
  0.3119117775535101  0.6172629033687111  0.3132362227166227
  0.8270029113782081  0.4660966120192674  0.8150075443455088
  0.8159645432558911  0.7034071416747438  0.0609043797494761
  0.9328630264224457  0.3254356188819315  0.6837969134011697
  0.1706958405962991  0.1077710566874644  0.4335303596857055
  0.4350929111493219  0.2885218841692791  0.6866852296343917
  0.8137676038695633  0.6990277590765026  0.8121998578454818
  0.9305958042288351  0.0783299461043668  0.1890159361503171
  0.0674080355949473  0.1924503096661235  0.3138307165748839
  0.5684856450265589  0.6636029198715245  0.0643177252664139
  0.3212922466599991  0.3741823357906365  0.5647517789621601
  0.0607979820562910  0.9243968027259024  0.8103589733826453
  0.5668218865576541  0.6639051595677459  0.8179286128962187
  0.5791700643817673  0.6730119086206556  0.5561886889352692
  0.5634344311030931  0.1750669159857439  0.3051095283221074
  0.1827878027483144  0.1324861260303130  0.9432737431616949
 
  0.00000000E+00  0.00000000E+00  0.00000000E+00
  0.00000000E+00  0.00000000E+00  0.00000000E+00
  0.00000000E+00  0.00000000E+00  0.00000000E+00
  0.00000000E+00  0.00000000E+00  0.00000000E+00
  0.00000000E+00  0.00000000E+00  0.00000000E+00
  0.00000000E+00  0.00000000E+00  0.00000000E+00
  0.00000000E+00  0.00000000E+00  0.00000000E+00
  0.00000000E+00  0.00000000E+00  0.00000000E+00
  0.00000000E+00  0.00000000E+00  0.00000000E+00
  0.00000000E+00  0.00000000E+00  0.00000000E+00
  0.00000000E+00  0.00000000E+00  0.00000000E+00
  0.00000000E+00  0.00000000E+00  0.00000000E+00
  0.00000000E+00  0.00000000E+00  0.00000000E+00
  0.00000000E+00  0.00000000E+00  0.00000000E+00
  0.00000000E+00  0.00000000E+00  0.00000000E+00
  0.00000000E+00  0.00000000E+00  0.00000000E+00
  0.00000000E+00  0.00000000E+00  0.00000000E+00
  0.00000000E+00  0.00000000E+00  0.00000000E+00
  0.00000000E+00  0.00000000E+00  0.00000000E+00
  0.00000000E+00  0.00000000E+00  0.00000000E+00
  0.00000000E+00  0.00000000E+00  0.00000000E+00
  0.00000000E+00  0.00000000E+00  0.00000000E+00
  0.00000000E+00  0.00000000E+00  0.00000000E+00
  0.00000000E+00  0.00000000E+00  0.00000000E+00
  0.00000000E+00  0.00000000E+00  0.00000000E+00
  0.00000000E+00  0.00000000E+00  0.00000000E+00
  0.00000000E+00  0.00000000E+00  0.00000000E+00
  0.00000000E+00  0.00000000E+00  0.00000000E+00
  0.00000000E+00  0.00000000E+00  0.00000000E+00
  0.00000000E+00  0.00000000E+00  0.00000000E+00
  0.00000000E+00  0.00000000E+00  0.00000000E+00
  0.00000000E+00  0.00000000E+00  0.00000000E+00
  0.00000000E+00  0.00000000E+00  0.00000000E+00
  0.00000000E+00  0.00000000E+00  0.00000000E+00
  0.00000000E+00  0.00000000E+00  0.00000000E+00
  0.00000000E+00  0.00000000E+00  0.00000000E+00
  0.00000000E+00  0.00000000E+00  0.00000000E+00
  0.00000000E+00  0.00000000E+00  0.00000000E+00
  0.00000000E+00  0.00000000E+00  0.00000000E+00
  0.00000000E+00  0.00000000E+00  0.00000000E+00
  0.00000000E+00  0.00000000E+00  0.00000000E+00
  0.00000000E+00  0.00000000E+00  0.00000000E+00
  0.00000000E+00  0.00000000E+00  0.00000000E+00
  0.00000000E+00  0.00000000E+00  0.00000000E+00
  0.00000000E+00  0.00000000E+00  0.00000000E+00
  0.00000000E+00  0.00000000E+00  0.00000000E+00
  0.00000000E+00  0.00000000E+00  0.00000000E+00
  0.00000000E+00  0.00000000E+00  0.00000000E+00
  0.00000000E+00  0.00000000E+00  0.00000000E+00
  0.00000000E+00  0.00000000E+00  0.00000000E+00
  0.00000000E+00  0.00000000E+00  0.00000000E+00
  0.00000000E+00  0.00000000E+00  0.00000000E+00
  0.00000000E+00  0.00000000E+00  0.00000000E+00
  0.00000000E+00  0.00000000E+00  0.00000000E+00
  0.00000000E+00  0.00000000E+00  0.00000000E+00
  0.00000000E+00  0.00000000E+00  0.00000000E+00
  0.00000000E+00  0.00000000E+00  0.00000000E+00
  0.00000000E+00  0.00000000E+00  0.00000000E+00
  0.00000000E+00  0.00000000E+00  0.00000000E+00
  0.00000000E+00  0.00000000E+00  0.00000000E+00
  0.00000000E+00  0.00000000E+00  0.00000000E+00
  0.00000000E+00  0.00000000E+00  0.00000000E+00
  0.00000000E+00  0.00000000E+00  0.00000000E+00
  0.00000000E+00  0.00000000E+00  0.00000000E+00
  0.00000000E+00  0.00000000E+00  0.00000000E+00
  0.00000000E+00  0.00000000E+00  0.00000000E+00
  0.00000000E+00  0.00000000E+00  0.00000000E+00
  0.00000000E+00  0.00000000E+00  0.00000000E+00
  0.00000000E+00  0.00000000E+00  0.00000000E+00
  0.00000000E+00  0.00000000E+00  0.00000000E+00
  0.00000000E+00  0.00000000E+00  0.00000000E+00
  0.00000000E+00  0.00000000E+00  0.00000000E+00
  0.00000000E+00  0.00000000E+00  0.00000000E+00
  0.00000000E+00  0.00000000E+00  0.00000000E+00
  0.00000000E+00  0.00000000E+00  0.00000000E+00
  0.00000000E+00  0.00000000E+00  0.00000000E+00
  0.00000000E+00  0.00000000E+00  0.00000000E+00
  0.00000000E+00  0.00000000E+00  0.00000000E+00
  0.00000000E+00  0.00000000E+00  0.00000000E+00
  0.00000000E+00  0.00000000E+00  0.00000000E+00
  0.00000000E+00  0.00000000E+00  0.00000000E+00
  0.00000000E+00  0.00000000E+00  0.00000000E+00
  0.00000000E+00  0.00000000E+00  0.00000000E+00
  0.00000000E+00  0.00000000E+00  0.00000000E+00
  0.00000000E+00  0.00000000E+00  0.00000000E+00
  0.00000000E+00  0.00000000E+00  0.00000000E+00
  0.00000000E+00  0.00000000E+00  0.00000000E+00
  0.00000000E+00  0.00000000E+00  0.00000000E+00
  0.00000000E+00  0.00000000E+00  0.00000000E+00
  0.00000000E+00  0.00000000E+00  0.00000000E+00
  0.00000000E+00  0.00000000E+00  0.00000000E+00
  0.00000000E+00  0.00000000E+00  0.00000000E+00
  0.00000000E+00  0.00000000E+00  0.00000000E+00
  0.00000000E+00  0.00000000E+00  0.00000000E+00
  0.00000000E+00  0.00000000E+00  0.00000000E+00
  0.00000000E+00  0.00000000E+00  0.00000000E+00
  0.00000000E+00  0.00000000E+00  0.00000000E+00
  0.00000000E+00  0.00000000E+00  0.00000000E+00
  0.00000000E+00  0.00000000E+00  0.00000000E+00
  0.00000000E+00  0.00000000E+00  0.00000000E+00
  0.00000000E+00  0.00000000E+00  0.00000000E+00
  0.00000000E+00  0.00000000E+00  0.00000000E+00
  0.00000000E+00  0.00000000E+00  0.00000000E+00
  0.00000000E+00  0.00000000E+00  0.00000000E+00
  0.00000000E+00  0.00000000E+00  0.00000000E+00
  0.00000000E+00  0.00000000E+00  0.00000000E+00
  0.00000000E+00  0.00000000E+00  0.00000000E+00
  0.00000000E+00  0.00000000E+00  0.00000000E+00
  0.00000000E+00  0.00000000E+00  0.00000000E+00
  0.00000000E+00  0.00000000E+00  0.00000000E+00
  0.00000000E+00  0.00000000E+00  0.00000000E+00
  0.00000000E+00  0.00000000E+00  0.00000000E+00
  0.00000000E+00  0.00000000E+00  0.00000000E+00
  0.00000000E+00  0.00000000E+00  0.00000000E+00
  0.00000000E+00  0.00000000E+00  0.00000000E+00
  0.00000000E+00  0.00000000E+00  0.00000000E+00
  0.00000000E+00  0.00000000E+00  0.00000000E+00
  0.00000000E+00  0.00000000E+00  0.00000000E+00
  0.00000000E+00  0.00000000E+00  0.00000000E+00
  0.00000000E+00  0.00000000E+00  0.00000000E+00
  0.00000000E+00  0.00000000E+00  0.00000000E+00
  0.00000000E+00  0.00000000E+00  0.00000000E+00
  0.00000000E+00  0.00000000E+00  0.00000000E+00
  0.00000000E+00  0.00000000E+00  0.00000000E+00
  0.00000000E+00  0.00000000E+00  0.00000000E+00
  0.00000000E+00  0.00000000E+00  0.00000000E+00
  0.00000000E+00  0.00000000E+00  0.00000000E+00
  0.00000000E+00  0.00000000E+00  0.00000000E+00
