Hf Ta                                   
    1.000000000000000     
    13.7788284816272366   -0.0631532766133812    0.0605250388174670
    -6.9732744325970586    9.8351893409844440   -0.0300418958766089
     0.0922648297640457   -0.0043387716206060   19.5866889534883164
  Hf             Ta           
              76              52
Direct
  0.4350252842931991  0.8703847272344633  0.6865387545334934
  0.9365731511292391  0.8943002226208719  0.4320952188026012
  0.4411764783420791  0.3749405762293661  0.1915992010178932
  0.9533842597630278  0.3707946401582822  0.2009162119342415
  0.1994453553507605  0.8843437713400429  0.1842267542914615
  0.9224700584062405  0.8749767472173273  0.9465605215872951
  0.4386697419061630  0.8732206637010556  0.9346448989515996
  0.0670583087987128  0.1381235911027476  0.5584984337970949
  0.0667081285000784  0.6152713627605304  0.3116721828694672
  0.8223577718071403  0.1414193637281504  0.3100195873897992
  0.8090794196412961  0.3658477740273313  0.5609721700691482
  0.5637788112446701  0.6282389166714536  0.0608531787629464
  0.6891177359199739  0.3465637058455843  0.9488597636507549
  0.6847615317432082  0.1444055032120994  0.1864224216334264
  0.6851411575969580  0.8714784166390053  0.4383598160683957
  0.4421715214133376  0.8771084491361472  0.4338976459079234
  0.4455575855486618  0.1226866018685760  0.6852270983328484
  0.6855824448794722  0.3907012543561280  0.6858025575232427
  0.4363478546483146  0.8713855043523192  0.1900496121948529
  0.4305512434117433  0.3763557099356679  0.4281901035787815
  0.8225036739837168  0.8927815044881666  0.8109014749881778
  0.3063789063283421  0.1450704846578899  0.8032770441279711
  0.9316787582463797  0.3918766537937272  0.4266076237626372
  0.0601768423618123  0.8848695925346649  0.5620428903033188
  0.5602036811955768  0.1235139143638184  0.0588578758090320
  0.3136696145235953  0.4044931891985401  0.8089496813773528
  0.6736586842852756  0.8701422256968930  0.6857856383338593
  0.1982097962985769  0.6152709651598068  0.4376226770982332
  0.6903456312596723  0.5982753274256027  0.9381484466820497
  0.9209298955961551  0.3299804044166029  0.6864196478765558
  0.6933963929279245  0.1256349967517932  0.4468156001734955
  0.6827338730653670  0.8686001280532861  0.9401066149762264
  0.0734120158072348  0.8685338671275776  0.3161030542386913
  0.8042023213970166  0.6370724051682064  0.3148869192671204
  0.3216237937771151  0.6392472212881450  0.3073322315533529
  0.9445510366453923  0.6107361727404874  0.6877381507507309
  0.0627878940959069  0.1199162009804257  0.3156234374396210
  0.0583183368439611  0.3725601490640372  0.8169722968402232
  0.1925730997129579  0.8745225925588186  0.6890518619491446
  0.3176734918001318  0.1361367430640967  0.3108106195787876
  0.5676377623751949  0.3636112337496848  0.8229251088583061
  0.8079266775168240  0.1147959955504072  0.0585190409375057
  0.1827641981962949  0.0982710292122062  0.9408042574460542
  0.6916833568778632  0.6179647480180852  0.4483844518249822
  0.1826564148215092  0.3476617336801572  0.9416914453766749
  0.0930384027930584  0.6525308077657038  0.8158254554894513
  0.4316117693964418  0.3810115279076194  0.9415035307714463
  0.0622716864225317  0.3793649279449265  0.0656176643722860
  0.9314913172062355  0.6253789337791462  0.1878939172670481
  0.0699523084880043  0.6519934390614779  0.0624794922882139
  0.9334404376055397  0.6199309988487886  0.9344530376712226
  0.5613934123818382  0.3742509060045892  0.5568292162977579
  0.3222221028524405  0.1239200118583098  0.0697478205185309
  0.8067603086191730  0.8575463853732217  0.5659513121328572
  0.7984762371059974  0.8827475662875782  0.3018931191014234
  0.7968289877555168  0.3829959014395441  0.3014333041357788
  0.4334542318343318  0.1246281181691604  0.4434848899551733
  0.5539449167616822  0.6164142882838276  0.3102937289470629
  0.0616038724354312  0.8752224764827616  0.8197016919296166
  0.5667668291792646  0.6311909669697759  0.8118089756238569
  0.3071370570784699  0.3740422376771875  0.0731186688287882
  0.6752222840615364  0.8728564399882700  0.1791033375762453
  0.5502004994474426  0.1058421212734987  0.3148818683548786
  0.1832684708886195  0.6047789980645880  0.9431719913445834
  0.9380721842916852  0.0979491547814761  0.6944207518260445
  0.3219200401140364  0.6577787056508293  0.8098225466175376
  0.1855635370074601  0.3636565898076118  0.6775940594729950
  0.4416406007299121  0.3776244552786316  0.6873658022163275
  0.1645186861794989  0.5984158923288794  0.6823811394740261
  0.0575565558813510  0.3823481256802991  0.5530280553257149
  0.0700239627945744  0.6467073883876133  0.5523620767268010
  0.4247243017643987  0.1179344478207952  0.9307771050999075
  0.8140323921498793  0.3755167931150963  0.8143921597862549
  0.8030437613554288  0.6304278537492169  0.7985917074883071
  0.8217050262656630  0.3816329555454831  0.0741719413066300
  0.3258860403665003  0.6321537013412812  0.5675558814063993
  0.6721298616719555  0.3878404479354591  0.1852982517603567
  0.6929775411421508  0.1141632477383728  0.9275404467626950
  0.5728777664129970  0.3875695249337123  0.0634881302515697
  0.1677453813256920  0.1079711326854181  0.6847543884181836
  0.8204870895269575  0.8741168133251423  0.0734354310441232
  0.1925758774963642  0.1174063345900320  0.4435051457080114
  0.9362920794073434  0.1285973347957044  0.9313340376293235
  0.2979079965463521  0.3782006375985290  0.3104998198079175
  0.5730488800598397  0.3716235161216619  0.3153519771340240
  0.2943219911684034  0.8758801791197302  0.3187661524320268
  0.5494401836586845  0.6247835357693063  0.5619391576466670
  0.0816609601466071  0.3719985919611799  0.3214911745767310
  0.9449349152185773  0.1168187712463921  0.1842862143378799
  0.8176636402346890  0.6343721005634586  0.0642585356516580
  0.6931449077300956  0.6407604400949686  0.6726456550841355
  0.9345668134763705  0.8552333952091083  0.6932811641432817
  0.9435571201068480  0.8815873468586313  0.1859742714827148
  0.8127279497406987  0.1171691321130450  0.5677228001977098
  0.1882992100047501  0.6196532157024429  0.1781004342752312
  0.8106314842761480  0.1282924321822528  0.8095930159784247
  0.9419312111525273  0.1510305374647128  0.4391577165077856
  0.3255367704021554  0.3767736357509990  0.5592057961734127
  0.5429782595499265  0.8624401704184490  0.0606191848443760
  0.4312072384565658  0.6109688476235737  0.6902283428274338
  0.1950419627841533  0.3644163132829591  0.4392645247081748
  0.5715664146273954  0.8899439943883947  0.5599476895319201
  0.0617329675047245  0.8883454913356138  0.0641883233563203
  0.4187732140798016  0.6177118380030112  0.9382647343111346
  0.3174244065926697  0.6285963803154992  0.0642860027328455
  0.9290416729753462  0.6365719645094371  0.4376473548028420
  0.1780651650594799  0.1305627257538939  0.1815382118913528
  0.5599851376575654  0.1120136555867681  0.5642915271335001
  0.0763539720860295  0.1328378401662426  0.8164568649894804
  0.4232527664940836  0.6188839506956108  0.4383598664840749
  0.7017810256227320  0.6393280661564839  0.1822773979885441
  0.4569738894254300  0.1348672232116245  0.1885623705706353
  0.1852986343892003  0.8683599632425893  0.4428902624783350
  0.3207719280496374  0.8678892535932705  0.0621799873043290
  0.5773739484449579  0.8919451992826135  0.8128204153025732
  0.9217606804677626  0.3530306382480918  0.9414422702084935
  0.5672685539955660  0.1169881973339857  0.8129118030536837
  0.1823667895202276  0.3724628491559814  0.1921094468428262
  0.4227168829837519  0.6108978628915083  0.1802661435982739
  0.6741246110594246  0.1196245887408275  0.6858364203737107
  0.3056250873202412  0.1279008240653723  0.5662086436412342
  0.5816428319032898  0.8776601468326863  0.3108798115965937
  0.3226329163300459  0.9005158491226347  0.5606218121188185
  0.7002404926708020  0.3819548257846612  0.4324320052088291
  0.1874477360261977  0.8550710990840864  0.9449809971250542
  0.3251583029289001  0.9122539718424383  0.8164873789881736
  0.8177806382610948  0.6125588643758630  0.5654671200411152
  0.0547268743288938  0.1186758516482146  0.0614628951209666
 
  0.00000000E+00  0.00000000E+00  0.00000000E+00
  0.00000000E+00  0.00000000E+00  0.00000000E+00
  0.00000000E+00  0.00000000E+00  0.00000000E+00
  0.00000000E+00  0.00000000E+00  0.00000000E+00
  0.00000000E+00  0.00000000E+00  0.00000000E+00
  0.00000000E+00  0.00000000E+00  0.00000000E+00
  0.00000000E+00  0.00000000E+00  0.00000000E+00
  0.00000000E+00  0.00000000E+00  0.00000000E+00
  0.00000000E+00  0.00000000E+00  0.00000000E+00
  0.00000000E+00  0.00000000E+00  0.00000000E+00
  0.00000000E+00  0.00000000E+00  0.00000000E+00
  0.00000000E+00  0.00000000E+00  0.00000000E+00
  0.00000000E+00  0.00000000E+00  0.00000000E+00
  0.00000000E+00  0.00000000E+00  0.00000000E+00
  0.00000000E+00  0.00000000E+00  0.00000000E+00
  0.00000000E+00  0.00000000E+00  0.00000000E+00
  0.00000000E+00  0.00000000E+00  0.00000000E+00
  0.00000000E+00  0.00000000E+00  0.00000000E+00
  0.00000000E+00  0.00000000E+00  0.00000000E+00
  0.00000000E+00  0.00000000E+00  0.00000000E+00
  0.00000000E+00  0.00000000E+00  0.00000000E+00
  0.00000000E+00  0.00000000E+00  0.00000000E+00
  0.00000000E+00  0.00000000E+00  0.00000000E+00
  0.00000000E+00  0.00000000E+00  0.00000000E+00
  0.00000000E+00  0.00000000E+00  0.00000000E+00
  0.00000000E+00  0.00000000E+00  0.00000000E+00
  0.00000000E+00  0.00000000E+00  0.00000000E+00
  0.00000000E+00  0.00000000E+00  0.00000000E+00
  0.00000000E+00  0.00000000E+00  0.00000000E+00
  0.00000000E+00  0.00000000E+00  0.00000000E+00
  0.00000000E+00  0.00000000E+00  0.00000000E+00
  0.00000000E+00  0.00000000E+00  0.00000000E+00
  0.00000000E+00  0.00000000E+00  0.00000000E+00
  0.00000000E+00  0.00000000E+00  0.00000000E+00
  0.00000000E+00  0.00000000E+00  0.00000000E+00
  0.00000000E+00  0.00000000E+00  0.00000000E+00
  0.00000000E+00  0.00000000E+00  0.00000000E+00
  0.00000000E+00  0.00000000E+00  0.00000000E+00
  0.00000000E+00  0.00000000E+00  0.00000000E+00
  0.00000000E+00  0.00000000E+00  0.00000000E+00
  0.00000000E+00  0.00000000E+00  0.00000000E+00
  0.00000000E+00  0.00000000E+00  0.00000000E+00
  0.00000000E+00  0.00000000E+00  0.00000000E+00
  0.00000000E+00  0.00000000E+00  0.00000000E+00
  0.00000000E+00  0.00000000E+00  0.00000000E+00
  0.00000000E+00  0.00000000E+00  0.00000000E+00
  0.00000000E+00  0.00000000E+00  0.00000000E+00
  0.00000000E+00  0.00000000E+00  0.00000000E+00
  0.00000000E+00  0.00000000E+00  0.00000000E+00
  0.00000000E+00  0.00000000E+00  0.00000000E+00
  0.00000000E+00  0.00000000E+00  0.00000000E+00
  0.00000000E+00  0.00000000E+00  0.00000000E+00
  0.00000000E+00  0.00000000E+00  0.00000000E+00
  0.00000000E+00  0.00000000E+00  0.00000000E+00
  0.00000000E+00  0.00000000E+00  0.00000000E+00
  0.00000000E+00  0.00000000E+00  0.00000000E+00
  0.00000000E+00  0.00000000E+00  0.00000000E+00
  0.00000000E+00  0.00000000E+00  0.00000000E+00
  0.00000000E+00  0.00000000E+00  0.00000000E+00
  0.00000000E+00  0.00000000E+00  0.00000000E+00
  0.00000000E+00  0.00000000E+00  0.00000000E+00
  0.00000000E+00  0.00000000E+00  0.00000000E+00
  0.00000000E+00  0.00000000E+00  0.00000000E+00
  0.00000000E+00  0.00000000E+00  0.00000000E+00
  0.00000000E+00  0.00000000E+00  0.00000000E+00
  0.00000000E+00  0.00000000E+00  0.00000000E+00
  0.00000000E+00  0.00000000E+00  0.00000000E+00
  0.00000000E+00  0.00000000E+00  0.00000000E+00
  0.00000000E+00  0.00000000E+00  0.00000000E+00
  0.00000000E+00  0.00000000E+00  0.00000000E+00
  0.00000000E+00  0.00000000E+00  0.00000000E+00
  0.00000000E+00  0.00000000E+00  0.00000000E+00
  0.00000000E+00  0.00000000E+00  0.00000000E+00
  0.00000000E+00  0.00000000E+00  0.00000000E+00
  0.00000000E+00  0.00000000E+00  0.00000000E+00
  0.00000000E+00  0.00000000E+00  0.00000000E+00
  0.00000000E+00  0.00000000E+00  0.00000000E+00
  0.00000000E+00  0.00000000E+00  0.00000000E+00
  0.00000000E+00  0.00000000E+00  0.00000000E+00
  0.00000000E+00  0.00000000E+00  0.00000000E+00
  0.00000000E+00  0.00000000E+00  0.00000000E+00
  0.00000000E+00  0.00000000E+00  0.00000000E+00
  0.00000000E+00  0.00000000E+00  0.00000000E+00
  0.00000000E+00  0.00000000E+00  0.00000000E+00
  0.00000000E+00  0.00000000E+00  0.00000000E+00
  0.00000000E+00  0.00000000E+00  0.00000000E+00
  0.00000000E+00  0.00000000E+00  0.00000000E+00
  0.00000000E+00  0.00000000E+00  0.00000000E+00
  0.00000000E+00  0.00000000E+00  0.00000000E+00
  0.00000000E+00  0.00000000E+00  0.00000000E+00
  0.00000000E+00  0.00000000E+00  0.00000000E+00
  0.00000000E+00  0.00000000E+00  0.00000000E+00
  0.00000000E+00  0.00000000E+00  0.00000000E+00
  0.00000000E+00  0.00000000E+00  0.00000000E+00
  0.00000000E+00  0.00000000E+00  0.00000000E+00
  0.00000000E+00  0.00000000E+00  0.00000000E+00
  0.00000000E+00  0.00000000E+00  0.00000000E+00
  0.00000000E+00  0.00000000E+00  0.00000000E+00
  0.00000000E+00  0.00000000E+00  0.00000000E+00
  0.00000000E+00  0.00000000E+00  0.00000000E+00
  0.00000000E+00  0.00000000E+00  0.00000000E+00
  0.00000000E+00  0.00000000E+00  0.00000000E+00
  0.00000000E+00  0.00000000E+00  0.00000000E+00
  0.00000000E+00  0.00000000E+00  0.00000000E+00
  0.00000000E+00  0.00000000E+00  0.00000000E+00
  0.00000000E+00  0.00000000E+00  0.00000000E+00
  0.00000000E+00  0.00000000E+00  0.00000000E+00
  0.00000000E+00  0.00000000E+00  0.00000000E+00
  0.00000000E+00  0.00000000E+00  0.00000000E+00
  0.00000000E+00  0.00000000E+00  0.00000000E+00
  0.00000000E+00  0.00000000E+00  0.00000000E+00
  0.00000000E+00  0.00000000E+00  0.00000000E+00
  0.00000000E+00  0.00000000E+00  0.00000000E+00
  0.00000000E+00  0.00000000E+00  0.00000000E+00
  0.00000000E+00  0.00000000E+00  0.00000000E+00
  0.00000000E+00  0.00000000E+00  0.00000000E+00
  0.00000000E+00  0.00000000E+00  0.00000000E+00
  0.00000000E+00  0.00000000E+00  0.00000000E+00
  0.00000000E+00  0.00000000E+00  0.00000000E+00
  0.00000000E+00  0.00000000E+00  0.00000000E+00
  0.00000000E+00  0.00000000E+00  0.00000000E+00
  0.00000000E+00  0.00000000E+00  0.00000000E+00
  0.00000000E+00  0.00000000E+00  0.00000000E+00
  0.00000000E+00  0.00000000E+00  0.00000000E+00
  0.00000000E+00  0.00000000E+00  0.00000000E+00
  0.00000000E+00  0.00000000E+00  0.00000000E+00
  0.00000000E+00  0.00000000E+00  0.00000000E+00
  0.00000000E+00  0.00000000E+00  0.00000000E+00
