# Nb hcp
1.0
 12.6606534398499999   0.0000000000000000   0.0000000000000000
  0.0000000000000000  12.6606534398499999   0.0000000000000000
  0.0000000000000000   0.0000000000000000  12.6606534398499999
   Nb  Ta  V
  100  14  14
Direct
  0.8956883887114510   0.0738751339506364   0.3911368491905811
  0.8956883887114510   0.0738751339506364   0.3062638177126298
  0.8956883887114510   0.0738751339506364   0.7146155746628029
  0.8956883887114510   0.0738751339506364   0.1229673316129760
  0.7677329038044891   0.2955005349160442   0.3911368491905811
  0.7677329038044891   0.2955005349160442   0.3062638177126298
  0.7677329038044891   0.2955005349160442   0.7146155746628029
  0.7677329038044891   0.2955005349160442   0.1229673316129760
  0.6397774378349386   0.5171259030808935   0.3911368491905811
  0.6397774378349386   0.5171259030808935   0.3062638177126298
  0.6397774378349386   0.5171259030808935   0.7146155746628029
  0.6397774378349386   0.5171259030808935   0.1229673316129760
  0.5118219565107303   0.7387512978407901   0.3911368491905811
  0.5118219565107303   0.7387512978407901   0.3062638177126298
  0.5118219565107303   0.7387512978407901   0.7146155746628029
  0.5118219565107303   0.7387512978407901   0.1229673316129760
  0.1279555007721251   0.0738751339506364   0.3911368491905811
  0.1279555007721251   0.0738751339506364   0.3062638177126298
  0.1279555007721251   0.0738751339506364   0.7146155746628029
  0.1279555007721251   0.0738751339506364   0.1229673316129760
  0.0000000158651633   0.2955005349160442   0.3911368491905811
  0.0000000158651633   0.2955005349160442   0.3062638177126298
  0.0000000158651633   0.2955005349160442   0.7146155746628029
  0.0000000158651633   0.2955005349160442   0.1229673316129760
  0.0122267892681807   0.5171259030808935   0.3911368491905811
  0.0122267892681807   0.5171259030808935   0.3062638177126298
  0.0122267892681807   0.5171259030808935   0.7146155746628029
  0.0122267892681807   0.5171259030808935   0.1229673316129760
  0.8842713079439726   0.7387512978407901   0.3911368491905811
  0.8842713079439726   0.7387512978407901   0.3062638177126298
  0.8842713079439726   0.7387512978407901   0.7146155746628029
  0.8842713079439726   0.7387512978407901   0.1229673316129760
  0.3838664634185669   0.0738751339506364   0.3911368491905811
  0.3838664634185669   0.0738751339506364   0.3062638177126298
  0.3838664634185669   0.0738751339506364   0.7146155746628029
  0.3838664634185669   0.0738751339506364   0.1229673316129760
  0.2559109785116052   0.2955005349160442   0.3911368491905811
  0.2559109785116052   0.2955005349160442   0.3062638177126298
  0.2559109785116052   0.2955005349160442   0.7146155746628029
  0.2559109785116052   0.2955005349160442   0.1229673316129760
  0.1279555125420546   0.5171259030808935   0.3911368491905811
  0.1279555125420546   0.5171259030808935   0.3062638177126298
  0.1279555125420546   0.5171259030808935   0.7146155746628029
  0.1279555125420546   0.5171259030808935   0.1229673316129760
  0.0000000312178464   0.7387512978407901   0.3911368491905811
  0.0000000312178464   0.7387512978407901   0.3062638177126298
  0.0000000312178464   0.7387512978407901   0.7146155746628029
  0.0000000312178464   0.7387512978407901   0.1229673316129760
  0.6397774260650090   0.0738751339506364   0.3911368491905811
  0.6397774260650090   0.0738751339506364   0.3062638177126298
  0.6397774260650090   0.0738751339506364   0.7146155746628029
  0.6397774260650090   0.0738751339506364   0.1229673316129760
  0.5118219411580472   0.2955005349160442   0.3911368491905811
  0.5118219411580472   0.2955005349160442   0.3062638177126298
  0.5118219411580472   0.2955005349160442   0.7146155746628029
  0.5118219411580472   0.2955005349160442   0.1229673316129760
  0.3838664751884967   0.5171259030808935   0.3911368491905811
  0.3838664751884967   0.5171259030808935   0.3062638177126298
  0.3838664751884967   0.5171259030808935   0.7146155746628029
  0.3838664751884967   0.5171259030808935   0.1229673316129760
  0.2559109938642883   0.7387512978407901   0.3911368491905811
  0.2559109938642883   0.7387512978407901   0.3062638177126298
  0.2559109938642883   0.7387512978407901   0.7146155746628029
  0.2559109938642883   0.7387512978407901   0.1229673316129760
  0.7563157877219561   0.8126264654784865   0.1020879392375433
  0.7563157877219561   0.8126264654784865   0.5104396961877162
  0.7563157877219561   0.8126264654784865   0.9187914531378895
  0.7563157877219561   0.8126264654784865   0.1869609707154946
  0.1401822316945809   0.1477502811987966   0.1020879392375433
  0.1401822316945809   0.1477502811987966   0.5104396961877162
  0.1401822316945809   0.1477502811987966   0.9187914531378895
  0.1401822316945809   0.1477502811987966   0.1869609707154946
  0.0122267503703728   0.3693756759586932   0.1020879392375433
  0.0122267503703728   0.3693756759586932   0.5104396961877162
  0.0122267503703728   0.3693756759586932   0.9187914531378895
  0.0122267503703728   0.3693756759586932   0.1869609707154946
  0.8842712690461644   0.5910010707185898   0.1020879392375433
  0.8842712690461644   0.5910010707185898   0.5104396961877162
  0.8842712690461644   0.5910010707185898   0.9187914531378895
  0.8842712690461644   0.5910010707185898   0.1869609707154946
  0.0122267575339048   0.8126264654784865   0.1020879392375433
  0.0122267575339048   0.8126264654784865   0.5104396961877162
  0.0122267575339048   0.8126264654784865   0.9187914531378895
  0.0122267575339048   0.8126264654784865   0.1869609707154946
  0.2559109621339618   0.1477502811987966   0.1020879392375433
  0.2559109621339618   0.1477502811987966   0.5104396961877162
  0.2559109621339618   0.1477502811987966   0.9187914531378895
  0.2559109621339618   0.1477502811987966   0.1869609707154946
  0.1279554808097536   0.3693756759586932   0.1020879392375433
  0.1279554808097536   0.3693756759586932   0.5104396961877162
  0.1279554808097536   0.3693756759586932   0.9187914531378895
  0.1279554808097536   0.3693756759586932   0.1869609707154946
  0.1401822388581133   0.5910010707185898   0.1020879392375433
  0.1401822388581133   0.5910010707185898   0.5104396961877162
  0.1401822388581133   0.5910010707185898   0.9187914531378895
  0.1401822388581133   0.5910010707185898   0.1869609707154946
  0.1279554500984634   0.8126264654784865   0.1020879392375433
  0.1279554500984634   0.8126264654784865   0.5104396961877162
  0.1279554500984634   0.8126264654784865   0.9187914531378895
  0.1279554500984634   0.8126264654784865   0.1869609707154946
  0.5118218940710884   0.1477502811987966   0.1020879392375433
  0.5118218940710884   0.1477502811987966   0.5104396961877162
  0.5118218940710884   0.1477502811987966   0.9187914531378895
  0.5118218940710884   0.1477502811987966   0.1869609707154946
  0.3838664127468800   0.3693756759586932   0.1020879392375433
  0.3838664127468800   0.3693756759586932   0.5104396961877162
  0.3838664127468800   0.3693756759586932   0.9187914531378895
  0.3838664127468800   0.3693756759586932   0.1869609707154946
  0.2559109314226716   0.5910010707185898   0.1020879392375433
  0.2559109314226716   0.5910010707185898   0.5104396961877162
  0.2559109314226716   0.5910010707185898   0.9187914531378895
  0.2559109314226716   0.5910010707185898   0.1869609707154946
  0.3838664127449053   0.8126264654784865   0.1020879392375433
  0.3838664127449053   0.8126264654784865   0.5104396961877162
  0.3838664127449053   0.8126264654784865   0.9187914531378895
  0.3838664127449053   0.8126264654784865   0.1869609707154946
  0.7677328567175301   0.1477502811987966   0.1020879392375433
  0.7677328567175301   0.1477502811987966   0.5104396961877162
  0.7677328567175301   0.1477502811987966   0.9187914531378895
  0.7677328567175301   0.1477502811987966   0.1869609707154946
  0.6397773753933219   0.3693756759586932   0.1020879392375433
  0.6397773753933219   0.3693756759586932   0.5104396961877162
  0.6397773753933219   0.3693756759586932   0.9187914531378895
  0.6397773753933219   0.3693756759586932   0.1869609707154946
  0.5118218940691137   0.5910010707185898   0.1020879392375433
  0.5118218940691137   0.5910010707185898   0.5104396961877162
  0.5118218940691137   0.5910010707185898   0.9187914531378895
  0.5118218940691137   0.5910010707185898   0.1869609707154946
