Hf Nb                                   
    1.000000000000000     
    13.7413255792708373   -0.0593527967551466    0.0198273134782694
    -6.9421142195443473    9.6858403200894632    0.0255069646219538
     0.0071320407947942    0.0774155215266033   19.3900200315816136
  Hf             Nb           
              64              64
Direct
  0.6927828408346450  0.6293925291564524  0.4381089022930204
  0.6878547516120523  0.3666236953687280  0.9378663207671375
  0.6859275524173736  0.3726330757787744  0.4418757845710367
  0.3254359719783289  0.1301912887821789  0.5604302607160643
  0.0550105916413690  0.8733349089846369  0.8190872793366426
  0.0612562351017178  0.1264819271307328  0.8084041286919965
  0.1941265326414862  0.1324701258124087  0.1814212217236972
  0.3269220781813564  0.3734354065115844  0.0655514435978733
  0.9289275208017398  0.6199231316877719  0.6875305260955821
  0.9326465002723047  0.3779239643872302  0.4416046744548134
  0.0635956884101520  0.3595928533151597  0.5611951589355985
  0.5587303276634599  0.3863459573993304  0.0630000872464830
  0.3143245824828479  0.1229624092674240  0.3125864737817566
  0.4392662223221973  0.6348966953901429  0.9471650534618312
  0.0441464754669323  0.6175280966281282  0.0574185258088966
  0.5551966428493545  0.8685214448117071  0.0635266367476444
  0.9583827368900134  0.1337257642410162  0.4470582277678224
  0.1839995066136854  0.8634453870761866  0.9388425542016584
  0.6990930730591458  0.8861891142336658  0.4384072345681002
  0.3101471673178749  0.6189810024355932  0.8097607748665494
  0.0569856202136552  0.0985740610303051  0.5784392609099147
  0.1829397410274808  0.3853414628842717  0.6926117605623163
  0.5643724679627544  0.1209251987698010  0.8150997574308668
  0.6830705704707536  0.3658105629101235  0.1858288847536701
  0.1905733829895759  0.4074230541569366  0.4280630895256460
  0.4436689796018072  0.3553029204395371  0.4359725036581193
  0.0577374028341457  0.3845997550232156  0.2980233358540296
  0.3142813310625809  0.3766969311247257  0.5595601864181565
  0.4492700227364518  0.6282066288713863  0.4337916264463687
  0.3116012120965584  0.6270911783200213  0.5588090964513539
  0.4468337245653706  0.6308821182380597  0.1918830217291059
  0.2003378595641897  0.3603691713187714  0.9282672379011837
  0.6913085305921435  0.6291643334494024  0.1884286819264623
  0.2216821363546341  0.1527210174001462  0.6945775319105563
  0.9427930272272430  0.1402420738552543  0.1807116495869177
  0.0407350427413070  0.3598620137557440  0.8228342698980573
  0.1816781756556146  0.1329458265367020  0.4420053641589837
  0.0653005113188913  0.6261282112972135  0.8137234433457947
  0.9381853909695279  0.8802475178693909  0.6885305611097174
  0.0561202808100765  0.1138869233749727  0.0517877321643091
  0.3186566722538130  0.3860049029599816  0.3057662588550650
  0.8142706942009714  0.3770910283739422  0.3116774178752852
  0.3059418695597982  0.8701859935919453  0.5638817708057352
  0.9261852422915728  0.1286618357990370  0.9339549361522129
  0.1837852901328109  0.6317298475667806  0.1907583634534692
  0.8177758260642102  0.1102370233407733  0.3139725101144246
  0.5694045149267891  0.3765170988312366  0.8059326180791336
  0.5629802870683256  0.1255644355756560  0.0637496874786246
  0.0643713598618444  0.8751252826639628  0.0727005882658486
  0.9200675414370859  0.3888798753201239  0.9376418357072266
  0.0501318443841671  0.3651915180375438  0.0577323481513093
  0.5526854947535021  0.8662615143059453  0.3122110628086399
  0.6928805494187771  0.6307714219794376  0.9420197654125563
  0.6673539192992506  0.1137899824618714  0.4235365279763863
  0.1907754481083306  0.8822050897553382  0.6906902533616681
  0.9351620598763335  0.3727915748955535  0.6879816394845274
  0.0525724992639544  0.1085907746171893  0.3099030312431338
  0.4508261695549690  0.6420992571629910  0.6837247898783401
  0.4276418997807734  0.3626035398454479  0.9291005328881203
  0.5694900801934732  0.1316206291393687  0.5631842327374791
  0.8014647110508165  0.1184483637180955  0.5614916209796385
  0.5632165352233983  0.6286135200051866  0.8134535784383753
  0.1993121378971674  0.6159192056166934  0.9457077891338289
  0.3096150064445067  0.8623355973066228  0.0667602427374367
  0.9204031132296442  0.6402382770383139  0.9371009593586169
  0.8206536303458908  0.3947215530332668  0.5676291894545343
  0.3163180854233333  0.8743151308379729  0.8124520232896589
  0.6848490368742799  0.1070256961110196  0.9387320837626406
  0.9204231842019076  0.1203315865056332  0.6905399326245365
  0.3025187224053249  0.6247907972319395  0.3192729802342894
  0.1917025926591607  0.8799425245710596  0.1963332236809456
  0.8074830029834972  0.8756692778883276  0.0657029017770239
  0.3167831089429859  0.1187947044340784  0.0549498610204880
  0.5484604607891173  0.1226166464726580  0.3053762128592923
  0.3006872867356560  0.5978669229557593  0.0757306198722471
  0.4475673799365493  0.3638027238128420  0.1956741935819399
  0.7997993202187281  0.1216791588512999  0.0633016628132936
  0.6811421866701496  0.1134873418128951  0.6891288403239344
  0.4454769196377857  0.1279231129820410  0.6885898160023759
  0.9413398011835518  0.8741650855237781  0.4376582195409300
  0.8110813786238839  0.8751399037687644  0.8151660872502651
  0.8069710223546630  0.6329289472270535  0.8119791860759075
  0.9407122165265137  0.8815332217689610  0.1955418238785406
  0.6900864984629196  0.6266371314975628  0.6866545138738268
  0.4273072165438071  0.1146808865655858  0.1853878533758065
  0.8147469012136708  0.6286274397970153  0.5619139400517875
  0.5816755041810470  0.6491310161661680  0.0649233990579514
  0.5726453356828782  0.3914219916542276  0.5667954715298896
  0.5720620032456093  0.6231602387909670  0.3125317988941277
  0.4265198427982355  0.8631374350440452  0.4405921779363646
  0.8090265856433992  0.3734409261916450  0.0657611681601189
  0.3235538513352764  0.3660253109281587  0.7981857436753881
  0.3090108933377074  0.8691523296369627  0.3121277947199259
  0.9365116556569409  0.6332261364093154  0.4380614985800777
  0.6855510170548947  0.1139161328494377  0.1875968506472676
  0.0596012071035208  0.6375844314335082  0.3152467704482240
  0.4311346558476331  0.1156931074111490  0.9378873936191858
  0.4418658768683225  0.8911614990265755  0.1899816177448063
  0.4610299485681880  0.3925836391366196  0.6821415470359218
  0.7974590281546954  0.1146886499438687  0.8090315378945641
  0.1976756957718745  0.3949561771137995  0.1762838778189133
  0.6940283807411611  0.8848048907637427  0.1878836803391273
  0.8069686073336577  0.3844194818481327  0.8042150711441999
  0.9405422631197691  0.8859912498280663  0.9433156160568142
  0.1835143247161962  0.1043062535675186  0.9329029831412349
  0.6848586430282529  0.8744067371581016  0.9346694598038716
  0.0599930956995212  0.8680912036211071  0.3135897540162623
  0.1846345734583772  0.6445137487158040  0.4385353128326771
  0.8086977575350804  0.8632766163600549  0.5603766250122596
  0.8161064225134549  0.6213355470502965  0.0674621795205013
  0.8175843830187556  0.6273513945526000  0.3124738651843074
  0.8077556447597217  0.8551048497330578  0.3097769092797588
  0.1968118489484745  0.6439553227074122  0.6819538619967001
  0.4410178111559003  0.8864945715085889  0.9313048116578563
  0.9377589173645713  0.6316297135560998  0.1909116175772988
  0.9202343650186799  0.3780293654529850  0.1802349125077968
  0.0613551292325724  0.8591971193327989  0.5572795736930058
  0.3188580543846516  0.1113512805223958  0.8169640027653906
  0.5704438688908444  0.3823195055203147  0.3110032205071246
  0.0581495440208144  0.6233571687527699  0.5606423168907496
  0.1861617253473838  0.8750800575378703  0.4345702202993673
  0.4386462083179259  0.1001624384809083  0.4352969357334018
  0.6869461214749365  0.3656927612986213  0.6828566016134356
  0.5658612665474486  0.8754785992613989  0.8113876244094844
  0.5743397520484181  0.6387992044336547  0.5625522782465716
  0.6950904788407924  0.8786851564584466  0.6886972855411156
  0.4384190461182068  0.8813040718652501  0.6912136636120317
  0.5595703847519156  0.8664063937922751  0.5686411767579047
 
  0.00000000E+00  0.00000000E+00  0.00000000E+00
  0.00000000E+00  0.00000000E+00  0.00000000E+00
  0.00000000E+00  0.00000000E+00  0.00000000E+00
  0.00000000E+00  0.00000000E+00  0.00000000E+00
  0.00000000E+00  0.00000000E+00  0.00000000E+00
  0.00000000E+00  0.00000000E+00  0.00000000E+00
  0.00000000E+00  0.00000000E+00  0.00000000E+00
  0.00000000E+00  0.00000000E+00  0.00000000E+00
  0.00000000E+00  0.00000000E+00  0.00000000E+00
  0.00000000E+00  0.00000000E+00  0.00000000E+00
  0.00000000E+00  0.00000000E+00  0.00000000E+00
  0.00000000E+00  0.00000000E+00  0.00000000E+00
  0.00000000E+00  0.00000000E+00  0.00000000E+00
  0.00000000E+00  0.00000000E+00  0.00000000E+00
  0.00000000E+00  0.00000000E+00  0.00000000E+00
  0.00000000E+00  0.00000000E+00  0.00000000E+00
  0.00000000E+00  0.00000000E+00  0.00000000E+00
  0.00000000E+00  0.00000000E+00  0.00000000E+00
  0.00000000E+00  0.00000000E+00  0.00000000E+00
  0.00000000E+00  0.00000000E+00  0.00000000E+00
  0.00000000E+00  0.00000000E+00  0.00000000E+00
  0.00000000E+00  0.00000000E+00  0.00000000E+00
  0.00000000E+00  0.00000000E+00  0.00000000E+00
  0.00000000E+00  0.00000000E+00  0.00000000E+00
  0.00000000E+00  0.00000000E+00  0.00000000E+00
  0.00000000E+00  0.00000000E+00  0.00000000E+00
  0.00000000E+00  0.00000000E+00  0.00000000E+00
  0.00000000E+00  0.00000000E+00  0.00000000E+00
  0.00000000E+00  0.00000000E+00  0.00000000E+00
  0.00000000E+00  0.00000000E+00  0.00000000E+00
  0.00000000E+00  0.00000000E+00  0.00000000E+00
  0.00000000E+00  0.00000000E+00  0.00000000E+00
  0.00000000E+00  0.00000000E+00  0.00000000E+00
  0.00000000E+00  0.00000000E+00  0.00000000E+00
  0.00000000E+00  0.00000000E+00  0.00000000E+00
  0.00000000E+00  0.00000000E+00  0.00000000E+00
  0.00000000E+00  0.00000000E+00  0.00000000E+00
  0.00000000E+00  0.00000000E+00  0.00000000E+00
  0.00000000E+00  0.00000000E+00  0.00000000E+00
  0.00000000E+00  0.00000000E+00  0.00000000E+00
  0.00000000E+00  0.00000000E+00  0.00000000E+00
  0.00000000E+00  0.00000000E+00  0.00000000E+00
  0.00000000E+00  0.00000000E+00  0.00000000E+00
  0.00000000E+00  0.00000000E+00  0.00000000E+00
  0.00000000E+00  0.00000000E+00  0.00000000E+00
  0.00000000E+00  0.00000000E+00  0.00000000E+00
  0.00000000E+00  0.00000000E+00  0.00000000E+00
  0.00000000E+00  0.00000000E+00  0.00000000E+00
  0.00000000E+00  0.00000000E+00  0.00000000E+00
  0.00000000E+00  0.00000000E+00  0.00000000E+00
  0.00000000E+00  0.00000000E+00  0.00000000E+00
  0.00000000E+00  0.00000000E+00  0.00000000E+00
  0.00000000E+00  0.00000000E+00  0.00000000E+00
  0.00000000E+00  0.00000000E+00  0.00000000E+00
  0.00000000E+00  0.00000000E+00  0.00000000E+00
  0.00000000E+00  0.00000000E+00  0.00000000E+00
  0.00000000E+00  0.00000000E+00  0.00000000E+00
  0.00000000E+00  0.00000000E+00  0.00000000E+00
  0.00000000E+00  0.00000000E+00  0.00000000E+00
  0.00000000E+00  0.00000000E+00  0.00000000E+00
  0.00000000E+00  0.00000000E+00  0.00000000E+00
  0.00000000E+00  0.00000000E+00  0.00000000E+00
  0.00000000E+00  0.00000000E+00  0.00000000E+00
  0.00000000E+00  0.00000000E+00  0.00000000E+00
  0.00000000E+00  0.00000000E+00  0.00000000E+00
  0.00000000E+00  0.00000000E+00  0.00000000E+00
  0.00000000E+00  0.00000000E+00  0.00000000E+00
  0.00000000E+00  0.00000000E+00  0.00000000E+00
  0.00000000E+00  0.00000000E+00  0.00000000E+00
  0.00000000E+00  0.00000000E+00  0.00000000E+00
  0.00000000E+00  0.00000000E+00  0.00000000E+00
  0.00000000E+00  0.00000000E+00  0.00000000E+00
  0.00000000E+00  0.00000000E+00  0.00000000E+00
  0.00000000E+00  0.00000000E+00  0.00000000E+00
  0.00000000E+00  0.00000000E+00  0.00000000E+00
  0.00000000E+00  0.00000000E+00  0.00000000E+00
  0.00000000E+00  0.00000000E+00  0.00000000E+00
  0.00000000E+00  0.00000000E+00  0.00000000E+00
  0.00000000E+00  0.00000000E+00  0.00000000E+00
  0.00000000E+00  0.00000000E+00  0.00000000E+00
  0.00000000E+00  0.00000000E+00  0.00000000E+00
  0.00000000E+00  0.00000000E+00  0.00000000E+00
  0.00000000E+00  0.00000000E+00  0.00000000E+00
  0.00000000E+00  0.00000000E+00  0.00000000E+00
  0.00000000E+00  0.00000000E+00  0.00000000E+00
  0.00000000E+00  0.00000000E+00  0.00000000E+00
  0.00000000E+00  0.00000000E+00  0.00000000E+00
  0.00000000E+00  0.00000000E+00  0.00000000E+00
  0.00000000E+00  0.00000000E+00  0.00000000E+00
  0.00000000E+00  0.00000000E+00  0.00000000E+00
  0.00000000E+00  0.00000000E+00  0.00000000E+00
  0.00000000E+00  0.00000000E+00  0.00000000E+00
  0.00000000E+00  0.00000000E+00  0.00000000E+00
  0.00000000E+00  0.00000000E+00  0.00000000E+00
  0.00000000E+00  0.00000000E+00  0.00000000E+00
  0.00000000E+00  0.00000000E+00  0.00000000E+00
  0.00000000E+00  0.00000000E+00  0.00000000E+00
  0.00000000E+00  0.00000000E+00  0.00000000E+00
  0.00000000E+00  0.00000000E+00  0.00000000E+00
  0.00000000E+00  0.00000000E+00  0.00000000E+00
  0.00000000E+00  0.00000000E+00  0.00000000E+00
  0.00000000E+00  0.00000000E+00  0.00000000E+00
  0.00000000E+00  0.00000000E+00  0.00000000E+00
  0.00000000E+00  0.00000000E+00  0.00000000E+00
  0.00000000E+00  0.00000000E+00  0.00000000E+00
  0.00000000E+00  0.00000000E+00  0.00000000E+00
  0.00000000E+00  0.00000000E+00  0.00000000E+00
  0.00000000E+00  0.00000000E+00  0.00000000E+00
  0.00000000E+00  0.00000000E+00  0.00000000E+00
  0.00000000E+00  0.00000000E+00  0.00000000E+00
  0.00000000E+00  0.00000000E+00  0.00000000E+00
  0.00000000E+00  0.00000000E+00  0.00000000E+00
  0.00000000E+00  0.00000000E+00  0.00000000E+00
  0.00000000E+00  0.00000000E+00  0.00000000E+00
  0.00000000E+00  0.00000000E+00  0.00000000E+00
  0.00000000E+00  0.00000000E+00  0.00000000E+00
  0.00000000E+00  0.00000000E+00  0.00000000E+00
  0.00000000E+00  0.00000000E+00  0.00000000E+00
  0.00000000E+00  0.00000000E+00  0.00000000E+00
  0.00000000E+00  0.00000000E+00  0.00000000E+00
  0.00000000E+00  0.00000000E+00  0.00000000E+00
  0.00000000E+00  0.00000000E+00  0.00000000E+00
  0.00000000E+00  0.00000000E+00  0.00000000E+00
  0.00000000E+00  0.00000000E+00  0.00000000E+00
  0.00000000E+00  0.00000000E+00  0.00000000E+00
  0.00000000E+00  0.00000000E+00  0.00000000E+00
  0.00000000E+00  0.00000000E+00  0.00000000E+00
  0.00000000E+00  0.00000000E+00  0.00000000E+00
