Nb Ti                                   
    1.000000000000000     
    12.9380685062064646   -0.0328616152344351   -0.0247438161728204
    -6.4874173932313655    9.4158348140988810    0.0234283221524105
    -0.0046931205791911    0.0221931372311743   18.3557949447045203
  Nb              Ti            
    40    88
Direct
     0.3162297387208459    0.3794349201013151    0.8144987648664354
     0.0735040989261264    0.8890760764284334    0.0634666905860086
     0.8145838283285590    0.6358874092276358    0.8158218846917957
     0.9352592970943607    0.3716686142027908    0.6850361877250218
     0.8145819993784587    0.6339731138088646    0.5587116472043132
     0.5707718982495786    0.1239223186834316    0.8153812296853025
     0.9283507220682429    0.8663916235851805    0.6878701131798234
     0.3189045925314055    0.6414701363161747    0.3144548729793542
     0.5739918957879915    0.1227164123980161    0.0616253939032555
     0.4401332651969819    0.1286747815366303    0.1876945951410214
     0.3140667193700725    0.6300797550299234    0.0625040844801172
     0.5641996202118081    0.8839128637359829    0.3126639988466988
     0.3107915263316133    0.1272269323418447    0.0629596821863686
     0.5628877294865471    0.1240068212046180    0.3146817582618916
     0.1774096456296121    0.3684831300384703    0.1870846587885558
     0.3093464687687386    0.3749654441198861    0.0606497615898778
     0.1870621907093850    0.8706639984504997    0.1871830696055167
     0.6776537842721534    0.6101805433649388    0.1882330085235052
     0.3235286552280363    0.8920681699877557    0.8127239003636201
     0.9292274256419759    0.3675606797407509    0.4417405286906745
     0.6880215292215565    0.6248271313122795    0.6870552915386156
     0.4361677057166159    0.1162214722729707    0.4364642483199603
     0.4424262390057581    0.1285185426434757    0.6844931873016946
     0.1781321504167615    0.3617122589029354    0.9363150779293495
     0.4341080563802407    0.3770878206761760    0.1854754437842610
     0.1864017106520488    0.8713059638696622    0.4394029102722284
     0.1736475488169112    0.1080157816148390    0.4364365021665905
     0.9328647477892844    0.6134540653396311    0.1849280309083829
     0.3142403973932825    0.1287939290376342    0.8080925627662893
     0.0663584153730344    0.1350404282537283    0.5590637812088681
     0.6892630256973873    0.3788701916918177    0.1872654337272905
     0.5684477279563955    0.1379935854815971    0.5587200476851982
     0.8336658153587764    0.8907261741649749    0.3103615790729892
     0.3128640171031760    0.1328606229001127    0.3138845933086847
     0.1777959070330840    0.3534789074165780    0.6949660374792865
     0.6845762406155567    0.3812346834695546    0.6859417020461909
     0.4332023689942382    0.3757690658994965    0.9366871025362354
     0.8168687908369934    0.3900884274824839    0.5639482904564069
     0.8087124913842885    0.8862069043832345    0.0624483076152526
     0.1956374223753889    0.6268885484762472    0.1874628520666483
     0.9328646321339958    0.6243906078121776    0.6896146324945145
     0.5624456445963233    0.3909949841046031    0.5581071963917790
     0.8154473624736774    0.6263498930988712    0.3134716180546485
     0.5624175733682674    0.6468553933662851    0.5669483387291433
     0.9497984312369370    0.6216372505966877    0.4399746351507483
     0.4448387590687950    0.8789261459589912    0.1863385536430053
     0.6783854384250309    0.8552573784959007    0.4312884402631675
     0.6626933188110247    0.6003877973205914    0.4396368620926659
     0.3181324091909528    0.3949804255385269    0.5625124803090948
     0.1805411411084165    0.6204847435841591    0.4363667893064495
     0.8245949329103515    0.1438498499272501    0.8127229410886568
     0.6937203304724450    0.3760409894181884    0.4383490735251249
     0.6831665327951374    0.8688960917208383    0.1906636987512618
     0.5650798350281508    0.3685493322383037    0.0601004966146513
     0.4307450690455725    0.6199565650534106    0.1911814409044428
     0.0639610043587005    0.8885343836412285    0.3105298591931231
     0.5668081254537602    0.3709996024693195    0.8147745889616973
     0.4396688257129217    0.8698661557564403    0.6882439534838320
     0.4286234859799540    0.1192803779893467    0.9384877314904911
     0.4305224504005825    0.6033340272616320    0.4341555037850797
     0.6777337493112356    0.0716365176535200    0.9380695407474845
     0.9303926471511479    0.8517753716580181    0.9402718198150478
     0.6840576641215693    0.3300690942342243    0.9369906387087157
     0.0600580182158667    0.6381919349995906    0.3066515327968957
     0.4274468072310507    0.6225447733534848    0.9385496860095762
     0.1825348606511934    0.1148457522013602    0.9339324976054457
     0.1804423443145467    0.1217351832533687    0.1898320971074285
     0.0681538467659596    0.4010941293204537    0.3207286324724157
     0.3136657270283393    0.8823583890578099    0.3134269200489903
     0.8239360222038256    0.1325320688591645    0.3097021301434507
     0.0666083227955249    0.1497090442127625    0.3170205918694330
     0.4193888072787451    0.8613754809866582    0.9342739378911243
     0.6658306415219197    0.8553269690864497    0.6866909119837077
     0.8149102786769229    0.8896600800258154    0.5638464623047038
     0.1702050975082345    0.6048369763325876    0.9366072576308442
     0.4114612265513695    0.6014912036214781    0.6864348948977849
     0.9134413807378935    0.3377963079937373    0.9364701301497275
     0.0625551149745312    0.1328598044354418    0.0605771318623642
     0.9255483306392736    0.1065107662272570    0.6871623617214803
     0.5622721539717340    0.8661083456741805    0.0553637984016446
     0.0787719893981573    0.6541666880782632    0.8095181417328410
     0.0775160087707757    0.6463397373069248    0.5681239122108216
     0.4373222771927371    0.3728546682445495    0.6875750018874738
     0.9253267074795769    0.8539952302285492    0.1814114055196493
     0.8230739211247202    0.3900537594148680    0.0643478935921462
     0.1757621337340581    0.1086878924561209    0.6870702412145888
     0.4166034734921135    0.3450246238097645    0.4357948938754046
     0.5632474178511514    0.6222089150316995    0.8126610787913513
     0.3366056055279190    0.6595720453118077    0.5575162270406394
     0.8153655024612854    0.8871696815899694    0.8104167327370494
     0.5614250307722908    0.6161375619077801    0.0620410511196798
     0.9305016455863661    0.5960481261513220    0.9367044097039546
     0.0872991593888605    0.4018441351424926    0.5666153064992460
     0.3198790210860014    0.6441810411155882    0.8120523144670632
     0.6818722995472086    0.5776636690044121    0.9394763519852508
     0.5651178017282008    0.3804672173159804    0.3123952653650233
     0.6922880690611587    0.1374719989150515    0.1923009262508862
     0.6830848399098360    0.8225667582721604    0.9366553243441010
     0.3179354602157342    0.3921703914132576    0.3113183699906382
     0.9236649077216152    0.0948551205848715    0.9365630119774158
     0.0631070619676781    0.8923441397033128    0.8109476498283646
     0.5932815529883259    0.9117093775615528    0.5596326185964939
     0.8370423120909820    0.1618803113055157    0.5681418473878461
     0.0648525770883259    0.3994971682573081    0.8139735035166094
     0.3138331748609918    0.1408360397199081    0.5592533462357727
     0.9461624184028603    0.3683537917530532    0.1895311707426501
     0.3228802524856297    0.8903161928931954    0.0624100828345812
     0.9230193004406196    0.8585736650324803    0.4396031584202195
     0.0644468810869296    0.3904183220140620    0.0574357050733280
     0.0739381907494556    0.6475907357349117    0.0634670620077095
     0.0629944991347578    0.8831295253507643    0.5649863750836893
     0.9341762637506885    0.1017170477776471    0.1860363308253917
     0.1796443032022501    0.8632592371822025    0.9373121408483102
     0.3230391075180050    0.9020230775906366    0.5647783630092873
     0.5796764104334627    0.6450824574892924    0.3110422763698351
     0.1892515829480406    0.6105903446511455    0.6850330613072141
     0.8167158261410323    0.1368715233511056    0.0648286507327747
     0.6908769138441073    0.1177390716536813    0.4395426484360785
     0.8131445871290229    0.3733864391529191    0.3100612232970351
     0.9173672764503010    0.1090732102350508    0.4415664658819730
     0.1896853789596185    0.8666387522696835    0.6907857413128006
     0.1755093135329588    0.3573270162981009    0.4388387849967846
     0.4388652362632133    0.8679186520823796    0.4398609437584269
     0.0628523338419337    0.1442897639944225    0.8117113682941886
     0.8197719008638147    0.6390078980744658    0.0642747556373452
     0.5759745691212429    0.8794325452365422    0.8181719368772844
     0.6851791734516118    0.1239324539058482    0.6878693852796997
     0.8190634229273555    0.3900943883007823    0.8078749212116296
 
  0.00000000E+00  0.00000000E+00  0.00000000E+00
  0.00000000E+00  0.00000000E+00  0.00000000E+00
  0.00000000E+00  0.00000000E+00  0.00000000E+00
  0.00000000E+00  0.00000000E+00  0.00000000E+00
  0.00000000E+00  0.00000000E+00  0.00000000E+00
  0.00000000E+00  0.00000000E+00  0.00000000E+00
  0.00000000E+00  0.00000000E+00  0.00000000E+00
  0.00000000E+00  0.00000000E+00  0.00000000E+00
  0.00000000E+00  0.00000000E+00  0.00000000E+00
  0.00000000E+00  0.00000000E+00  0.00000000E+00
  0.00000000E+00  0.00000000E+00  0.00000000E+00
  0.00000000E+00  0.00000000E+00  0.00000000E+00
  0.00000000E+00  0.00000000E+00  0.00000000E+00
  0.00000000E+00  0.00000000E+00  0.00000000E+00
  0.00000000E+00  0.00000000E+00  0.00000000E+00
  0.00000000E+00  0.00000000E+00  0.00000000E+00
  0.00000000E+00  0.00000000E+00  0.00000000E+00
  0.00000000E+00  0.00000000E+00  0.00000000E+00
  0.00000000E+00  0.00000000E+00  0.00000000E+00
  0.00000000E+00  0.00000000E+00  0.00000000E+00
  0.00000000E+00  0.00000000E+00  0.00000000E+00
  0.00000000E+00  0.00000000E+00  0.00000000E+00
  0.00000000E+00  0.00000000E+00  0.00000000E+00
  0.00000000E+00  0.00000000E+00  0.00000000E+00
  0.00000000E+00  0.00000000E+00  0.00000000E+00
  0.00000000E+00  0.00000000E+00  0.00000000E+00
  0.00000000E+00  0.00000000E+00  0.00000000E+00
  0.00000000E+00  0.00000000E+00  0.00000000E+00
  0.00000000E+00  0.00000000E+00  0.00000000E+00
  0.00000000E+00  0.00000000E+00  0.00000000E+00
  0.00000000E+00  0.00000000E+00  0.00000000E+00
  0.00000000E+00  0.00000000E+00  0.00000000E+00
  0.00000000E+00  0.00000000E+00  0.00000000E+00
  0.00000000E+00  0.00000000E+00  0.00000000E+00
  0.00000000E+00  0.00000000E+00  0.00000000E+00
  0.00000000E+00  0.00000000E+00  0.00000000E+00
  0.00000000E+00  0.00000000E+00  0.00000000E+00
  0.00000000E+00  0.00000000E+00  0.00000000E+00
  0.00000000E+00  0.00000000E+00  0.00000000E+00
  0.00000000E+00  0.00000000E+00  0.00000000E+00
  0.00000000E+00  0.00000000E+00  0.00000000E+00
  0.00000000E+00  0.00000000E+00  0.00000000E+00
  0.00000000E+00  0.00000000E+00  0.00000000E+00
  0.00000000E+00  0.00000000E+00  0.00000000E+00
  0.00000000E+00  0.00000000E+00  0.00000000E+00
  0.00000000E+00  0.00000000E+00  0.00000000E+00
  0.00000000E+00  0.00000000E+00  0.00000000E+00
  0.00000000E+00  0.00000000E+00  0.00000000E+00
  0.00000000E+00  0.00000000E+00  0.00000000E+00
  0.00000000E+00  0.00000000E+00  0.00000000E+00
  0.00000000E+00  0.00000000E+00  0.00000000E+00
  0.00000000E+00  0.00000000E+00  0.00000000E+00
  0.00000000E+00  0.00000000E+00  0.00000000E+00
  0.00000000E+00  0.00000000E+00  0.00000000E+00
  0.00000000E+00  0.00000000E+00  0.00000000E+00
  0.00000000E+00  0.00000000E+00  0.00000000E+00
  0.00000000E+00  0.00000000E+00  0.00000000E+00
  0.00000000E+00  0.00000000E+00  0.00000000E+00
  0.00000000E+00  0.00000000E+00  0.00000000E+00
  0.00000000E+00  0.00000000E+00  0.00000000E+00
  0.00000000E+00  0.00000000E+00  0.00000000E+00
  0.00000000E+00  0.00000000E+00  0.00000000E+00
  0.00000000E+00  0.00000000E+00  0.00000000E+00
  0.00000000E+00  0.00000000E+00  0.00000000E+00
  0.00000000E+00  0.00000000E+00  0.00000000E+00
  0.00000000E+00  0.00000000E+00  0.00000000E+00
  0.00000000E+00  0.00000000E+00  0.00000000E+00
  0.00000000E+00  0.00000000E+00  0.00000000E+00
  0.00000000E+00  0.00000000E+00  0.00000000E+00
  0.00000000E+00  0.00000000E+00  0.00000000E+00
  0.00000000E+00  0.00000000E+00  0.00000000E+00
  0.00000000E+00  0.00000000E+00  0.00000000E+00
  0.00000000E+00  0.00000000E+00  0.00000000E+00
  0.00000000E+00  0.00000000E+00  0.00000000E+00
  0.00000000E+00  0.00000000E+00  0.00000000E+00
  0.00000000E+00  0.00000000E+00  0.00000000E+00
  0.00000000E+00  0.00000000E+00  0.00000000E+00
  0.00000000E+00  0.00000000E+00  0.00000000E+00
  0.00000000E+00  0.00000000E+00  0.00000000E+00
  0.00000000E+00  0.00000000E+00  0.00000000E+00
  0.00000000E+00  0.00000000E+00  0.00000000E+00
  0.00000000E+00  0.00000000E+00  0.00000000E+00
  0.00000000E+00  0.00000000E+00  0.00000000E+00
  0.00000000E+00  0.00000000E+00  0.00000000E+00
  0.00000000E+00  0.00000000E+00  0.00000000E+00
  0.00000000E+00  0.00000000E+00  0.00000000E+00
  0.00000000E+00  0.00000000E+00  0.00000000E+00
  0.00000000E+00  0.00000000E+00  0.00000000E+00
  0.00000000E+00  0.00000000E+00  0.00000000E+00
  0.00000000E+00  0.00000000E+00  0.00000000E+00
  0.00000000E+00  0.00000000E+00  0.00000000E+00
  0.00000000E+00  0.00000000E+00  0.00000000E+00
  0.00000000E+00  0.00000000E+00  0.00000000E+00
  0.00000000E+00  0.00000000E+00  0.00000000E+00
  0.00000000E+00  0.00000000E+00  0.00000000E+00
  0.00000000E+00  0.00000000E+00  0.00000000E+00
  0.00000000E+00  0.00000000E+00  0.00000000E+00
  0.00000000E+00  0.00000000E+00  0.00000000E+00
  0.00000000E+00  0.00000000E+00  0.00000000E+00
  0.00000000E+00  0.00000000E+00  0.00000000E+00
  0.00000000E+00  0.00000000E+00  0.00000000E+00
  0.00000000E+00  0.00000000E+00  0.00000000E+00
  0.00000000E+00  0.00000000E+00  0.00000000E+00
  0.00000000E+00  0.00000000E+00  0.00000000E+00
  0.00000000E+00  0.00000000E+00  0.00000000E+00
  0.00000000E+00  0.00000000E+00  0.00000000E+00
  0.00000000E+00  0.00000000E+00  0.00000000E+00
  0.00000000E+00  0.00000000E+00  0.00000000E+00
  0.00000000E+00  0.00000000E+00  0.00000000E+00
  0.00000000E+00  0.00000000E+00  0.00000000E+00
  0.00000000E+00  0.00000000E+00  0.00000000E+00
  0.00000000E+00  0.00000000E+00  0.00000000E+00
  0.00000000E+00  0.00000000E+00  0.00000000E+00
  0.00000000E+00  0.00000000E+00  0.00000000E+00
  0.00000000E+00  0.00000000E+00  0.00000000E+00
  0.00000000E+00  0.00000000E+00  0.00000000E+00
  0.00000000E+00  0.00000000E+00  0.00000000E+00
  0.00000000E+00  0.00000000E+00  0.00000000E+00
  0.00000000E+00  0.00000000E+00  0.00000000E+00
  0.00000000E+00  0.00000000E+00  0.00000000E+00
  0.00000000E+00  0.00000000E+00  0.00000000E+00
  0.00000000E+00  0.00000000E+00  0.00000000E+00
  0.00000000E+00  0.00000000E+00  0.00000000E+00
  0.00000000E+00  0.00000000E+00  0.00000000E+00
  0.00000000E+00  0.00000000E+00  0.00000000E+00
  0.00000000E+00  0.00000000E+00  0.00000000E+00
  0.00000000E+00  0.00000000E+00  0.00000000E+00
  0.00000000E+00  0.00000000E+00  0.00000000E+00
