Hf Ti                                   
    1.000000000000000     
    12.4427139735201813   -0.0014854776363111   -0.0055217742751090
    -6.2226470460626482   10.7890864030434894    0.0057741270021439
    -0.0087411785511903    0.0055537151845086   19.6308289722587617
  Hf              Ti            
    80    48
Direct
     0.3253052465506915    0.4101955037475785    0.5573198390024946
     0.4163133439149064    0.8307054006993889    0.9388083378569945
     0.5852680148911084    0.6618063572069586    0.8142109800428854
     0.0863090358765122    0.4189070319491243    0.3158437624062532
     0.8320093976709458    0.9134650300698256    0.8126349064188387
     0.5799074032589927    0.9106792851545840    0.3112656952213633
     0.9187402094226110    0.5844924627313277    0.1878755167440863
     0.6647524924376425    0.8346766212184378    0.6868347065472747
     0.1688962931972536    0.0842271271348542    0.9370677043878034
     0.3373299131196411    0.1680929663519292    0.3174487175510426
     0.0815734158136736    0.1718076449008158    0.0624744780734170
     0.0818379206478529    0.1700113759702081    0.3148726844301849
     0.5827576542152144    0.9206145478630172    0.8123878776771830
     0.4187442659776753    0.0848627207725089    0.1850514005774636
     0.8300489847380913    0.4107781720231250    0.3128587794153494
     0.0858086388025067    0.9167115690088076    0.3139981472455595
     0.4168911676353113    0.5902998071041163    0.1890378671767572
     0.9117270893768269    0.8269081325838213    0.9367572358495462
     0.4139501696979600    0.5813347912084710    0.9367757399816157
     0.1627860503737858    0.5857360284537840    0.6843080924207788
     0.0878724280818767    0.4160959451983322    0.8106239536585038
     0.1727171483273628    0.5870220419914233    0.1861759398388151
     0.8292643130652887    0.9208602995972801    0.3156898053515030
     0.9134470323216468    0.8337812512907141    0.1870791885858163
     0.8312879924490199    0.6642364647188030    0.3147205365801425
     0.5877296606627267    0.9190984626559665    0.0628570090591714
     0.6630929526901742    0.3284835587811503    0.4394204006022846
     0.3335260565795263    0.4186358043932534    0.3197214883132182
     0.6668258837706394    0.3317536870491161    0.9344262491889959
     0.9199201142223336    0.0843105205487609    0.6866916682625294
     0.9107492606350783    0.0805399717730214    0.9382933447946976
     0.9226080507138974    0.5790781443120792    0.4392445362627100
     0.9198214022814146    0.3301801823049592    0.1870318734237676
     0.4154839302847787    0.3359679690633570    0.9350216856543555
     0.9222857897780425    0.8323259206980946    0.6865745970847521
     0.0900726458456419    0.6684459761425680    0.3147317368610845
     0.5866190535066399    0.6699760475409764    0.0599142579699299
     0.0910218463391752    0.1719904950275438    0.8097056436667196
     0.3347786869030087    0.6691822892511339    0.8095065189924674
     0.5811753223786427    0.6683233224225252    0.3146800924364812
     0.1667601080141691    0.5815373132529590    0.9389119825963022
     0.9193435244178439    0.3335786067428325    0.9388209383473189
     0.9102890459328905    0.0809557064491874    0.1865903794846462
     0.8302606721987745    0.6630911584511052    0.0603087392622359
     0.4112643533177396    0.3279458369695375    0.6862760399753487
     0.0788956491141709    0.6694835315283656    0.8111833447311373
     0.5784043296419917    0.9201694030543367    0.5625638663736882
     0.8381633613582364    0.9228808092662371    0.5597295608120352
     0.6580787240547635    0.5777016158552001    0.4382985037915297
     0.1702673755465930    0.0857523434196220    0.1872425799988812
     0.6647619193737425    0.5796447922377714    0.1879267029522159
     0.8405082629739660    0.6681537701018708    0.5623490224234416
     0.9191066363472054    0.8363250069663974    0.4390272148194699
     0.5798174597687717    0.4104740723358024    0.0615547843245245
     0.3314768709194496    0.9124873982219275    0.0634875719745648
     0.5789093063009847    0.4079116997298894    0.5639715917004849
     0.4132912194249725    0.5785569216296181    0.6857653441614209
     0.4200464292258178    0.0836154919460224    0.9382258142267372
     0.4160867611643536    0.3328070275697426    0.1898219556734756
     0.8310196060267396    0.4220947990393556    0.8087998852514788
     0.1687430109358325    0.0902389400702365    0.4435284323892361
     0.0854570697309266    0.9180987475656510    0.0623017873833608
     0.3269287543990768    0.4162813058809747    0.0637356667331013
     0.6683481130018576    0.0877370428976573    0.1870679744184676
     0.3387960181543377    0.1673276122798953    0.8093823868052850
     0.9177234369550553    0.3335640993895518    0.6867490657079950
     0.3365147086022936    0.9158260300807413    0.3134608834436917
     0.5812460769869214    0.6668336316002873    0.5610449085197338
     0.6679946459545517    0.0820947358191131    0.4369574958703554
     0.8327950813327069    0.4136788607685354    0.0623615213534265
     0.8255790055254301    0.1665953303924251    0.8115227071579367
     0.0868118821361679    0.9174508246624331    0.8102037702986854
     0.5822492472528096    0.1686655434458278    0.3132240625660592
     0.0825706786444442    0.6667228797355527    0.0603778385593317
     0.3332798635913485    0.9171634478144305    0.8089079278296363
     0.6725419967851167    0.5781543012537084    0.6891262021112617
     0.3284757283459963    0.6716670350174118    0.5602757940628099
     0.8355295890948881    0.4166620349005622    0.5655323063026041
     0.8355779813541461    0.1702256827662316    0.5617752123106825
     0.1742956234211265    0.8345801733790478    0.4436312086047941
     0.6700933566536039    0.5793751435645198    0.9345538557660360
     0.6587044756134793    0.0870664384719156    0.6869941450275857
     0.1670620269486741    0.3362588883605114    0.1885147769089477
     0.9200959569560521    0.3322589029555332    0.4379684000499064
     0.4165382348620945    0.8321813578853975    0.4374363037569042
     0.6569653971723436    0.3213480658826077    0.6886476328493861
     0.4143918002469805    0.8284682706533865    0.1876680022758807
     0.1648062369722504    0.8325436409774419    0.9367943318605536
     0.0823575286944300    0.4157659421196317    0.5604421997592969
     0.1719100975533393    0.8380485267644716    0.6819441665732208
     0.1696325398841720    0.5797463457857471    0.4396360694660905
     0.4192425981726740    0.3295185409864608    0.4396521101020412
     0.3362354426241866    0.6681844098936963    0.0636408507552165
     0.6700998604656684    0.8358382487936262    0.9380171998366102
     0.5831153161604306    0.4165544252952605    0.8114955954606412
     0.8306274881416851    0.6602200572172671    0.8135480167184167
     0.6641972050290090    0.3322243772624822    0.1870022256714952
     0.9197917214350949    0.5898643775576590    0.6870345718253549
     0.4186877566409746    0.0804625941353661    0.4433369382873164
     0.1573002355338996    0.3310638546664978    0.4404687079138385
     0.1686781862285694    0.3330730970026735    0.6843387016935841
     0.8373024593269017    0.1694643832543533    0.3151244768770133
     0.3346875758367021    0.1691441107463456    0.0620497692425522
     0.1667103279991440    0.3346352514449289    0.9368055351154355
     0.6607685491202416    0.8331496175320970    0.4384642083356740
     0.3318358888576485    0.4158348108917495    0.8107885658155471
     0.4181444767793175    0.0817754379003873    0.6836678276462492
     0.8287030798057424    0.1644148142074432    0.0613858339623615
     0.5827104742674925    0.4151852698868029    0.3138671406871155
     0.3342645660606413    0.1600592728095188    0.5631427356476256
     0.5891073283018488    0.1680092831293617    0.0606147305049268
     0.3331756962478145    0.6688654048578433    0.3163826668734411
     0.1709632505962360    0.0808952758134082    0.6823913110985849
     0.5781132776424595    0.1635675547833793    0.5653686916116116
     0.9132314953890633    0.5830689365639775    0.9353034463684093
     0.4129955279628795    0.5908879813877383    0.4380694607089757
     0.0893791289777928    0.9211713974345364    0.5643998982473483
     0.8300870810236086    0.9167394368632616    0.0620786815480661
     0.4144767894764622    0.8395981851294794    0.6843276168055679
     0.5817101099208638    0.1663611354885216    0.8088696488335272
     0.0844544376305627    0.1699738757646116    0.5636938111751151
     0.1672579079575933    0.8322447284111292    0.1872466589766333
     0.3365795871306957    0.9229142229369385    0.5646036297000835
     0.9199680036206068    0.0927615178858122    0.4386503642710285
     0.0855327050737738    0.4136361866510902    0.0630331930386991
     0.6668686958552277    0.0856043227193889    0.9383937669027945
     0.6685087667247519    0.8326251660534465    0.1860179165786840
     0.0824637926401131    0.6660112658186327    0.5641576399443959
 
  0.00000000E+00  0.00000000E+00  0.00000000E+00
  0.00000000E+00  0.00000000E+00  0.00000000E+00
  0.00000000E+00  0.00000000E+00  0.00000000E+00
  0.00000000E+00  0.00000000E+00  0.00000000E+00
  0.00000000E+00  0.00000000E+00  0.00000000E+00
  0.00000000E+00  0.00000000E+00  0.00000000E+00
  0.00000000E+00  0.00000000E+00  0.00000000E+00
  0.00000000E+00  0.00000000E+00  0.00000000E+00
  0.00000000E+00  0.00000000E+00  0.00000000E+00
  0.00000000E+00  0.00000000E+00  0.00000000E+00
  0.00000000E+00  0.00000000E+00  0.00000000E+00
  0.00000000E+00  0.00000000E+00  0.00000000E+00
  0.00000000E+00  0.00000000E+00  0.00000000E+00
  0.00000000E+00  0.00000000E+00  0.00000000E+00
  0.00000000E+00  0.00000000E+00  0.00000000E+00
  0.00000000E+00  0.00000000E+00  0.00000000E+00
  0.00000000E+00  0.00000000E+00  0.00000000E+00
  0.00000000E+00  0.00000000E+00  0.00000000E+00
  0.00000000E+00  0.00000000E+00  0.00000000E+00
  0.00000000E+00  0.00000000E+00  0.00000000E+00
  0.00000000E+00  0.00000000E+00  0.00000000E+00
  0.00000000E+00  0.00000000E+00  0.00000000E+00
  0.00000000E+00  0.00000000E+00  0.00000000E+00
  0.00000000E+00  0.00000000E+00  0.00000000E+00
  0.00000000E+00  0.00000000E+00  0.00000000E+00
  0.00000000E+00  0.00000000E+00  0.00000000E+00
  0.00000000E+00  0.00000000E+00  0.00000000E+00
  0.00000000E+00  0.00000000E+00  0.00000000E+00
  0.00000000E+00  0.00000000E+00  0.00000000E+00
  0.00000000E+00  0.00000000E+00  0.00000000E+00
  0.00000000E+00  0.00000000E+00  0.00000000E+00
  0.00000000E+00  0.00000000E+00  0.00000000E+00
  0.00000000E+00  0.00000000E+00  0.00000000E+00
  0.00000000E+00  0.00000000E+00  0.00000000E+00
  0.00000000E+00  0.00000000E+00  0.00000000E+00
  0.00000000E+00  0.00000000E+00  0.00000000E+00
  0.00000000E+00  0.00000000E+00  0.00000000E+00
  0.00000000E+00  0.00000000E+00  0.00000000E+00
  0.00000000E+00  0.00000000E+00  0.00000000E+00
  0.00000000E+00  0.00000000E+00  0.00000000E+00
  0.00000000E+00  0.00000000E+00  0.00000000E+00
  0.00000000E+00  0.00000000E+00  0.00000000E+00
  0.00000000E+00  0.00000000E+00  0.00000000E+00
  0.00000000E+00  0.00000000E+00  0.00000000E+00
  0.00000000E+00  0.00000000E+00  0.00000000E+00
  0.00000000E+00  0.00000000E+00  0.00000000E+00
  0.00000000E+00  0.00000000E+00  0.00000000E+00
  0.00000000E+00  0.00000000E+00  0.00000000E+00
  0.00000000E+00  0.00000000E+00  0.00000000E+00
  0.00000000E+00  0.00000000E+00  0.00000000E+00
  0.00000000E+00  0.00000000E+00  0.00000000E+00
  0.00000000E+00  0.00000000E+00  0.00000000E+00
  0.00000000E+00  0.00000000E+00  0.00000000E+00
  0.00000000E+00  0.00000000E+00  0.00000000E+00
  0.00000000E+00  0.00000000E+00  0.00000000E+00
  0.00000000E+00  0.00000000E+00  0.00000000E+00
  0.00000000E+00  0.00000000E+00  0.00000000E+00
  0.00000000E+00  0.00000000E+00  0.00000000E+00
  0.00000000E+00  0.00000000E+00  0.00000000E+00
  0.00000000E+00  0.00000000E+00  0.00000000E+00
  0.00000000E+00  0.00000000E+00  0.00000000E+00
  0.00000000E+00  0.00000000E+00  0.00000000E+00
  0.00000000E+00  0.00000000E+00  0.00000000E+00
  0.00000000E+00  0.00000000E+00  0.00000000E+00
  0.00000000E+00  0.00000000E+00  0.00000000E+00
  0.00000000E+00  0.00000000E+00  0.00000000E+00
  0.00000000E+00  0.00000000E+00  0.00000000E+00
  0.00000000E+00  0.00000000E+00  0.00000000E+00
  0.00000000E+00  0.00000000E+00  0.00000000E+00
  0.00000000E+00  0.00000000E+00  0.00000000E+00
  0.00000000E+00  0.00000000E+00  0.00000000E+00
  0.00000000E+00  0.00000000E+00  0.00000000E+00
  0.00000000E+00  0.00000000E+00  0.00000000E+00
  0.00000000E+00  0.00000000E+00  0.00000000E+00
  0.00000000E+00  0.00000000E+00  0.00000000E+00
  0.00000000E+00  0.00000000E+00  0.00000000E+00
  0.00000000E+00  0.00000000E+00  0.00000000E+00
  0.00000000E+00  0.00000000E+00  0.00000000E+00
  0.00000000E+00  0.00000000E+00  0.00000000E+00
  0.00000000E+00  0.00000000E+00  0.00000000E+00
  0.00000000E+00  0.00000000E+00  0.00000000E+00
  0.00000000E+00  0.00000000E+00  0.00000000E+00
  0.00000000E+00  0.00000000E+00  0.00000000E+00
  0.00000000E+00  0.00000000E+00  0.00000000E+00
  0.00000000E+00  0.00000000E+00  0.00000000E+00
  0.00000000E+00  0.00000000E+00  0.00000000E+00
  0.00000000E+00  0.00000000E+00  0.00000000E+00
  0.00000000E+00  0.00000000E+00  0.00000000E+00
  0.00000000E+00  0.00000000E+00  0.00000000E+00
  0.00000000E+00  0.00000000E+00  0.00000000E+00
  0.00000000E+00  0.00000000E+00  0.00000000E+00
  0.00000000E+00  0.00000000E+00  0.00000000E+00
  0.00000000E+00  0.00000000E+00  0.00000000E+00
  0.00000000E+00  0.00000000E+00  0.00000000E+00
  0.00000000E+00  0.00000000E+00  0.00000000E+00
  0.00000000E+00  0.00000000E+00  0.00000000E+00
  0.00000000E+00  0.00000000E+00  0.00000000E+00
  0.00000000E+00  0.00000000E+00  0.00000000E+00
  0.00000000E+00  0.00000000E+00  0.00000000E+00
  0.00000000E+00  0.00000000E+00  0.00000000E+00
  0.00000000E+00  0.00000000E+00  0.00000000E+00
  0.00000000E+00  0.00000000E+00  0.00000000E+00
  0.00000000E+00  0.00000000E+00  0.00000000E+00
  0.00000000E+00  0.00000000E+00  0.00000000E+00
  0.00000000E+00  0.00000000E+00  0.00000000E+00
  0.00000000E+00  0.00000000E+00  0.00000000E+00
  0.00000000E+00  0.00000000E+00  0.00000000E+00
  0.00000000E+00  0.00000000E+00  0.00000000E+00
  0.00000000E+00  0.00000000E+00  0.00000000E+00
  0.00000000E+00  0.00000000E+00  0.00000000E+00
  0.00000000E+00  0.00000000E+00  0.00000000E+00
  0.00000000E+00  0.00000000E+00  0.00000000E+00
  0.00000000E+00  0.00000000E+00  0.00000000E+00
  0.00000000E+00  0.00000000E+00  0.00000000E+00
  0.00000000E+00  0.00000000E+00  0.00000000E+00
  0.00000000E+00  0.00000000E+00  0.00000000E+00
  0.00000000E+00  0.00000000E+00  0.00000000E+00
  0.00000000E+00  0.00000000E+00  0.00000000E+00
  0.00000000E+00  0.00000000E+00  0.00000000E+00
  0.00000000E+00  0.00000000E+00  0.00000000E+00
  0.00000000E+00  0.00000000E+00  0.00000000E+00
  0.00000000E+00  0.00000000E+00  0.00000000E+00
  0.00000000E+00  0.00000000E+00  0.00000000E+00
  0.00000000E+00  0.00000000E+00  0.00000000E+00
  0.00000000E+00  0.00000000E+00  0.00000000E+00
  0.00000000E+00  0.00000000E+00  0.00000000E+00
  0.00000000E+00  0.00000000E+00  0.00000000E+00
  0.00000000E+00  0.00000000E+00  0.00000000E+00
