Hf Ta                                   
    1.000000000000000     
    12.7436902813080959   -0.0388306734257439    0.0036426292095101
    -6.4054886499638188   11.0622169476197971   -0.0017728795904811
     0.0057789973794449    0.0000683889478989   20.1780727797156203
  Hf             Ta           
             120               8
Direct
  0.9146797663267487  0.0786263852162401  0.4379028401135034
  0.3347050389656192  0.6670708324669815  0.5629578803288033
  0.8389062294675708  0.6687288079048717  0.8126998251172114
  0.9165454396015696  0.8327006553154974  0.1872059510968019
  0.4161769865495114  0.8331083965608278  0.6875760048985761
  0.4135565356608679  0.0836702977186906  0.6891004277102079
  0.0829557757464073  0.6701717872058739  0.8132689975272930
  0.6702350894797698  0.3322248223986165  0.1875089563989476
  0.4067358383591159  0.0804725488745294  0.9351672160085526
  0.3329915830127997  0.1661095361966162  0.5622464245938190
  0.6644205836018664  0.0845107244951724  0.6882957637955001
  0.8345476305881760  0.1717845217712410  0.3117023499651071
  0.1653566405884875  0.0834877660740349  0.1878077942523995
  0.1619147535036009  0.8310268250196198  0.4376862877316932
  0.4160141935339435  0.0834845117473889  0.1878477372702985
  0.3367262185378644  0.6676424726723290  0.0624788156252241
  0.3337705248698782  0.9171931954155110  0.5624815462736897
  0.4155183502178655  0.3315726950912956  0.9369747749531099
  0.3339769696042740  0.1668664238004703  0.3127858040462880
  0.4185675887806966  0.8353110972642275  0.1862568136708845
  0.3333194534013172  0.9161048357715811  0.3130177302132875
  0.5833326224620108  0.4155832917885798  0.8129758494925704
  0.8315726693527405  0.1629541326088940  0.5621732535239248
  0.4168827942858628  0.3336689119586969  0.1883027948243899
  0.4170639478152192  0.3340153991737933  0.4369116128094730
  0.0861201725504334  0.6696922411755063  0.0620811440976460
  0.9235350320797007  0.8358615999156552  0.9355536408057030
  0.0821472914072541  0.1652099270056528  0.5628261094016112
  0.4173596966980195  0.5843716342263260  0.4377072238743691
  0.0792043526810345  0.4157631271556388  0.3115780320900698
  0.1663127999426322  0.8326507855111139  0.1879775947057398
  0.6646639764023636  0.8357704539465756  0.1861422496019538
  0.8325869962396486  0.9174389210872637  0.0622339238767073
  0.8362894597709832  0.6725656848547350  0.5620302202382312
  0.6656937982750430  0.0830610893223178  0.4371577575651652
  0.0802866326509975  0.9142854442883662  0.3132251923505984
  0.3336564690054321  0.4174070746939872  0.3125471883636720
  0.5789713176203214  0.1606120586356194  0.0613376675967588
  0.6672377818769428  0.5844705284882522  0.1869638907778945
  0.0802915068095623  0.4147263962222104  0.0631193873146951
  0.8334676957808934  0.6675492980373362  0.0620647981643721
  0.5833171002871445  0.9170333381556899  0.8125417559378756
  0.0855426469442992  0.9154952827408189  0.0611987446615596
  0.5872742860224587  0.9178964077042158  0.5628015147737588
  0.6705722703377449  0.8353023770473393  0.6873511467713987
  0.9129841712491827  0.0807755547511631  0.6863156626387189
  0.3325539743783422  0.4139028466294007  0.8123592143328979
  0.1657969564884541  0.3333603379447547  0.6877191357943063
  0.9202865928659131  0.8367798697457655  0.6885892347053816
  0.8335498593721820  0.1664775761700711  0.8126445357785580
  0.1671902525673575  0.5837973687591212  0.4377019272582788
  0.5832164409375883  0.6688169647204261  0.0621623339807639
  0.5843533519383494  0.4176384783139258  0.0627237617293601
  0.8325951265583404  0.4161034702453690  0.8127192148381083
  0.6676379110186511  0.5867278747110649  0.4375986202963268
  0.4176478864704529  0.5837428977181127  0.6877497526144254
  0.9155187354418269  0.3324581910416062  0.9378330156035596
  0.1637540111621283  0.8324095986141251  0.6880732643600448
  0.5836390893866638  0.9172869206307624  0.3124001605691962
  0.8322369328145574  0.4162774680278234  0.5619074738049384
  0.3341046973443841  0.4165943182511082  0.5624348939883895
  0.3352055675068337  0.1685488583379446  0.0629281504554534
  0.8335431330810980  0.4138184255174572  0.0636334177434331
  0.4159087026759761  0.8328690694155112  0.4378658211929657
  0.6652755447307874  0.0818415087159707  0.1862377982594269
  0.9182369321948367  0.0876649032624455  0.1876532802951663
  0.6653490950725554  0.3322885194141510  0.6877066519099578
  0.8348731916187158  0.6674586375433761  0.3131376890859573
  0.6673728096621415  0.5831927925368751  0.6881699646164585
  0.6692513382194217  0.3359102702192003  0.4363874874381918
  0.0820384113998540  0.6628998199841077  0.3123289606300028
  0.5884819152245195  0.4188726240560901  0.3120608612044864
  0.0834926176173209  0.6651352435438316  0.5626574786274067
  0.3317360393062392  0.9159261670509794  0.0613333035314012
  0.8389932991016906  0.9199633323741294  0.8127142537984203
  0.1681939989595831  0.0822811811358027  0.9364240468303286
  0.9156478445120486  0.5830151890211998  0.4367643734142241
  0.1682355109877095  0.0836478180187605  0.6892324737721484
  0.5855097134151959  0.1683027472254820  0.3124458119811248
  0.4151468030282092  0.0827527874804892  0.4372987821555505
  0.6708496674834367  0.8345172388595519  0.4378757688817796
  0.1656503935642128  0.3325498902758027  0.4375143311116011
  0.3338917799429331  0.4175296119089593  0.0626613644056264
  0.6625311958994847  0.0793197128266665  0.9381959058613895
  0.0840412538267033  0.1673900881275264  0.3129208644469423
  0.8340511348803085  0.9159922088608853  0.3124905998989579
  0.9148808502945525  0.5810839946110586  0.6868600651351651
  0.9159503381730409  0.0838820878187433  0.9379371653598306
  0.0836543294208940  0.4156881059424736  0.5626462261245865
  0.5800115105960445  0.1666358999942725  0.8135132753808875
  0.9162707092246585  0.5824533367453315  0.9384206871603988
  0.9162491992096571  0.3324932638676303  0.6871842831933823
  0.6656267177803229  0.8341620108599168  0.9376334813619206
  0.0776370844637595  0.9154086976495138  0.5618892334357882
  0.5827623237367744  0.1662167783962673  0.5622946195069943
  0.6648595039991716  0.3319288025764700  0.9382301308509020
  0.5849225897325749  0.4181821603428686  0.5621766571546993
  0.0833110729655038  0.4168063138545540  0.8130620159142598
  0.9139167814747644  0.5777921080903544  0.1882713463645463
  0.5862596277835218  0.6685784265926658  0.5630356118802257
  0.1675893938002380  0.5867305665068282  0.9375545794991752
  0.0840334428693492  0.1642385449234132  0.8125720976232228
  0.4162377604999417  0.5824437740803958  0.9367467138508693
  0.8328128675634856  0.1665601210881646  0.0632806639289549
  0.4149264571006531  0.5818815307562848  0.1875693383372133
  0.3343170562652940  0.6665014373509985  0.8124904720337315
  0.1631794813628519  0.3317527038181789  0.1873383380725985
  0.5832560404380903  0.6662296482408795  0.3120094315592383
  0.3288011020374662  0.9138776922182963  0.8137517987418063
  0.6682350885848459  0.5849019607925657  0.9371242483980762
  0.4174123774125181  0.8337355014656311  0.9386586634775977
  0.1661489123997627  0.3341477137778252  0.9375728659777910
  0.5860126181083450  0.6671819554123285  0.8123304387861533
  0.1665053993453885  0.5830465252432071  0.6881684412528974
  0.3328184079024303  0.6663147044512960  0.3120572240123418
  0.0833290225624919  0.1657764100498288  0.0618979798500367
  0.9157287320989377  0.3341729637362666  0.4369448926707623
  0.1644989857828331  0.5816586298774707  0.1866477725699735
  0.4159385730788564  0.3317336622146849  0.6877651599301928
  0.1640417484830288  0.0821385834327248  0.4374226458466320
  0.8377281753380548  0.9116431676267216  0.5610361854493717
  0.8364100324719159  0.4133712397588730  0.3115915709797943
  0.5857399684103433  0.9167810603041093  0.0619129052076420
  0.1072895375051136  0.9306678832937448  0.8145618250602669
  0.9126024829953673  0.8375102352353683  0.4381408737464033
  0.9125935899065744  0.3367413355648857  0.1889872625363182
  0.1573150632048255  0.8256974060176108  0.9374168749164843
  0.3326075000129861  0.1691589767054461  0.8119496578078619
 
  0.00000000E+00  0.00000000E+00  0.00000000E+00
  0.00000000E+00  0.00000000E+00  0.00000000E+00
  0.00000000E+00  0.00000000E+00  0.00000000E+00
  0.00000000E+00  0.00000000E+00  0.00000000E+00
  0.00000000E+00  0.00000000E+00  0.00000000E+00
  0.00000000E+00  0.00000000E+00  0.00000000E+00
  0.00000000E+00  0.00000000E+00  0.00000000E+00
  0.00000000E+00  0.00000000E+00  0.00000000E+00
  0.00000000E+00  0.00000000E+00  0.00000000E+00
  0.00000000E+00  0.00000000E+00  0.00000000E+00
  0.00000000E+00  0.00000000E+00  0.00000000E+00
  0.00000000E+00  0.00000000E+00  0.00000000E+00
  0.00000000E+00  0.00000000E+00  0.00000000E+00
  0.00000000E+00  0.00000000E+00  0.00000000E+00
  0.00000000E+00  0.00000000E+00  0.00000000E+00
  0.00000000E+00  0.00000000E+00  0.00000000E+00
  0.00000000E+00  0.00000000E+00  0.00000000E+00
  0.00000000E+00  0.00000000E+00  0.00000000E+00
  0.00000000E+00  0.00000000E+00  0.00000000E+00
  0.00000000E+00  0.00000000E+00  0.00000000E+00
  0.00000000E+00  0.00000000E+00  0.00000000E+00
  0.00000000E+00  0.00000000E+00  0.00000000E+00
  0.00000000E+00  0.00000000E+00  0.00000000E+00
  0.00000000E+00  0.00000000E+00  0.00000000E+00
  0.00000000E+00  0.00000000E+00  0.00000000E+00
  0.00000000E+00  0.00000000E+00  0.00000000E+00
  0.00000000E+00  0.00000000E+00  0.00000000E+00
  0.00000000E+00  0.00000000E+00  0.00000000E+00
  0.00000000E+00  0.00000000E+00  0.00000000E+00
  0.00000000E+00  0.00000000E+00  0.00000000E+00
  0.00000000E+00  0.00000000E+00  0.00000000E+00
  0.00000000E+00  0.00000000E+00  0.00000000E+00
  0.00000000E+00  0.00000000E+00  0.00000000E+00
  0.00000000E+00  0.00000000E+00  0.00000000E+00
  0.00000000E+00  0.00000000E+00  0.00000000E+00
  0.00000000E+00  0.00000000E+00  0.00000000E+00
  0.00000000E+00  0.00000000E+00  0.00000000E+00
  0.00000000E+00  0.00000000E+00  0.00000000E+00
  0.00000000E+00  0.00000000E+00  0.00000000E+00
  0.00000000E+00  0.00000000E+00  0.00000000E+00
  0.00000000E+00  0.00000000E+00  0.00000000E+00
  0.00000000E+00  0.00000000E+00  0.00000000E+00
  0.00000000E+00  0.00000000E+00  0.00000000E+00
  0.00000000E+00  0.00000000E+00  0.00000000E+00
  0.00000000E+00  0.00000000E+00  0.00000000E+00
  0.00000000E+00  0.00000000E+00  0.00000000E+00
  0.00000000E+00  0.00000000E+00  0.00000000E+00
  0.00000000E+00  0.00000000E+00  0.00000000E+00
  0.00000000E+00  0.00000000E+00  0.00000000E+00
  0.00000000E+00  0.00000000E+00  0.00000000E+00
  0.00000000E+00  0.00000000E+00  0.00000000E+00
  0.00000000E+00  0.00000000E+00  0.00000000E+00
  0.00000000E+00  0.00000000E+00  0.00000000E+00
  0.00000000E+00  0.00000000E+00  0.00000000E+00
  0.00000000E+00  0.00000000E+00  0.00000000E+00
  0.00000000E+00  0.00000000E+00  0.00000000E+00
  0.00000000E+00  0.00000000E+00  0.00000000E+00
  0.00000000E+00  0.00000000E+00  0.00000000E+00
  0.00000000E+00  0.00000000E+00  0.00000000E+00
  0.00000000E+00  0.00000000E+00  0.00000000E+00
  0.00000000E+00  0.00000000E+00  0.00000000E+00
  0.00000000E+00  0.00000000E+00  0.00000000E+00
  0.00000000E+00  0.00000000E+00  0.00000000E+00
  0.00000000E+00  0.00000000E+00  0.00000000E+00
  0.00000000E+00  0.00000000E+00  0.00000000E+00
  0.00000000E+00  0.00000000E+00  0.00000000E+00
  0.00000000E+00  0.00000000E+00  0.00000000E+00
  0.00000000E+00  0.00000000E+00  0.00000000E+00
  0.00000000E+00  0.00000000E+00  0.00000000E+00
  0.00000000E+00  0.00000000E+00  0.00000000E+00
  0.00000000E+00  0.00000000E+00  0.00000000E+00
  0.00000000E+00  0.00000000E+00  0.00000000E+00
  0.00000000E+00  0.00000000E+00  0.00000000E+00
  0.00000000E+00  0.00000000E+00  0.00000000E+00
  0.00000000E+00  0.00000000E+00  0.00000000E+00
  0.00000000E+00  0.00000000E+00  0.00000000E+00
  0.00000000E+00  0.00000000E+00  0.00000000E+00
  0.00000000E+00  0.00000000E+00  0.00000000E+00
  0.00000000E+00  0.00000000E+00  0.00000000E+00
  0.00000000E+00  0.00000000E+00  0.00000000E+00
  0.00000000E+00  0.00000000E+00  0.00000000E+00
  0.00000000E+00  0.00000000E+00  0.00000000E+00
  0.00000000E+00  0.00000000E+00  0.00000000E+00
  0.00000000E+00  0.00000000E+00  0.00000000E+00
  0.00000000E+00  0.00000000E+00  0.00000000E+00
  0.00000000E+00  0.00000000E+00  0.00000000E+00
  0.00000000E+00  0.00000000E+00  0.00000000E+00
  0.00000000E+00  0.00000000E+00  0.00000000E+00
  0.00000000E+00  0.00000000E+00  0.00000000E+00
  0.00000000E+00  0.00000000E+00  0.00000000E+00
  0.00000000E+00  0.00000000E+00  0.00000000E+00
  0.00000000E+00  0.00000000E+00  0.00000000E+00
  0.00000000E+00  0.00000000E+00  0.00000000E+00
  0.00000000E+00  0.00000000E+00  0.00000000E+00
  0.00000000E+00  0.00000000E+00  0.00000000E+00
  0.00000000E+00  0.00000000E+00  0.00000000E+00
  0.00000000E+00  0.00000000E+00  0.00000000E+00
  0.00000000E+00  0.00000000E+00  0.00000000E+00
  0.00000000E+00  0.00000000E+00  0.00000000E+00
  0.00000000E+00  0.00000000E+00  0.00000000E+00
  0.00000000E+00  0.00000000E+00  0.00000000E+00
  0.00000000E+00  0.00000000E+00  0.00000000E+00
  0.00000000E+00  0.00000000E+00  0.00000000E+00
  0.00000000E+00  0.00000000E+00  0.00000000E+00
  0.00000000E+00  0.00000000E+00  0.00000000E+00
  0.00000000E+00  0.00000000E+00  0.00000000E+00
  0.00000000E+00  0.00000000E+00  0.00000000E+00
  0.00000000E+00  0.00000000E+00  0.00000000E+00
  0.00000000E+00  0.00000000E+00  0.00000000E+00
  0.00000000E+00  0.00000000E+00  0.00000000E+00
  0.00000000E+00  0.00000000E+00  0.00000000E+00
  0.00000000E+00  0.00000000E+00  0.00000000E+00
  0.00000000E+00  0.00000000E+00  0.00000000E+00
  0.00000000E+00  0.00000000E+00  0.00000000E+00
  0.00000000E+00  0.00000000E+00  0.00000000E+00
  0.00000000E+00  0.00000000E+00  0.00000000E+00
  0.00000000E+00  0.00000000E+00  0.00000000E+00
  0.00000000E+00  0.00000000E+00  0.00000000E+00
  0.00000000E+00  0.00000000E+00  0.00000000E+00
  0.00000000E+00  0.00000000E+00  0.00000000E+00
  0.00000000E+00  0.00000000E+00  0.00000000E+00
  0.00000000E+00  0.00000000E+00  0.00000000E+00
  0.00000000E+00  0.00000000E+00  0.00000000E+00
  0.00000000E+00  0.00000000E+00  0.00000000E+00
  0.00000000E+00  0.00000000E+00  0.00000000E+00
  0.00000000E+00  0.00000000E+00  0.00000000E+00
  0.00000000E+00  0.00000000E+00  0.00000000E+00
  0.00000000E+00  0.00000000E+00  0.00000000E+00
