Hf Ti                                   
    1.000000000000000     
    12.6144851244891250   -0.0031851764005743    0.0006724098606061
    -6.3099948511361159   10.9097110765102894    0.0041075255384586
     0.0010433050420684    0.0081577670773164   19.8899271458695601
  Hf              Ti            
   100    28
Direct
     0.1637865878635203    0.8312306284091653    0.4416268213818178
     0.6653400628510241    0.3343835659707218    0.6878862511298228
     0.8268319885300220    0.1668574107513963    0.3110186505376741
     0.4189092469703675    0.0853142005510881    0.4371278299263370
     0.1689167566518764    0.5848636920362450    0.1873084002323777
     0.3361126997816396    0.1654589310925459    0.8134420640210838
     0.8325351900157552    0.4127818615665672    0.8110581274118013
     0.0848242713894111    0.4145291131174325    0.0641032681479597
     0.8303618734437052    0.6636617216269105    0.0633473863871530
     0.1677091520525295    0.3341974360128255    0.6849976442819442
     0.9147946382129629    0.8317929034013276    0.1893491142478710
     0.8288486009204087    0.9076063046712211    0.3161406282162516
     0.5817107404078559    0.1643527428177537    0.5621984356704655
     0.1663738068533186    0.8313946888894304    0.1897432849989517
     0.8279508168639822    0.9140996602915443    0.8101738314233426
     0.6621864042896803    0.3341336082926082    0.9376094333299543
     0.9122876405808730    0.0830839905761532    0.6871706143018340
     0.3369894268749280    0.1712197097057685    0.3144570554582737
     0.4204442928863719    0.5804367251018094    0.4371362364168966
     0.0819590280300904    0.4149059018880829    0.8115800606980872
     0.0827098791715277    0.1698741650212312    0.0648256467964719
     0.6676031783881959    0.0816639055414252    0.9383689098397606
     0.9155158508018207    0.8357934915680938    0.6841557203093636
     0.1712755568278289    0.8379642006985054    0.9361720600970926
     0.6657127599401277    0.5841735112769623    0.6883637642406092
     0.0814555294080517    0.1618827730450534    0.5615835041579802
     0.1677924183894317    0.0838857467376927    0.1889301107486524
     0.9134314478892221    0.0787627070201330    0.4374774692064174
     0.4173969748350779    0.8353889750208665    0.9366791469879858
     0.4191063990679094    0.5884419138179222    0.6871693227566744
     0.9171825196092450    0.3339122633474415    0.4357152976428885
     0.0774526520185398    0.9082190254878544    0.3152934178548725
     0.6660330698581309    0.5833201353324559    0.1895746096182803
     0.6718666347592881    0.0875352350375865    0.6900673834752722
     0.3362346644718107    0.9174382149673863    0.0617699231656449
     0.1672834173320308    0.0837265821230589    0.9380665471718770
     0.4155330771342173    0.3344211348080079    0.1886977615282602
     0.9176582289483948    0.5864178226773596    0.4339828847405381
     0.6666189903042914    0.3315204864247027    0.1905593016856126
     0.3374586842668616    0.4208766981637100    0.8111344852776007
     0.5811800392668193    0.4184603723010888    0.5595428178046337
     0.4169172322104719    0.5872942567358621    0.9357571645140561
     0.3319557523900275    0.9138049579227209    0.3147217024971760
     0.9136306483750246    0.0848241719376115    0.1883456010379289
     0.1672568562185194    0.8337109249354635    0.6821692278665914
     0.0847707039883957    0.9163070011136559    0.8106481346828134
     0.4191927385305553    0.8333607283839132    0.4399427987627824
     0.9176904555761464    0.5830801815252109    0.9369837471468405
     0.4133712533082337    0.5807389919784756    0.1902619208676544
     0.5821984149159445    0.9115964290019284    0.8108046472965610
     0.1658898919606141    0.0819934359798854    0.6860757483513942
     0.4143882887418680    0.8332733236565558    0.6878066348532559
     0.9168141508100238    0.5820451791090826    0.1921255990716817
     0.8357714971857485    0.4179956642903444    0.5619305591713722
     0.4179988661463095    0.3350286041979567    0.6862264752892974
     0.6642219591901359    0.8313185316276694    0.9370875457123778
     0.3296744622578761    0.6663028359774744    0.5623876526675411
     0.3342235136746634    0.6666663680128517    0.3129784536963136
     0.0849157083593973    0.6667453604059935    0.0631551867182923
     0.6650779665609228    0.8346756687314617    0.1887439247235769
     0.0823410652235784    0.4175462680249126    0.5626692221214442
     0.8307357606808574    0.9185007563902916    0.0630555965183277
     0.9147679408185300    0.0851172678133949    0.9372775669807412
     0.1707933403833149    0.5849341324880682    0.9379754019157626
     0.6625319766815887    0.5806775829807411    0.9365244822584513
     0.0842914619598740    0.1693985171347150    0.3120586422515876
     0.5886381556508961    0.9167995464655871    0.5639603517866054
     0.5829754380752542    0.9166856640902195    0.3126073772456701
     0.5841969319547190    0.1643166718538287    0.0632027205372329
     0.3326045254908297    0.4182769528748449    0.0638729432650410
     0.3305108192920255    0.1649007147334297    0.5607516171098879
     0.9130403344710586    0.3295797336084992    0.1871052369801580
     0.1631588340956684    0.0796034472175963    0.4371792931242890
     0.5887686202968492    0.6725631297487192    0.5621074959349581
     0.5792538483207137    0.1631593655558609    0.8141871506811199
     0.8402601272291332    0.6720008252466595    0.5605238801986540
     0.1678604155449931    0.3331171073491010    0.9372312132150994
     0.4204845116643181    0.0834632768800703    0.1895130004754725
     0.5788918757380854    0.6662817898990565    0.0637744607849213
     0.1655263330051702    0.5831651740388119    0.6873732698370285
     0.9135045480792396    0.3293565676324390    0.9381458779811694
     0.8307865684340274    0.4154173615698991    0.0635286806471331
     0.4213206394044486    0.3346247209930733    0.9374161406466521
     0.3381826424070961    0.1673846965306234    0.0619818495028584
     0.9163310031897968    0.8333644469123617    0.9369105446297950
     0.6663201673385480    0.0822058215361160    0.4366000500338975
     0.6664956076461572    0.3323981570866153    0.4345957567380583
     0.0828352543071567    0.1666603394273830    0.8116389685178560
     0.0831166504859063    0.9166496058114051    0.0632865497771793
     0.0842756247973059    0.4184694660411587    0.3109848536720480
     0.1730384657751565    0.3354668736036182    0.4372893657845738
     0.5820470696520029    0.4198565574790714    0.3143420117639883
     0.9204487053143736    0.5837859934148873    0.6862316951274744
     0.6722130390125335    0.5932729686369360    0.4351432324753157
     0.8346108394863869    0.1682833716737736    0.5631048780503305
     0.4150283983000879    0.0787961126164032    0.6873843632401100
     0.1649783322887076    0.5850464694966859    0.4370580009768563
     0.4199892644398960    0.8342932166242907    0.1851872523032281
     0.0898457963076946    0.6702906571263142    0.8117817341391232
     0.8306628852218234    0.6644619383471232    0.8116055966038701
     0.5858801768482899    0.1654424777812476    0.3119220309989038
     0.0835874079662568    0.6668417218947743    0.5613085187223229
     0.8337072769487495    0.4180404622932018    0.3129903035136486
     0.5824156203928189    0.4182650447239409    0.8121083411468270
     0.6658956456085693    0.0822344513158744    0.1856419144404776
     0.3371146341393672    0.6685842377971895    0.0620564066964542
     0.9158484956174477    0.3303856222359497    0.6883724552343532
     0.5860746787821022    0.9187940300118767    0.0630865197376060
     0.8275786987692246    0.1617001358870273    0.0634122674001679
     0.3355454759603582    0.4163281679310573    0.5611421299656325
     0.9152842997194327    0.8336456916241086    0.4395279726599676
     0.3340597509644223    0.6680621031690070    0.8125474840877699
     0.5830551207729310    0.4166339436025860    0.0634998541404408
     0.0827933998589302    0.6651721705455036    0.3135296692782578
     0.5821463396853198    0.6683526062607874    0.8107169090571404
     0.5837315742599091    0.6679216625841721    0.3134084960162049
     0.8327613061725139    0.6667561821457803    0.3132509955416204
     0.4136480099981870    0.3362710401567098    0.4376011666282759
     0.1692381894873411    0.3345921953675476    0.1900302398513482
     0.3351273605993861    0.4160872327759761    0.3138634874668855
     0.6672021337615056    0.8316974938565390    0.4383648983604421
     0.3339584022460308    0.9167532923366400    0.8118439684886204
     0.6686318296929239    0.8321285728036382    0.6864070182178104
     0.3332883134307485    0.9174457893131458    0.5619417048378496
     0.8343871364721143    0.1690553479111232    0.8125403919635986
     0.4158872377144177    0.0795945335826430    0.9368232718699039
     0.0801032143474084    0.9175876882925657    0.5606848981361339
     0.8320497407576051    0.9147069101317030    0.5604504114534778
 
  0.00000000E+00  0.00000000E+00  0.00000000E+00
  0.00000000E+00  0.00000000E+00  0.00000000E+00
  0.00000000E+00  0.00000000E+00  0.00000000E+00
  0.00000000E+00  0.00000000E+00  0.00000000E+00
  0.00000000E+00  0.00000000E+00  0.00000000E+00
  0.00000000E+00  0.00000000E+00  0.00000000E+00
  0.00000000E+00  0.00000000E+00  0.00000000E+00
  0.00000000E+00  0.00000000E+00  0.00000000E+00
  0.00000000E+00  0.00000000E+00  0.00000000E+00
  0.00000000E+00  0.00000000E+00  0.00000000E+00
  0.00000000E+00  0.00000000E+00  0.00000000E+00
  0.00000000E+00  0.00000000E+00  0.00000000E+00
  0.00000000E+00  0.00000000E+00  0.00000000E+00
  0.00000000E+00  0.00000000E+00  0.00000000E+00
  0.00000000E+00  0.00000000E+00  0.00000000E+00
  0.00000000E+00  0.00000000E+00  0.00000000E+00
  0.00000000E+00  0.00000000E+00  0.00000000E+00
  0.00000000E+00  0.00000000E+00  0.00000000E+00
  0.00000000E+00  0.00000000E+00  0.00000000E+00
  0.00000000E+00  0.00000000E+00  0.00000000E+00
  0.00000000E+00  0.00000000E+00  0.00000000E+00
  0.00000000E+00  0.00000000E+00  0.00000000E+00
  0.00000000E+00  0.00000000E+00  0.00000000E+00
  0.00000000E+00  0.00000000E+00  0.00000000E+00
  0.00000000E+00  0.00000000E+00  0.00000000E+00
  0.00000000E+00  0.00000000E+00  0.00000000E+00
  0.00000000E+00  0.00000000E+00  0.00000000E+00
  0.00000000E+00  0.00000000E+00  0.00000000E+00
  0.00000000E+00  0.00000000E+00  0.00000000E+00
  0.00000000E+00  0.00000000E+00  0.00000000E+00
  0.00000000E+00  0.00000000E+00  0.00000000E+00
  0.00000000E+00  0.00000000E+00  0.00000000E+00
  0.00000000E+00  0.00000000E+00  0.00000000E+00
  0.00000000E+00  0.00000000E+00  0.00000000E+00
  0.00000000E+00  0.00000000E+00  0.00000000E+00
  0.00000000E+00  0.00000000E+00  0.00000000E+00
  0.00000000E+00  0.00000000E+00  0.00000000E+00
  0.00000000E+00  0.00000000E+00  0.00000000E+00
  0.00000000E+00  0.00000000E+00  0.00000000E+00
  0.00000000E+00  0.00000000E+00  0.00000000E+00
  0.00000000E+00  0.00000000E+00  0.00000000E+00
  0.00000000E+00  0.00000000E+00  0.00000000E+00
  0.00000000E+00  0.00000000E+00  0.00000000E+00
  0.00000000E+00  0.00000000E+00  0.00000000E+00
  0.00000000E+00  0.00000000E+00  0.00000000E+00
  0.00000000E+00  0.00000000E+00  0.00000000E+00
  0.00000000E+00  0.00000000E+00  0.00000000E+00
  0.00000000E+00  0.00000000E+00  0.00000000E+00
  0.00000000E+00  0.00000000E+00  0.00000000E+00
  0.00000000E+00  0.00000000E+00  0.00000000E+00
  0.00000000E+00  0.00000000E+00  0.00000000E+00
  0.00000000E+00  0.00000000E+00  0.00000000E+00
  0.00000000E+00  0.00000000E+00  0.00000000E+00
  0.00000000E+00  0.00000000E+00  0.00000000E+00
  0.00000000E+00  0.00000000E+00  0.00000000E+00
  0.00000000E+00  0.00000000E+00  0.00000000E+00
  0.00000000E+00  0.00000000E+00  0.00000000E+00
  0.00000000E+00  0.00000000E+00  0.00000000E+00
  0.00000000E+00  0.00000000E+00  0.00000000E+00
  0.00000000E+00  0.00000000E+00  0.00000000E+00
  0.00000000E+00  0.00000000E+00  0.00000000E+00
  0.00000000E+00  0.00000000E+00  0.00000000E+00
  0.00000000E+00  0.00000000E+00  0.00000000E+00
  0.00000000E+00  0.00000000E+00  0.00000000E+00
  0.00000000E+00  0.00000000E+00  0.00000000E+00
  0.00000000E+00  0.00000000E+00  0.00000000E+00
  0.00000000E+00  0.00000000E+00  0.00000000E+00
  0.00000000E+00  0.00000000E+00  0.00000000E+00
  0.00000000E+00  0.00000000E+00  0.00000000E+00
  0.00000000E+00  0.00000000E+00  0.00000000E+00
  0.00000000E+00  0.00000000E+00  0.00000000E+00
  0.00000000E+00  0.00000000E+00  0.00000000E+00
  0.00000000E+00  0.00000000E+00  0.00000000E+00
  0.00000000E+00  0.00000000E+00  0.00000000E+00
  0.00000000E+00  0.00000000E+00  0.00000000E+00
  0.00000000E+00  0.00000000E+00  0.00000000E+00
  0.00000000E+00  0.00000000E+00  0.00000000E+00
  0.00000000E+00  0.00000000E+00  0.00000000E+00
  0.00000000E+00  0.00000000E+00  0.00000000E+00
  0.00000000E+00  0.00000000E+00  0.00000000E+00
  0.00000000E+00  0.00000000E+00  0.00000000E+00
  0.00000000E+00  0.00000000E+00  0.00000000E+00
  0.00000000E+00  0.00000000E+00  0.00000000E+00
  0.00000000E+00  0.00000000E+00  0.00000000E+00
  0.00000000E+00  0.00000000E+00  0.00000000E+00
  0.00000000E+00  0.00000000E+00  0.00000000E+00
  0.00000000E+00  0.00000000E+00  0.00000000E+00
  0.00000000E+00  0.00000000E+00  0.00000000E+00
  0.00000000E+00  0.00000000E+00  0.00000000E+00
  0.00000000E+00  0.00000000E+00  0.00000000E+00
  0.00000000E+00  0.00000000E+00  0.00000000E+00
  0.00000000E+00  0.00000000E+00  0.00000000E+00
  0.00000000E+00  0.00000000E+00  0.00000000E+00
  0.00000000E+00  0.00000000E+00  0.00000000E+00
  0.00000000E+00  0.00000000E+00  0.00000000E+00
  0.00000000E+00  0.00000000E+00  0.00000000E+00
  0.00000000E+00  0.00000000E+00  0.00000000E+00
  0.00000000E+00  0.00000000E+00  0.00000000E+00
  0.00000000E+00  0.00000000E+00  0.00000000E+00
  0.00000000E+00  0.00000000E+00  0.00000000E+00
  0.00000000E+00  0.00000000E+00  0.00000000E+00
  0.00000000E+00  0.00000000E+00  0.00000000E+00
  0.00000000E+00  0.00000000E+00  0.00000000E+00
  0.00000000E+00  0.00000000E+00  0.00000000E+00
  0.00000000E+00  0.00000000E+00  0.00000000E+00
  0.00000000E+00  0.00000000E+00  0.00000000E+00
  0.00000000E+00  0.00000000E+00  0.00000000E+00
  0.00000000E+00  0.00000000E+00  0.00000000E+00
  0.00000000E+00  0.00000000E+00  0.00000000E+00
  0.00000000E+00  0.00000000E+00  0.00000000E+00
  0.00000000E+00  0.00000000E+00  0.00000000E+00
  0.00000000E+00  0.00000000E+00  0.00000000E+00
  0.00000000E+00  0.00000000E+00  0.00000000E+00
  0.00000000E+00  0.00000000E+00  0.00000000E+00
  0.00000000E+00  0.00000000E+00  0.00000000E+00
  0.00000000E+00  0.00000000E+00  0.00000000E+00
  0.00000000E+00  0.00000000E+00  0.00000000E+00
  0.00000000E+00  0.00000000E+00  0.00000000E+00
  0.00000000E+00  0.00000000E+00  0.00000000E+00
  0.00000000E+00  0.00000000E+00  0.00000000E+00
  0.00000000E+00  0.00000000E+00  0.00000000E+00
  0.00000000E+00  0.00000000E+00  0.00000000E+00
  0.00000000E+00  0.00000000E+00  0.00000000E+00
  0.00000000E+00  0.00000000E+00  0.00000000E+00
  0.00000000E+00  0.00000000E+00  0.00000000E+00
  0.00000000E+00  0.00000000E+00  0.00000000E+00
  0.00000000E+00  0.00000000E+00  0.00000000E+00
  0.00000000E+00  0.00000000E+00  0.00000000E+00
