Hf Ti                                   
    1.000000000000000     
    12.2393165031844635   -0.0203255828337116    0.0038083940817339
    -6.1372642235898471   10.6385083338884616   -0.0035050895623111
     0.0060116408244823   -0.0029228230957239   19.3109432911798251
  Hf              Ti            
    56    72
Direct
     0.9157037564962527    0.3304731171216845    0.1860250923254798
     0.8369954269429017    0.6763800778286322    0.5623266497962442
     0.5868199195735593    0.6724822035999254    0.0639790924701175
     0.6728301969231082    0.0804385299891921    0.9391079941668780
     0.1713139480710871    0.8400944657088617    0.4433228949782003
     0.0855329213037361    0.4198596646322595    0.3160423145422011
     0.4181253795294375    0.8322437172090886    0.9353510920278132
     0.3362844523880225    0.4154476581529832    0.0629302288064363
     0.5856449015620812    0.4230641630915345    0.5597875775745312
     0.6717172374072432    0.3358062913505958    0.6865368322633001
     0.3419650170465817    0.4155189060277482    0.3160499903584460
     0.4105063559371914    0.0834067525324038    0.1937262133181362
     0.0829756935119830    0.9185592646114893    0.0607133612147452
     0.1603147455553242    0.8325833957876149    0.6789889496285768
     0.5860618496698542    0.1695169294654194    0.0645983042701398
     0.9178746488563838    0.8350041163337240    0.1936677532048484
     0.6694697439531916    0.3385103733723906    0.9348235247170134
     0.6676175347698580    0.5872139443807555    0.6885771422244533
     0.0877659886015878    0.6771634184536013    0.3142281847954370
     0.8280239400947756    0.4172532993077279    0.3112492755343759
     0.1621330866648486    0.5839302892105128    0.6843706061954010
     0.3282607631742581    0.6626989475630509    0.0613863951328941
     0.3302666759259940    0.9132482684529295    0.0642938435668082
     0.1690716458694893    0.3328808055051108    0.4391436698070739
     0.6643341179014963    0.8311305488764791    0.6855765448780565
     0.5832147730104547    0.1642789063768371    0.8108405691443634
     0.4187966304300962    0.5858164164396443    0.1932896460033064
     0.9149589821753114    0.0779431878080410    0.4394315297244333
     0.4169331581235989    0.8331633538457077    0.1934629540759684
     0.6663578950925722    0.5772983019968834    0.1937102863380026
     0.4170149706205070    0.5809455640995409    0.9339783707430811
     0.0790050549537725    0.1592362033045498    0.8099841078516622
     0.1662217998702667    0.3401126989622992    0.6894142994067446
     0.3323584273854885    0.1699166110855047    0.8105493932889639
     0.8370186096151966    0.6668225250455524    0.0614398047911016
     0.1631811813877235    0.3323893780804466    0.9346329051079465
     0.4127891950958726    0.3329631680817566    0.6840144355132468
     0.3305796667500169    0.9116191491829543    0.8071579868388360
     0.3310393973361777    0.1716127526998353    0.0646366399938614
     0.6623688616761717    0.0779627739950060    0.6819143625608739
     0.8321084813709172    0.9238690450214305    0.0615760041755360
     0.8349348616059742    0.1643460539023758    0.3146939408868644
     0.1632181746068940    0.5844686945643084    0.1876324873176598
     0.1633732211545794    0.3243849104214984    0.1882166347828427
     0.6692940686556937    0.5852271173255693    0.9339553480631931
     0.6693259867927263    0.0793332333373574    0.1887282399018761
     0.9154044209190134    0.5805192354283629    0.4404688434055660
     0.3289045695754576    0.1551668831417111    0.5585017129779805
     0.0839332927841263    0.1667719578308236    0.5651119456474382
     0.3326802767020059    0.6612572972177644    0.8079868003332565
     0.0795025971459158    0.9116436198936669    0.8137027426878605
     0.6625282175835679    0.3276127641079842    0.4384680693731997
     0.8374348435839855    0.1691206886831421    0.8102492562908631
     0.6603545051080422    0.0772889371020576    0.4402772349896468
     0.4078912705256394    0.0801922791673533    0.9370111864801928
     0.8378157631059537    0.4211340929068601    0.0611051554833741
     0.1631913754455009    0.0863887405191878    0.9387176988693655
     0.5788189310053705    0.1634019536836243    0.3137214720964259
     0.9252827606155472    0.5903223078124309    0.9333641026913079
     0.4157342301659958    0.0812709137407171    0.6830053145454209
     0.5802902446660578    0.9068974553718908    0.5594234357302666
     0.4169617910524717    0.3358296128609080    0.4395630640250480
     0.6698166321367747    0.8350466898435024    0.9348092137747184
     0.0767697291571273    0.1650008180299453    0.0618497293126355
     0.1641801846599460    0.8358532802874806    0.1897275517267126
     0.3318670819315012    0.1673388176057903    0.3184220427614035
     0.3494217954067546    0.9178666714814064    0.5615588706475941
     0.5815579360607072    0.4157037411683824    0.0637772544191878
     0.9170544885333800    0.3347907450625895    0.4419085869043305
     0.6609795429955264    0.5856416003029514    0.4341769261434912
     0.8276768312808664    0.9098905177937990    0.8123767166341692
     0.8371342102737908    0.6657400455130048    0.8106025262068162
     0.9202169788687170    0.3381142587374834    0.9346537780505083
     0.9187943793392190    0.0805385022994743    0.1892240516105079
     0.9187542817944968    0.5836280357901005    0.6864025916344976
     0.8460228483307286    0.1718155105637905    0.0597311124357982
     0.3353883127094998    0.6689701618143266    0.5606647520769013
     0.9128227376910326    0.8334439445012906    0.9344005853135221
     0.0844250331279700    0.6605571786893809    0.5605481587785139
     0.3361258762263032    0.9201339774843991    0.3182190875169734
     0.0787033685461583    0.6642923517439099    0.8119102465028677
     0.3449582344422322    0.4231666436183872    0.8098745318368489
     0.9190599068006717    0.3348080979981456    0.6858565118305315
     0.0731551657005965    0.9207059999466490    0.5600982290119872
     0.8280803314068815    0.9165264349170287    0.5623411651507886
     0.8414012675925413    0.4271628252182719    0.8107285298838104
     0.5771234649980987    0.4071165698099587    0.3147365578326386
     0.9185369615033931    0.5897597755945794    0.1890599264472060
     0.6693551976120161    0.8362360900377213    0.1931420110070016
     0.3336820216249607    0.4270914957467978    0.5612995745888838
     0.5865360775220577    0.9134132161150230    0.8114005059608724
     0.0815778765504910    0.4161286685551999    0.0590349481331616
     0.5790624952664772    0.6664664632956402    0.5590531406159206
     0.1740273702458805    0.5867772542508943    0.4410192089548213
     0.0809618482984709    0.6654536182728327    0.0607507253613440
     0.1637682126227562    0.0756444814825954    0.6856432661116871
     0.8388334465606063    0.4122178500185028    0.5643547025529898
     0.5823349421405253    0.4198336432872363    0.8120439822146772
     0.4169887982271988    0.3341768804320319    0.9354100665019447
     0.4190333197990783    0.0808424156415445    0.4369221751612574
     0.0787632318383688    0.4234415098569247    0.8124074283192124
     0.4187741549083167    0.5843119433440671    0.6831240765283670
     0.0823901877095826    0.1551045518217327    0.3130561908152730
     0.6648157050264396    0.8265828288296292    0.4374041910583136
     0.1570558160174431    0.5822157048712591    0.9358767945359612
     0.6609161714037095    0.3336897325651762    0.1888613585624742
     0.9140133597378696    0.8346229670422528    0.4352604137681974
     0.5852000129283612    0.9139804580939451    0.0637614884122558
     0.5789747507470901    0.1628245576914376    0.5621604686837632
     0.5822793818109593    0.9111815435954286    0.3165575489580079
     0.1610812275498823    0.8227102338987264    0.9369708887223688
     0.9198040958156916    0.8433861672235421    0.6862749297916666
     0.5882096113651544    0.6756001851541361    0.3164205217344684
     0.4202089138335289    0.3302521902274905    0.1914497706265913
     0.0807152582652296    0.4182073664262130    0.5609887038077425
     0.9203438945637112    0.0800581343797224    0.9358378261136553
     0.9120647748645616    0.0768168357892212    0.6855787166310234
     0.8291227974261280    0.9137201115794727    0.3151952283068174
     0.4199748271067218    0.8329307189322448    0.6822749984236903
     0.4202797235576155    0.5880423771907560    0.4395973416383300
     0.8374048966021512    0.1729690778746190    0.5634482279759845
     0.0922986347164577    0.9250826342290321    0.3151413876785104
     0.1640198761999490    0.0815504121225703    0.4358475480701696
     0.8329378403362689    0.6683758040516221    0.3168462739049003
     0.5857286239712142    0.6707020216790426    0.8113862693847591
     0.1656544103052996    0.0837005347113020    0.1916882289435837
     0.4162737827439426    0.8271635237954758    0.4388564926333856
     0.3360732632381686    0.6694435144597789    0.3192516344257920
 
  0.00000000E+00  0.00000000E+00  0.00000000E+00
  0.00000000E+00  0.00000000E+00  0.00000000E+00
  0.00000000E+00  0.00000000E+00  0.00000000E+00
  0.00000000E+00  0.00000000E+00  0.00000000E+00
  0.00000000E+00  0.00000000E+00  0.00000000E+00
  0.00000000E+00  0.00000000E+00  0.00000000E+00
  0.00000000E+00  0.00000000E+00  0.00000000E+00
  0.00000000E+00  0.00000000E+00  0.00000000E+00
  0.00000000E+00  0.00000000E+00  0.00000000E+00
  0.00000000E+00  0.00000000E+00  0.00000000E+00
  0.00000000E+00  0.00000000E+00  0.00000000E+00
  0.00000000E+00  0.00000000E+00  0.00000000E+00
  0.00000000E+00  0.00000000E+00  0.00000000E+00
  0.00000000E+00  0.00000000E+00  0.00000000E+00
  0.00000000E+00  0.00000000E+00  0.00000000E+00
  0.00000000E+00  0.00000000E+00  0.00000000E+00
  0.00000000E+00  0.00000000E+00  0.00000000E+00
  0.00000000E+00  0.00000000E+00  0.00000000E+00
  0.00000000E+00  0.00000000E+00  0.00000000E+00
  0.00000000E+00  0.00000000E+00  0.00000000E+00
  0.00000000E+00  0.00000000E+00  0.00000000E+00
  0.00000000E+00  0.00000000E+00  0.00000000E+00
  0.00000000E+00  0.00000000E+00  0.00000000E+00
  0.00000000E+00  0.00000000E+00  0.00000000E+00
  0.00000000E+00  0.00000000E+00  0.00000000E+00
  0.00000000E+00  0.00000000E+00  0.00000000E+00
  0.00000000E+00  0.00000000E+00  0.00000000E+00
  0.00000000E+00  0.00000000E+00  0.00000000E+00
  0.00000000E+00  0.00000000E+00  0.00000000E+00
  0.00000000E+00  0.00000000E+00  0.00000000E+00
  0.00000000E+00  0.00000000E+00  0.00000000E+00
  0.00000000E+00  0.00000000E+00  0.00000000E+00
  0.00000000E+00  0.00000000E+00  0.00000000E+00
  0.00000000E+00  0.00000000E+00  0.00000000E+00
  0.00000000E+00  0.00000000E+00  0.00000000E+00
  0.00000000E+00  0.00000000E+00  0.00000000E+00
  0.00000000E+00  0.00000000E+00  0.00000000E+00
  0.00000000E+00  0.00000000E+00  0.00000000E+00
  0.00000000E+00  0.00000000E+00  0.00000000E+00
  0.00000000E+00  0.00000000E+00  0.00000000E+00
  0.00000000E+00  0.00000000E+00  0.00000000E+00
  0.00000000E+00  0.00000000E+00  0.00000000E+00
  0.00000000E+00  0.00000000E+00  0.00000000E+00
  0.00000000E+00  0.00000000E+00  0.00000000E+00
  0.00000000E+00  0.00000000E+00  0.00000000E+00
  0.00000000E+00  0.00000000E+00  0.00000000E+00
  0.00000000E+00  0.00000000E+00  0.00000000E+00
  0.00000000E+00  0.00000000E+00  0.00000000E+00
  0.00000000E+00  0.00000000E+00  0.00000000E+00
  0.00000000E+00  0.00000000E+00  0.00000000E+00
  0.00000000E+00  0.00000000E+00  0.00000000E+00
  0.00000000E+00  0.00000000E+00  0.00000000E+00
  0.00000000E+00  0.00000000E+00  0.00000000E+00
  0.00000000E+00  0.00000000E+00  0.00000000E+00
  0.00000000E+00  0.00000000E+00  0.00000000E+00
  0.00000000E+00  0.00000000E+00  0.00000000E+00
  0.00000000E+00  0.00000000E+00  0.00000000E+00
  0.00000000E+00  0.00000000E+00  0.00000000E+00
  0.00000000E+00  0.00000000E+00  0.00000000E+00
  0.00000000E+00  0.00000000E+00  0.00000000E+00
  0.00000000E+00  0.00000000E+00  0.00000000E+00
  0.00000000E+00  0.00000000E+00  0.00000000E+00
  0.00000000E+00  0.00000000E+00  0.00000000E+00
  0.00000000E+00  0.00000000E+00  0.00000000E+00
  0.00000000E+00  0.00000000E+00  0.00000000E+00
  0.00000000E+00  0.00000000E+00  0.00000000E+00
  0.00000000E+00  0.00000000E+00  0.00000000E+00
  0.00000000E+00  0.00000000E+00  0.00000000E+00
  0.00000000E+00  0.00000000E+00  0.00000000E+00
  0.00000000E+00  0.00000000E+00  0.00000000E+00
  0.00000000E+00  0.00000000E+00  0.00000000E+00
  0.00000000E+00  0.00000000E+00  0.00000000E+00
  0.00000000E+00  0.00000000E+00  0.00000000E+00
  0.00000000E+00  0.00000000E+00  0.00000000E+00
  0.00000000E+00  0.00000000E+00  0.00000000E+00
  0.00000000E+00  0.00000000E+00  0.00000000E+00
  0.00000000E+00  0.00000000E+00  0.00000000E+00
  0.00000000E+00  0.00000000E+00  0.00000000E+00
  0.00000000E+00  0.00000000E+00  0.00000000E+00
  0.00000000E+00  0.00000000E+00  0.00000000E+00
  0.00000000E+00  0.00000000E+00  0.00000000E+00
  0.00000000E+00  0.00000000E+00  0.00000000E+00
  0.00000000E+00  0.00000000E+00  0.00000000E+00
  0.00000000E+00  0.00000000E+00  0.00000000E+00
  0.00000000E+00  0.00000000E+00  0.00000000E+00
  0.00000000E+00  0.00000000E+00  0.00000000E+00
  0.00000000E+00  0.00000000E+00  0.00000000E+00
  0.00000000E+00  0.00000000E+00  0.00000000E+00
  0.00000000E+00  0.00000000E+00  0.00000000E+00
  0.00000000E+00  0.00000000E+00  0.00000000E+00
  0.00000000E+00  0.00000000E+00  0.00000000E+00
  0.00000000E+00  0.00000000E+00  0.00000000E+00
  0.00000000E+00  0.00000000E+00  0.00000000E+00
  0.00000000E+00  0.00000000E+00  0.00000000E+00
  0.00000000E+00  0.00000000E+00  0.00000000E+00
  0.00000000E+00  0.00000000E+00  0.00000000E+00
  0.00000000E+00  0.00000000E+00  0.00000000E+00
  0.00000000E+00  0.00000000E+00  0.00000000E+00
  0.00000000E+00  0.00000000E+00  0.00000000E+00
  0.00000000E+00  0.00000000E+00  0.00000000E+00
  0.00000000E+00  0.00000000E+00  0.00000000E+00
  0.00000000E+00  0.00000000E+00  0.00000000E+00
  0.00000000E+00  0.00000000E+00  0.00000000E+00
  0.00000000E+00  0.00000000E+00  0.00000000E+00
  0.00000000E+00  0.00000000E+00  0.00000000E+00
  0.00000000E+00  0.00000000E+00  0.00000000E+00
  0.00000000E+00  0.00000000E+00  0.00000000E+00
  0.00000000E+00  0.00000000E+00  0.00000000E+00
  0.00000000E+00  0.00000000E+00  0.00000000E+00
  0.00000000E+00  0.00000000E+00  0.00000000E+00
  0.00000000E+00  0.00000000E+00  0.00000000E+00
  0.00000000E+00  0.00000000E+00  0.00000000E+00
  0.00000000E+00  0.00000000E+00  0.00000000E+00
  0.00000000E+00  0.00000000E+00  0.00000000E+00
  0.00000000E+00  0.00000000E+00  0.00000000E+00
  0.00000000E+00  0.00000000E+00  0.00000000E+00
  0.00000000E+00  0.00000000E+00  0.00000000E+00
  0.00000000E+00  0.00000000E+00  0.00000000E+00
  0.00000000E+00  0.00000000E+00  0.00000000E+00
  0.00000000E+00  0.00000000E+00  0.00000000E+00
  0.00000000E+00  0.00000000E+00  0.00000000E+00
  0.00000000E+00  0.00000000E+00  0.00000000E+00
  0.00000000E+00  0.00000000E+00  0.00000000E+00
  0.00000000E+00  0.00000000E+00  0.00000000E+00
  0.00000000E+00  0.00000000E+00  0.00000000E+00
  0.00000000E+00  0.00000000E+00  0.00000000E+00
  0.00000000E+00  0.00000000E+00  0.00000000E+00
  0.00000000E+00  0.00000000E+00  0.00000000E+00
