Hf                                      
    1.000000000000000     
    12.8086873069203442   -0.0000072479070967   -0.0000001143879140
    -6.4043500028549145   11.0926447392587715    0.0000001522762110
    -0.0000001376306946    0.0000001371884825   20.2300778424437802
  Hf           
             128
Direct
  0.6666665084035548  0.0833336451772033  0.4375003035822935
  0.5833335546269690  0.6666666081881991  0.8124996658689415
  0.0833335452072353  0.6666666014281286  0.3124998904135830
  0.1666665080386256  0.5833336502628539  0.9375002119257120
  0.6666664686016143  0.0833334144848769  0.1875003045243116
  0.4166665077971958  0.8333336449943844  0.9375002121135987
  0.3333334988439119  0.1666663590075734  0.0624998007811027
  0.5833335539415051  0.9166665970364966  0.8124996666491099
  0.4166665120087660  0.8333336470630153  0.4375003044307965
  0.0833335394071748  0.1666665900339761  0.3124998899406176
  0.3333335398004335  0.1666665926441435  0.3124998907421702
  0.3333334917049714  0.1666663560488037  0.5624996878720582
  0.0833335482963816  0.4166665946166737  0.8124996642073201
  0.1666664566081175  0.3333334048299179  0.1875003035053888
  0.5833335583316952  0.9166666005234896  0.3124998906162780
  0.9166664617013280  0.3333334136634729  0.1875003030977421
  0.4166664649845828  0.8333334100961991  0.6875001364817265
  0.3333335463139105  0.9166665978122471  0.3124998910989817
  0.9166664638314801  0.8333334155009217  0.1875003037509841
  0.8333335137409917  0.6666663802200260  0.5624996883946732
  0.9166665128231829  0.8333336559512087  0.9375002138472871
  0.0833335034775869  0.4166663631392435  0.0624997990446018
  0.1666664969145790  0.0833336420491565  0.4375003026453858
  0.9166665132850640  0.5833336594084410  0.9375002131215912
  0.0833335447404721  0.1666665919885309  0.8124996636676411
  0.8333335099797756  0.1666663569765767  0.5624996879191648
  0.3333335476073280  0.4166665969446932  0.3124998904005163
  0.5833335445816259  0.1666665962348052  0.8124996653741486
  0.8333335466312526  0.4166666026835569  0.3124998917435474
  0.3333335328911519  0.1666665895844583  0.8124996644597511
  0.1666664987682291  0.0833336417860145  0.9375002134086725
  0.6666664758550259  0.8333334169818518  0.1875003031935534
  0.9166665117751097  0.3333336515651812  0.9375002136690190
  0.1666664540662773  0.0833334061965726  0.6875001360713270
  0.3333335407618222  0.4166665940317678  0.8124996650368200
  0.6666665067496752  0.3333336512907852  0.9375002115685171
  0.9166664707106857  0.5833334248671264  0.6875001360764831
  0.9166664684526326  0.3333334127013308  0.6875001357684580
  0.8333335061703671  0.1666663597844723  0.0624997991767947
  0.0833335462577117  0.9166666009002092  0.8124996629634824
  0.5833335098507977  0.9166663630638381  0.0624997993997804
  0.1666665076970485  0.5833336501240231  0.4375003038898554
  0.0833335521035321  0.6666666061497284  0.8124996640222930
  0.4166664990996390  0.0833336426181114  0.9375002119693259
  0.0833334997137474  0.1666663577709033  0.0624997996670787
  0.6666664738643411  0.8333334181259435  0.6875001358729412
  0.9166664608390485  0.0833334084683591  0.1875003031638753
  0.5833335015520937  0.1666663609954262  0.5624996874547733
  0.5833335107483648  0.6666663708708290  0.5624996872291461
  0.4166664998754759  0.3333336465204614  0.9375002111627920
  0.8333335033750754  0.4166663700798057  0.0624997988809731
  0.5833335056326094  0.1666663655074042  0.0624997995710286
  0.9166665093392619  0.8333336564802619  0.4375003025996175
  0.4166664522871905  0.0833334044700512  0.6875001375297822
  0.0833334994105225  0.9166663588869292  0.0624998001043115
  0.0833335025749430  0.1666663576219017  0.5624996894190583
  0.4166664685903113  0.8333334117310208  0.1875003040987432
  0.0833335411147123  0.4166665921418418  0.3124998907049046
  0.1666664589563946  0.8333334135258511  0.1875003027490270
  0.9166664700559686  0.8333334236762872  0.6875001357300770
  0.0833335020592596  0.9166663646374442  0.5624996889631494
  0.6666665204168819  0.8333336562712093  0.4375003044888612
  0.0833335420126653  0.9166665956757881  0.3124998898299374
  0.6666664696541086  0.5833334251173936  0.6875001367042445
  0.0833335083719481  0.4166663601432620  0.5624996886826733
  0.9166664670825485  0.0833334085250142  0.6875001359252124
  0.6666665157910836  0.5833336587975877  0.9375002123402423
  0.8333335497083093  0.1666665948844716  0.3124998913018155
  0.8333335584644824  0.6666666166962574  0.8124996645705205
  0.8333335574904854  0.9166666025151199  0.8124996647778570
  0.6666664683145908  0.3333334190423320  0.1875003054301174
  0.8333335560865024  0.1666665954849751  0.8124996649235097
  0.1666664542402273  0.0833334044911720  0.1875003033847288
  0.8333335540072963  0.4166666064198223  0.8124996649372929
  0.1666664628203250  0.8333334194262155  0.6875001357967063
  0.4166664659497801  0.3333334149032279  0.1875003050964903
  0.8333335102813246  0.9166663631142067  0.0624997995724969
  0.9166665100323080  0.5833336590295409  0.4375003031883530
  0.0833335080870550  0.6666663694720238  0.5624996890283984
  0.5833335511486795  0.1666666009340728  0.3124998918107952
  0.3333334990957134  0.4166663576275084  0.5624996883198965
  0.4166664668260520  0.5833334129427776  0.6875001371061050
  0.3333335500624325  0.6666665992464955  0.8124996662167363
  0.6666664654522672  0.0833334073245911  0.6875001366165364
  0.8333335511237075  0.9166665989459917  0.3124998899737906
  0.3333335025866282  0.9166663597092060  0.0624997997096884
  0.4166664999656859  0.3333336469871210  0.4375003022298129
  0.4166665007926901  0.0833336457407655  0.4375003029197459
  0.9166665109354992  0.0833336452951923  0.9375002135314444
  0.9166665087000004  0.0833336427471585  0.4375003033487240
  0.1666665024955112  0.3333336422550868  0.9375002122353028
  0.3333335416810607  0.9166665950377478  0.8124996654076835
  0.9166665093063301  0.3333336490441679  0.4375003039499867
  0.1666665044339834  0.8333336500278352  0.9375002128940366
  0.1666665025611659  0.3333336393607138  0.4375003028081349
  0.1666664681342953  0.5833334149880106  0.6875001360925320
  0.3333335020022073  0.4166663600586724  0.0624997997449613
  0.4166664541026484  0.3333334097238165  0.6875001382286492
  0.3333335543026013  0.6666666005344480  0.3124998905035378
  0.3333335064181659  0.6666663640941215  0.0624997992710422
  0.6666664623598701  0.3333334155857232  0.6875001382971222
  0.4166664738923936  0.5833334154807404  0.1875003042810874
  0.1666664595331055  0.3333334030884379  0.6875001368215528
  0.4166665114660130  0.5833336476882222  0.4375003047181443
  0.1666664623802475  0.5833334130080672  0.1875003039728586
  0.6666665178599279  0.8333336540723230  0.9375002122534092
  0.6666664729334566  0.5833334218117847  0.1875003045502932
  0.6666665087588961  0.0833336455010149  0.9375002124174603
  0.3333335077287344  0.6666663630177968  0.5624996874541860
  0.5833335108196563  0.9166663612808997  0.5624996873949938
  0.5833335068026740  0.4166663685745779  0.0624997995669072
  0.5833335122775641  0.6666663702647045  0.0624997985819053
  0.8333335111159043  0.6666663731290389  0.0624998004673750
  0.6666665163735221  0.5833336603208478  0.4375003032626407
  0.4166664629330037  0.0833334102732376  0.1875003047182530
  0.8333335149029746  0.9166663665295357  0.5624996894331251
  0.9166664634545217  0.5833334181379718  0.1875003041394587
  0.8333335056989739  0.4166663692548837  0.5624996881495948
  0.3333335004844034  0.9166663610729622  0.5624996869828676
  0.5833335004642661  0.4166663683676332  0.5624996870375620
  0.6666665062998632  0.3333336514368194  0.4375003032973213
  0.1666665029184533  0.8333336523465257  0.4375003038281258
  0.0833335031481545  0.6666663634532826  0.0624998000997857
  0.8333335519282210  0.6666666100138338  0.3124998906319625
  0.4166665090662066  0.5833336474137032  0.9375002116019723
  0.5833335527682132  0.4166666080126061  0.3124998922108329
  0.5833335591796761  0.6666666079401049  0.3124998921558626
  0.5833335460816808  0.4166666061227045  0.8124996654380680
 
  0.00000000E+00  0.00000000E+00  0.00000000E+00
  0.00000000E+00  0.00000000E+00  0.00000000E+00
  0.00000000E+00  0.00000000E+00  0.00000000E+00
  0.00000000E+00  0.00000000E+00  0.00000000E+00
  0.00000000E+00  0.00000000E+00  0.00000000E+00
  0.00000000E+00  0.00000000E+00  0.00000000E+00
  0.00000000E+00  0.00000000E+00  0.00000000E+00
  0.00000000E+00  0.00000000E+00  0.00000000E+00
  0.00000000E+00  0.00000000E+00  0.00000000E+00
  0.00000000E+00  0.00000000E+00  0.00000000E+00
  0.00000000E+00  0.00000000E+00  0.00000000E+00
  0.00000000E+00  0.00000000E+00  0.00000000E+00
  0.00000000E+00  0.00000000E+00  0.00000000E+00
  0.00000000E+00  0.00000000E+00  0.00000000E+00
  0.00000000E+00  0.00000000E+00  0.00000000E+00
  0.00000000E+00  0.00000000E+00  0.00000000E+00
  0.00000000E+00  0.00000000E+00  0.00000000E+00
  0.00000000E+00  0.00000000E+00  0.00000000E+00
  0.00000000E+00  0.00000000E+00  0.00000000E+00
  0.00000000E+00  0.00000000E+00  0.00000000E+00
  0.00000000E+00  0.00000000E+00  0.00000000E+00
  0.00000000E+00  0.00000000E+00  0.00000000E+00
  0.00000000E+00  0.00000000E+00  0.00000000E+00
  0.00000000E+00  0.00000000E+00  0.00000000E+00
  0.00000000E+00  0.00000000E+00  0.00000000E+00
  0.00000000E+00  0.00000000E+00  0.00000000E+00
  0.00000000E+00  0.00000000E+00  0.00000000E+00
  0.00000000E+00  0.00000000E+00  0.00000000E+00
  0.00000000E+00  0.00000000E+00  0.00000000E+00
  0.00000000E+00  0.00000000E+00  0.00000000E+00
  0.00000000E+00  0.00000000E+00  0.00000000E+00
  0.00000000E+00  0.00000000E+00  0.00000000E+00
  0.00000000E+00  0.00000000E+00  0.00000000E+00
  0.00000000E+00  0.00000000E+00  0.00000000E+00
  0.00000000E+00  0.00000000E+00  0.00000000E+00
  0.00000000E+00  0.00000000E+00  0.00000000E+00
  0.00000000E+00  0.00000000E+00  0.00000000E+00
  0.00000000E+00  0.00000000E+00  0.00000000E+00
  0.00000000E+00  0.00000000E+00  0.00000000E+00
  0.00000000E+00  0.00000000E+00  0.00000000E+00
  0.00000000E+00  0.00000000E+00  0.00000000E+00
  0.00000000E+00  0.00000000E+00  0.00000000E+00
  0.00000000E+00  0.00000000E+00  0.00000000E+00
  0.00000000E+00  0.00000000E+00  0.00000000E+00
  0.00000000E+00  0.00000000E+00  0.00000000E+00
  0.00000000E+00  0.00000000E+00  0.00000000E+00
  0.00000000E+00  0.00000000E+00  0.00000000E+00
  0.00000000E+00  0.00000000E+00  0.00000000E+00
  0.00000000E+00  0.00000000E+00  0.00000000E+00
  0.00000000E+00  0.00000000E+00  0.00000000E+00
  0.00000000E+00  0.00000000E+00  0.00000000E+00
  0.00000000E+00  0.00000000E+00  0.00000000E+00
  0.00000000E+00  0.00000000E+00  0.00000000E+00
  0.00000000E+00  0.00000000E+00  0.00000000E+00
  0.00000000E+00  0.00000000E+00  0.00000000E+00
  0.00000000E+00  0.00000000E+00  0.00000000E+00
  0.00000000E+00  0.00000000E+00  0.00000000E+00
  0.00000000E+00  0.00000000E+00  0.00000000E+00
  0.00000000E+00  0.00000000E+00  0.00000000E+00
  0.00000000E+00  0.00000000E+00  0.00000000E+00
  0.00000000E+00  0.00000000E+00  0.00000000E+00
  0.00000000E+00  0.00000000E+00  0.00000000E+00
  0.00000000E+00  0.00000000E+00  0.00000000E+00
  0.00000000E+00  0.00000000E+00  0.00000000E+00
  0.00000000E+00  0.00000000E+00  0.00000000E+00
  0.00000000E+00  0.00000000E+00  0.00000000E+00
  0.00000000E+00  0.00000000E+00  0.00000000E+00
  0.00000000E+00  0.00000000E+00  0.00000000E+00
  0.00000000E+00  0.00000000E+00  0.00000000E+00
  0.00000000E+00  0.00000000E+00  0.00000000E+00
  0.00000000E+00  0.00000000E+00  0.00000000E+00
  0.00000000E+00  0.00000000E+00  0.00000000E+00
  0.00000000E+00  0.00000000E+00  0.00000000E+00
  0.00000000E+00  0.00000000E+00  0.00000000E+00
  0.00000000E+00  0.00000000E+00  0.00000000E+00
  0.00000000E+00  0.00000000E+00  0.00000000E+00
  0.00000000E+00  0.00000000E+00  0.00000000E+00
  0.00000000E+00  0.00000000E+00  0.00000000E+00
  0.00000000E+00  0.00000000E+00  0.00000000E+00
  0.00000000E+00  0.00000000E+00  0.00000000E+00
  0.00000000E+00  0.00000000E+00  0.00000000E+00
  0.00000000E+00  0.00000000E+00  0.00000000E+00
  0.00000000E+00  0.00000000E+00  0.00000000E+00
  0.00000000E+00  0.00000000E+00  0.00000000E+00
  0.00000000E+00  0.00000000E+00  0.00000000E+00
  0.00000000E+00  0.00000000E+00  0.00000000E+00
  0.00000000E+00  0.00000000E+00  0.00000000E+00
  0.00000000E+00  0.00000000E+00  0.00000000E+00
  0.00000000E+00  0.00000000E+00  0.00000000E+00
  0.00000000E+00  0.00000000E+00  0.00000000E+00
  0.00000000E+00  0.00000000E+00  0.00000000E+00
  0.00000000E+00  0.00000000E+00  0.00000000E+00
  0.00000000E+00  0.00000000E+00  0.00000000E+00
  0.00000000E+00  0.00000000E+00  0.00000000E+00
  0.00000000E+00  0.00000000E+00  0.00000000E+00
  0.00000000E+00  0.00000000E+00  0.00000000E+00
  0.00000000E+00  0.00000000E+00  0.00000000E+00
  0.00000000E+00  0.00000000E+00  0.00000000E+00
  0.00000000E+00  0.00000000E+00  0.00000000E+00
  0.00000000E+00  0.00000000E+00  0.00000000E+00
  0.00000000E+00  0.00000000E+00  0.00000000E+00
  0.00000000E+00  0.00000000E+00  0.00000000E+00
  0.00000000E+00  0.00000000E+00  0.00000000E+00
  0.00000000E+00  0.00000000E+00  0.00000000E+00
  0.00000000E+00  0.00000000E+00  0.00000000E+00
  0.00000000E+00  0.00000000E+00  0.00000000E+00
  0.00000000E+00  0.00000000E+00  0.00000000E+00
  0.00000000E+00  0.00000000E+00  0.00000000E+00
  0.00000000E+00  0.00000000E+00  0.00000000E+00
  0.00000000E+00  0.00000000E+00  0.00000000E+00
  0.00000000E+00  0.00000000E+00  0.00000000E+00
  0.00000000E+00  0.00000000E+00  0.00000000E+00
  0.00000000E+00  0.00000000E+00  0.00000000E+00
  0.00000000E+00  0.00000000E+00  0.00000000E+00
  0.00000000E+00  0.00000000E+00  0.00000000E+00
  0.00000000E+00  0.00000000E+00  0.00000000E+00
  0.00000000E+00  0.00000000E+00  0.00000000E+00
  0.00000000E+00  0.00000000E+00  0.00000000E+00
  0.00000000E+00  0.00000000E+00  0.00000000E+00
  0.00000000E+00  0.00000000E+00  0.00000000E+00
  0.00000000E+00  0.00000000E+00  0.00000000E+00
  0.00000000E+00  0.00000000E+00  0.00000000E+00
  0.00000000E+00  0.00000000E+00  0.00000000E+00
  0.00000000E+00  0.00000000E+00  0.00000000E+00
  0.00000000E+00  0.00000000E+00  0.00000000E+00
  0.00000000E+00  0.00000000E+00  0.00000000E+00
  0.00000000E+00  0.00000000E+00  0.00000000E+00
  0.00000000E+00  0.00000000E+00  0.00000000E+00
