Hf Ti                                   
    1.000000000000000     
    12.5146557257023154    0.0041734943199374   -0.0047202254751830
    -6.2537131394913716   10.8388266628516714    0.0038710907195498
    -0.0074967957381914    0.0027601433586064   19.7298342564712819
  Hf              Ti            
    88    40
Direct
     0.8330599471466968    0.1661359519561058    0.0628323486721997
     0.5868456804866871    0.9190696827680596    0.3143710837993988
     0.9163238391409800    0.0841752559525768    0.4364544046889606
     0.0895897005472269    0.1669192414915773    0.0631076321690085
     0.8332576843985736    0.6724774157687998    0.3131230336622258
     0.5837736522127572    0.4198562395493275    0.5635315672288520
     0.6679000311492518    0.0794553516685791    0.9340887465064082
     0.1617569333691964    0.3341475925304132    0.6887553491728121
     0.3357986093037309    0.1686393984316117    0.3125957121489687
     0.6696043938080938    0.8326367208432180    0.1882546950408820
     0.3378602855979145    0.4178770266821210    0.0650497919431380
     0.1683949155189415    0.5831541105058424    0.9345770862065141
     0.6673712947543882    0.8303419786323843    0.6870476940515973
     0.1675698164445800    0.3351824812312897    0.9365254118611576
     0.3330084238270524    0.9191281864510675    0.5627664976060868
     0.0858722474887601    0.9179833010734056    0.0640436018779424
     0.9171451794339539    0.5902474528079310    0.1878768287793508
     0.6639366453151376    0.3303800391782227    0.4376181767538668
     0.3349765757924840    0.6641213635438656    0.0616607273171731
     0.0835566834421201    0.4156299497102268    0.0632081276692785
     0.8275062470539510    0.4086819847195730    0.3118190899834787
     0.3319006245421000    0.4181917106147576    0.8128508859741461
     0.0842857691608975    0.6706423234026313    0.0625800825640902
     0.9165328150139108    0.5847127922999920    0.9366649155228678
     0.5796872670057303    0.6657600497732520    0.0618971429526817
     0.5804639872424839    0.4123336817431439    0.3103406926797376
     0.9191532564614260    0.0794945452219438    0.1893261165475383
     0.0837784422633792    0.6674740899971529    0.5627766149471930
     0.3379369480656885    0.9214501235423794    0.3142090241554664
     0.4186661481165438    0.8337785282630594    0.9333354973304087
     0.8289251795720768    0.6700218345518472    0.5621101350151293
     0.0802902608992018    0.4177958186999933    0.5593497788094046
     0.1660883017176263    0.8332710846664733    0.4366899548615143
     0.8275827250605560    0.4201158972478439    0.0650340269604231
     0.0848014091886384    0.6737503046563391    0.8123869827428423
     0.5796796279929711    0.1668460205350934    0.5625876714052519
     0.5851348428724120    0.9176941676481253    0.0612072348821480
     0.0850037895666755    0.6669495058811665    0.3120693022835928
     0.5810792942845332    0.1697238092075651    0.0625918705628391
     0.3337297542176649    0.6669857794203834    0.3147943681464991
     0.0811172837016686    0.1585879396133692    0.8140658245806859
     0.3312006958176568    0.4114308497198328    0.5600940067128881
     0.1718239624507884    0.0867544084218139    0.4380512172370321
     0.9141530821191722    0.0798572721992979    0.9360873804881725
     0.8325569077008819    0.9095689868203540    0.0614768228765198
     0.5810935104269221    0.9140962321666353    0.5632747252575439
     0.8294446424162203    0.6624438769266744    0.8116616340097184
     0.6658455217252867    0.0814696316813176    0.6898076528711724
     0.6675350913584170    0.0885162479536967    0.1902013521164541
     0.4154603641472607    0.5834294432477919    0.4390129781604108
     0.8314794494217621    0.1692645162085878    0.5623324450754975
     0.0798349018264886    0.9190264181404912    0.3086837816591618
     0.9139886313855673    0.0814024690821568    0.6881078823340322
     0.5866955187923919    0.6710860413710127    0.8141015349321888
     0.3327110274528473    0.4147901463244432    0.3121454450124008
     0.0818300136008858    0.4133859123181806    0.3171695700375729
     0.9162086503398640    0.3334346637826953    0.9346863698534794
     0.6644868425086824    0.5779254342340078    0.1833820181129472
     0.3294927036012548    0.9159102276676717    0.0619859344028902
     0.6659671553864525    0.5836176517256346    0.9409254366680990
     0.1652807829948103    0.5831869380267022    0.6890313906266464
     0.3367613220397299    0.6681688360882836    0.8105329830107953
     0.9141433026179182    0.5795185710551265    0.6868561593926816
     0.6701888452001811    0.8316372525204694    0.4393892026035618
     0.0810721619835806    0.9153890364129131    0.5631301388179343
     0.5817872463753456    0.6653401956404210    0.3112179353157329
     0.4080924723837501    0.0798270402187403    0.9356199590664964
     0.9178702728672281    0.5785817424342194    0.4383920794377970
     0.4227078314376888    0.5848891420514249    0.6855607510815843
     0.1704807552721494    0.0817124790280246    0.6886987005520823
     0.9207905623014593    0.8359370295949268    0.9331980409155314
     0.3343080686058132    0.6707488413767955    0.5624178092997334
     0.6680087718552148    0.3354834515322426    0.9364708555212548
     0.9187522696799768    0.3305267668366337    0.1894622850893054
     0.6630854364066865    0.0849825734547490    0.4360507704238334
     0.4163381074076222    0.8317796030247172    0.1882169176429312
     0.5820777913990293    0.1636691970909821    0.8129221552081737
     0.9191347202897819    0.8357956952036201    0.6914875962336376
     0.4137616442583875    0.0870710185565966    0.1871523841913524
     0.5844486446800127    0.4174654786704015    0.8119668473581070
     0.1692682475647650    0.5807879204769137    0.1882982068128985
     0.0849812579450114    0.1693896116493020    0.3117536082795830
     0.0838560231127615    0.1674291893989899    0.5615990106219699
     0.4144014537474127    0.3283018398711020    0.6877370028903592
     0.6622827269424346    0.5815188909372977    0.4376945914252691
     0.6743382387427406    0.3360744893833698    0.6880544597877408
     0.4126447200299401    0.0804385706520171    0.6896306861844508
     0.4143158475513925    0.3297026523903814    0.9386233248688322
     0.1704249026860772    0.3328849856351415    0.1878713429164696
     0.6588264837552432    0.3300772803495987    0.1872636196911767
     0.3370281262816571    0.1672764250657663    0.5605789858833654
     0.8395556749409941    0.4130798731186348    0.8102340782999899
     0.9166095384023176    0.3353374157949862    0.6880687827303253
     0.8356086538313228    0.9161249070239835    0.5621282247271195
     0.1681853858277496    0.8360521112577649    0.1878356526697470
     0.9151267942369569    0.8329707465365660    0.1872795933489885
     0.5823886316661334    0.1683350576318168    0.3121134532694852
     0.4143403402001996    0.3311665375278996    0.1859651853387008
     0.8337571124166416    0.4143254328399705    0.5619073755531138
     0.3299093726138723    0.9151940299810603    0.8112456272637838
     0.1727472345635197    0.0904848265954677    0.1860051546468018
     0.8328382688998360    0.1667130520341652    0.3141851618116646
     0.6650091132916248    0.8333987619836614    0.9351347093987128
     0.8375626480199413    0.1715741489047184    0.8103743723900004
     0.4154569203217550    0.8363539887819970    0.6898078919742067
     0.4159006468565020    0.5798075426269597    0.1874494674547845
     0.1686922724597352    0.5864122927431313    0.4381830781769029
     0.4151479871936785    0.3286089238950580    0.4384655897415218
     0.5863921424513064    0.6654944106691792    0.5627613832892717
     0.4156654368224085    0.8341606153436333    0.4387029269704990
     0.5875420844622221    0.9177587353182873    0.8111457785602075
     0.4192617326883588    0.0872049343975870    0.4376755265338277
     0.1697086764855866    0.0806903433291716    0.9374278276761108
     0.1668986717730081    0.3328872453719661    0.4374680494252033
     0.3317857369719880    0.1679834121260878    0.0635811558693661
     0.1685962417692780    0.8329061596032707    0.6903158103425907
     0.1685240797874871    0.8366811387999945    0.9349304783980595
     0.9183614583224511    0.8387251746382314    0.4374397069987573
     0.9136662569136479    0.3315033391020537    0.4381025660968024
     0.6652209687414431    0.5849899203977323    0.6871519934060142
     0.8346311402831206    0.9163246377341037    0.3140691154078005
     0.8267835786907750    0.9213021605055243    0.8127486692411039
     0.3285244291645181    0.1627688710653686    0.8140700694917705
     0.0965547808245417    0.9222926447743059    0.8141960995329284
     0.5790485693781824    0.4082891022300358    0.0645925133958855
     0.4182222024350826    0.5849696946009686    0.9370979226588937
     0.0739464162501648    0.4116564439329675    0.8106144017294968
     0.8376154239685298    0.6706483076789830    0.0632808871462747
 
  0.00000000E+00  0.00000000E+00  0.00000000E+00
  0.00000000E+00  0.00000000E+00  0.00000000E+00
  0.00000000E+00  0.00000000E+00  0.00000000E+00
  0.00000000E+00  0.00000000E+00  0.00000000E+00
  0.00000000E+00  0.00000000E+00  0.00000000E+00
  0.00000000E+00  0.00000000E+00  0.00000000E+00
  0.00000000E+00  0.00000000E+00  0.00000000E+00
  0.00000000E+00  0.00000000E+00  0.00000000E+00
  0.00000000E+00  0.00000000E+00  0.00000000E+00
  0.00000000E+00  0.00000000E+00  0.00000000E+00
  0.00000000E+00  0.00000000E+00  0.00000000E+00
  0.00000000E+00  0.00000000E+00  0.00000000E+00
  0.00000000E+00  0.00000000E+00  0.00000000E+00
  0.00000000E+00  0.00000000E+00  0.00000000E+00
  0.00000000E+00  0.00000000E+00  0.00000000E+00
  0.00000000E+00  0.00000000E+00  0.00000000E+00
  0.00000000E+00  0.00000000E+00  0.00000000E+00
  0.00000000E+00  0.00000000E+00  0.00000000E+00
  0.00000000E+00  0.00000000E+00  0.00000000E+00
  0.00000000E+00  0.00000000E+00  0.00000000E+00
  0.00000000E+00  0.00000000E+00  0.00000000E+00
  0.00000000E+00  0.00000000E+00  0.00000000E+00
  0.00000000E+00  0.00000000E+00  0.00000000E+00
  0.00000000E+00  0.00000000E+00  0.00000000E+00
  0.00000000E+00  0.00000000E+00  0.00000000E+00
  0.00000000E+00  0.00000000E+00  0.00000000E+00
  0.00000000E+00  0.00000000E+00  0.00000000E+00
  0.00000000E+00  0.00000000E+00  0.00000000E+00
  0.00000000E+00  0.00000000E+00  0.00000000E+00
  0.00000000E+00  0.00000000E+00  0.00000000E+00
  0.00000000E+00  0.00000000E+00  0.00000000E+00
  0.00000000E+00  0.00000000E+00  0.00000000E+00
  0.00000000E+00  0.00000000E+00  0.00000000E+00
  0.00000000E+00  0.00000000E+00  0.00000000E+00
  0.00000000E+00  0.00000000E+00  0.00000000E+00
  0.00000000E+00  0.00000000E+00  0.00000000E+00
  0.00000000E+00  0.00000000E+00  0.00000000E+00
  0.00000000E+00  0.00000000E+00  0.00000000E+00
  0.00000000E+00  0.00000000E+00  0.00000000E+00
  0.00000000E+00  0.00000000E+00  0.00000000E+00
  0.00000000E+00  0.00000000E+00  0.00000000E+00
  0.00000000E+00  0.00000000E+00  0.00000000E+00
  0.00000000E+00  0.00000000E+00  0.00000000E+00
  0.00000000E+00  0.00000000E+00  0.00000000E+00
  0.00000000E+00  0.00000000E+00  0.00000000E+00
  0.00000000E+00  0.00000000E+00  0.00000000E+00
  0.00000000E+00  0.00000000E+00  0.00000000E+00
  0.00000000E+00  0.00000000E+00  0.00000000E+00
  0.00000000E+00  0.00000000E+00  0.00000000E+00
  0.00000000E+00  0.00000000E+00  0.00000000E+00
  0.00000000E+00  0.00000000E+00  0.00000000E+00
  0.00000000E+00  0.00000000E+00  0.00000000E+00
  0.00000000E+00  0.00000000E+00  0.00000000E+00
  0.00000000E+00  0.00000000E+00  0.00000000E+00
  0.00000000E+00  0.00000000E+00  0.00000000E+00
  0.00000000E+00  0.00000000E+00  0.00000000E+00
  0.00000000E+00  0.00000000E+00  0.00000000E+00
  0.00000000E+00  0.00000000E+00  0.00000000E+00
  0.00000000E+00  0.00000000E+00  0.00000000E+00
  0.00000000E+00  0.00000000E+00  0.00000000E+00
  0.00000000E+00  0.00000000E+00  0.00000000E+00
  0.00000000E+00  0.00000000E+00  0.00000000E+00
  0.00000000E+00  0.00000000E+00  0.00000000E+00
  0.00000000E+00  0.00000000E+00  0.00000000E+00
  0.00000000E+00  0.00000000E+00  0.00000000E+00
  0.00000000E+00  0.00000000E+00  0.00000000E+00
  0.00000000E+00  0.00000000E+00  0.00000000E+00
  0.00000000E+00  0.00000000E+00  0.00000000E+00
  0.00000000E+00  0.00000000E+00  0.00000000E+00
  0.00000000E+00  0.00000000E+00  0.00000000E+00
  0.00000000E+00  0.00000000E+00  0.00000000E+00
  0.00000000E+00  0.00000000E+00  0.00000000E+00
  0.00000000E+00  0.00000000E+00  0.00000000E+00
  0.00000000E+00  0.00000000E+00  0.00000000E+00
  0.00000000E+00  0.00000000E+00  0.00000000E+00
  0.00000000E+00  0.00000000E+00  0.00000000E+00
  0.00000000E+00  0.00000000E+00  0.00000000E+00
  0.00000000E+00  0.00000000E+00  0.00000000E+00
  0.00000000E+00  0.00000000E+00  0.00000000E+00
  0.00000000E+00  0.00000000E+00  0.00000000E+00
  0.00000000E+00  0.00000000E+00  0.00000000E+00
  0.00000000E+00  0.00000000E+00  0.00000000E+00
  0.00000000E+00  0.00000000E+00  0.00000000E+00
  0.00000000E+00  0.00000000E+00  0.00000000E+00
  0.00000000E+00  0.00000000E+00  0.00000000E+00
  0.00000000E+00  0.00000000E+00  0.00000000E+00
  0.00000000E+00  0.00000000E+00  0.00000000E+00
  0.00000000E+00  0.00000000E+00  0.00000000E+00
  0.00000000E+00  0.00000000E+00  0.00000000E+00
  0.00000000E+00  0.00000000E+00  0.00000000E+00
  0.00000000E+00  0.00000000E+00  0.00000000E+00
  0.00000000E+00  0.00000000E+00  0.00000000E+00
  0.00000000E+00  0.00000000E+00  0.00000000E+00
  0.00000000E+00  0.00000000E+00  0.00000000E+00
  0.00000000E+00  0.00000000E+00  0.00000000E+00
  0.00000000E+00  0.00000000E+00  0.00000000E+00
  0.00000000E+00  0.00000000E+00  0.00000000E+00
  0.00000000E+00  0.00000000E+00  0.00000000E+00
  0.00000000E+00  0.00000000E+00  0.00000000E+00
  0.00000000E+00  0.00000000E+00  0.00000000E+00
  0.00000000E+00  0.00000000E+00  0.00000000E+00
  0.00000000E+00  0.00000000E+00  0.00000000E+00
  0.00000000E+00  0.00000000E+00  0.00000000E+00
  0.00000000E+00  0.00000000E+00  0.00000000E+00
  0.00000000E+00  0.00000000E+00  0.00000000E+00
  0.00000000E+00  0.00000000E+00  0.00000000E+00
  0.00000000E+00  0.00000000E+00  0.00000000E+00
  0.00000000E+00  0.00000000E+00  0.00000000E+00
  0.00000000E+00  0.00000000E+00  0.00000000E+00
  0.00000000E+00  0.00000000E+00  0.00000000E+00
  0.00000000E+00  0.00000000E+00  0.00000000E+00
  0.00000000E+00  0.00000000E+00  0.00000000E+00
  0.00000000E+00  0.00000000E+00  0.00000000E+00
  0.00000000E+00  0.00000000E+00  0.00000000E+00
  0.00000000E+00  0.00000000E+00  0.00000000E+00
  0.00000000E+00  0.00000000E+00  0.00000000E+00
  0.00000000E+00  0.00000000E+00  0.00000000E+00
  0.00000000E+00  0.00000000E+00  0.00000000E+00
  0.00000000E+00  0.00000000E+00  0.00000000E+00
  0.00000000E+00  0.00000000E+00  0.00000000E+00
  0.00000000E+00  0.00000000E+00  0.00000000E+00
  0.00000000E+00  0.00000000E+00  0.00000000E+00
  0.00000000E+00  0.00000000E+00  0.00000000E+00
  0.00000000E+00  0.00000000E+00  0.00000000E+00
  0.00000000E+00  0.00000000E+00  0.00000000E+00
  0.00000000E+00  0.00000000E+00  0.00000000E+00
  0.00000000E+00  0.00000000E+00  0.00000000E+00
  0.00000000E+00  0.00000000E+00  0.00000000E+00
