Nb Ti                                   
    1.000000000000000     
    13.0987160158113998   -0.0115892254161944    0.0272463280524444
    -6.5937055765733126    9.3562927710483113   -0.0125186104121233
    -0.0284644724839021    0.0135099846974815   18.2585032430020000
  Nb              Ti            
    48    80
Direct
     0.6929683712505178    0.1371370541213425    0.1917967353709879
     0.3126991094611513    0.3762191977668210    0.0586126351874363
     0.5696920657644219    0.6331996674248030    0.8110826678169893
     0.8199892179629418    0.6260383736306208    0.0644765439691795
     0.9330637859052723    0.8775811461264962    0.1877626027479029
     0.1856599607911428    0.1203538963262653    0.4388612761141246
     0.1873979382610131    0.3706983718568718    0.9361234905939577
     0.8162087812829495    0.1310712146695988    0.3146117171061633
     0.4338965533613942    0.1227505678384066    0.1864427815103008
     0.3192531808905765    0.3831002286625925    0.8106192809312196
     0.4404647889668318    0.8775034096506372    0.9367548885046652
     0.3184071425383720    0.1304302446532326    0.3158868900412210
     0.0660513164498018    0.3824969955488300    0.8126127170314935
     0.9373964359230795    0.3789699407367166    0.1856480656711776
     0.5710772723891461    0.3907224605033742    0.5675938468973314
     0.1873367161775646    0.8689513308420939    0.1865493628376457
     0.0719285382803769    0.8922789391463062    0.8161181777163562
     0.4228471717060885    0.0926533611570210    0.6891432685092478
     0.3081930749274867    0.8689827959072999    0.3117382966466077
     0.3123480015985294    0.6263186187980313    0.0636777392947583
     0.1945937378036619    0.6306240615656902    0.9350840323390307
     0.0715387920853089    0.3905353830504453    0.5644742364650824
     0.0678480529787730    0.6375481581310255    0.8112645273209573
     0.0607744996222357    0.3819238389580759    0.0613246510972738
     0.0688614396844441    0.1378651631292301    0.5605456857161988
     0.5645694360575951    0.6292154218342690    0.0610223285254676
     0.6866452784246598    0.3749449650149736    0.4430663268837804
     0.5689616285402865    0.3832655216414412    0.0591353027422009
     0.9390890351573657    0.1289003690838982    0.1937045983253804
     0.0660208893534861    0.6368492624671179    0.5604265894379258
     0.9386888584571413    0.3718679049436951    0.9353016796067728
     0.4393320086575868    0.6250491016843950    0.4406485706968085
     0.4426831173700305    0.6277302008125564    0.1862954455075566
     0.6925134311555652    0.8712441811200630    0.4425589424511642
     0.0666002075272423    0.1347444195921107    0.3150248981609299
     0.9340670665263158    0.6198347863095121    0.4425708927715040
     0.5520878294702399    0.6191060833418573    0.3132598959418779
     0.8226269125967479    0.1487552169180062    0.5606179277657757
     0.4258711015897068    0.1079516479991713    0.9372584476407584
     0.3150924153255420    0.6273272351999598    0.8076673017524042
     0.3135644018266640    0.3726534974407220    0.3120150602252042
     0.5593801645647725    0.1221602156025918    0.3108288930960262
     0.9393434451248157    0.6305035276308979    0.1864845330631634
     0.8158920120965527    0.3921789140621684    0.8144345773253512
     0.9356115607135016    0.1220887660898450    0.4385004729453476
     0.3168152121977342    0.1326275286085215    0.0606803745407051
     0.4430473354455334    0.1255844801194738    0.4382572621342649
     0.5616223128967925    0.8744598656333175    0.0571407367369906
     0.3253542995036237    0.1415144129841379    0.5629455100001074
     0.5690239556455127    0.3821813489289539    0.3166350646012392
     0.0545888963401268    0.6350560530562547    0.3137832203412962
     0.8072092562779181    0.3733512469930339    0.3122534463411473
     0.9239681587921316    0.6040445686222521    0.6858049286192472
     0.1876150425973103    0.1184885853161736    0.1897982030512856
     0.1677470821612335    0.8557102208987847    0.6941433416432660
     0.9351125028106435    0.3687175537986204    0.4387637573168379
     0.8267272496459485    0.6349418955445427    0.3148625406204625
     0.4248123486362202    0.3448228580193523    0.6889920837668005
     0.9219988063202724    0.8603954671289343    0.9282037691686998
     0.3267310103960828    0.6337433645632994    0.3151911624449574
     0.6744436690988664    0.3428832103970098    0.6894069684344667
     0.8062557329087231    0.8712877907930593    0.3133724155700905
     0.5684609363467533    0.1356471594173252    0.8125918289058172
     0.4196834301118560    0.5910173157916984    0.6848932795318596
     0.6661902079651857    0.8407728074484058    0.6844844796182507
     0.3164163422651817    0.3860187504501835    0.5668759544590246
     0.9235452565650898    0.1063138881267984    0.6847026484258161
     0.0673886043017614    0.1369349194323226    0.8082842073307196
     0.5735676853767258    0.3905231741970496    0.8115318289921221
     0.6818714641207505    0.1182032434016291    0.4367226651346504
     0.1870408057609311    0.3713837578617266    0.4379202169504035
     0.6917527588899680    0.1086366669995195    0.9361663805731235
     0.8199388425456599    0.3792059278024039    0.0583391834035286
     0.8143488595592411    0.1231962233946856    0.0667452302558359
     0.6886470159334906    0.8529218065277377    0.9362347961157778
     0.1812577015958178    0.8628442750508618    0.9395246071746569
     0.8230262083389667    0.8978371680039434    0.5670345810145737
     0.3112028120096251    0.8872567316506330    0.5689836725900851
     0.9334507278771897    0.8674302106034492    0.4391549759073394
     0.4353734629622995    0.8503067826892653    0.6823602096234982
     0.0670523509010527    0.6366687952512142    0.0611480638848973
     0.9271904720055995    0.8560212965647865    0.6907121412583688
     0.4453746085179763    0.8775163395814016    0.1886124406544294
     0.5697288826288439    0.1312356387913405    0.0623335503748189
     0.5789063557135016    0.8996964532895251    0.5591508678468821
     0.8191563131881494    0.3931783412907403    0.5657035668362659
     0.1805468401866444    0.6143845711910758    0.4331197374496968
     0.5682599138029170    0.6376858578070307    0.5635545757858914
     0.6894206363700662    0.8861195004051178    0.1839769739753835
     0.0630181729507795    0.1405935342955425    0.0684993921133623
     0.5676778056453424    0.8827707253269297    0.8127360905121204
     0.4284630207505880    0.3588906403122119    0.9348571271839609
     0.5636960099160881    0.1359069842417829    0.5674167085760607
     0.1790986506941376    0.6137941329045461    0.6841602089726971
     0.0602363205483508    0.8865776615380495    0.0616880343944993
     0.0717055828420342    0.8913489732084033    0.5653647633295616
     0.8187578014569998    0.6459114453075926    0.5615215280223367
     0.1906280013698729    0.3717935843912257    0.1844339448085628
     0.6871945979254694    0.6318670556674655    0.1876135809983194
     0.0710707533436247    0.8925975587323417    0.3084324226529616
     0.6816707733750534    0.0971540959766724    0.6859135892592308
     0.0682698936152311    0.3913638105474299    0.3110424076616712
     0.3184839622016242    0.1331216753555267    0.8103307947514087
     0.8215580082605766    0.6504098257628266    0.8120570233151848
     0.1717391581556394    0.3537024760573221    0.6911330938796385
     0.3246879496538279    0.6435732815284997    0.5605368477530881
     0.1723440409238919    0.1111072141937605    0.9391684920238497
     0.8238312148568647    0.8758829482751421    0.0606805051340827
     0.8112381512627159    0.9004171046580788    0.8057294785399762
     0.6768093385836337    0.5972437048422593    0.6879311651817960
     0.5722613302941991    0.8805910564726674    0.3180878907893996
     0.1876298941827914    0.8708347818258175    0.4379000566747107
     0.1721866003442480    0.1046901836126981    0.6825734708619591
     0.6808010970376431    0.6142423698306553    0.4336785111046308
     0.3206531490444877    0.8818436486667606    0.0633726650367314
     0.9284557274930733    0.3598227573758131    0.6901305896372223
     0.4314938365909812    0.3674708533617099    0.4410617147202737
     0.6828767054296082    0.3779342068214778    0.1846198206266831
     0.9267443513336364    0.6112064527124511    0.9355549314455897
     0.4247409838344949    0.8636549943444891    0.4388532333385529
     0.6714264317799736    0.3449006996682101    0.9373632717211802
     0.4356205484809613    0.6226541905350698    0.9351640010609298
     0.6788158447318944    0.5982525214191164    0.9379588732682727
     0.8217854115880678    0.1526663373716427    0.8088858743430046
     0.3216838978005011    0.8789540120507731    0.8108208216188154
     0.1874358800710939    0.6223747355188094    0.1903919321211649
     0.9330234956245956    0.1153329357552494    0.9362757999194320
     0.4391773398907389    0.3754519641145597    0.1853330909387586
 
  0.00000000E+00  0.00000000E+00  0.00000000E+00
  0.00000000E+00  0.00000000E+00  0.00000000E+00
  0.00000000E+00  0.00000000E+00  0.00000000E+00
  0.00000000E+00  0.00000000E+00  0.00000000E+00
  0.00000000E+00  0.00000000E+00  0.00000000E+00
  0.00000000E+00  0.00000000E+00  0.00000000E+00
  0.00000000E+00  0.00000000E+00  0.00000000E+00
  0.00000000E+00  0.00000000E+00  0.00000000E+00
  0.00000000E+00  0.00000000E+00  0.00000000E+00
  0.00000000E+00  0.00000000E+00  0.00000000E+00
  0.00000000E+00  0.00000000E+00  0.00000000E+00
  0.00000000E+00  0.00000000E+00  0.00000000E+00
  0.00000000E+00  0.00000000E+00  0.00000000E+00
  0.00000000E+00  0.00000000E+00  0.00000000E+00
  0.00000000E+00  0.00000000E+00  0.00000000E+00
  0.00000000E+00  0.00000000E+00  0.00000000E+00
  0.00000000E+00  0.00000000E+00  0.00000000E+00
  0.00000000E+00  0.00000000E+00  0.00000000E+00
  0.00000000E+00  0.00000000E+00  0.00000000E+00
  0.00000000E+00  0.00000000E+00  0.00000000E+00
  0.00000000E+00  0.00000000E+00  0.00000000E+00
  0.00000000E+00  0.00000000E+00  0.00000000E+00
  0.00000000E+00  0.00000000E+00  0.00000000E+00
  0.00000000E+00  0.00000000E+00  0.00000000E+00
  0.00000000E+00  0.00000000E+00  0.00000000E+00
  0.00000000E+00  0.00000000E+00  0.00000000E+00
  0.00000000E+00  0.00000000E+00  0.00000000E+00
  0.00000000E+00  0.00000000E+00  0.00000000E+00
  0.00000000E+00  0.00000000E+00  0.00000000E+00
  0.00000000E+00  0.00000000E+00  0.00000000E+00
  0.00000000E+00  0.00000000E+00  0.00000000E+00
  0.00000000E+00  0.00000000E+00  0.00000000E+00
  0.00000000E+00  0.00000000E+00  0.00000000E+00
  0.00000000E+00  0.00000000E+00  0.00000000E+00
  0.00000000E+00  0.00000000E+00  0.00000000E+00
  0.00000000E+00  0.00000000E+00  0.00000000E+00
  0.00000000E+00  0.00000000E+00  0.00000000E+00
  0.00000000E+00  0.00000000E+00  0.00000000E+00
  0.00000000E+00  0.00000000E+00  0.00000000E+00
  0.00000000E+00  0.00000000E+00  0.00000000E+00
  0.00000000E+00  0.00000000E+00  0.00000000E+00
  0.00000000E+00  0.00000000E+00  0.00000000E+00
  0.00000000E+00  0.00000000E+00  0.00000000E+00
  0.00000000E+00  0.00000000E+00  0.00000000E+00
  0.00000000E+00  0.00000000E+00  0.00000000E+00
  0.00000000E+00  0.00000000E+00  0.00000000E+00
  0.00000000E+00  0.00000000E+00  0.00000000E+00
  0.00000000E+00  0.00000000E+00  0.00000000E+00
  0.00000000E+00  0.00000000E+00  0.00000000E+00
  0.00000000E+00  0.00000000E+00  0.00000000E+00
  0.00000000E+00  0.00000000E+00  0.00000000E+00
  0.00000000E+00  0.00000000E+00  0.00000000E+00
  0.00000000E+00  0.00000000E+00  0.00000000E+00
  0.00000000E+00  0.00000000E+00  0.00000000E+00
  0.00000000E+00  0.00000000E+00  0.00000000E+00
  0.00000000E+00  0.00000000E+00  0.00000000E+00
  0.00000000E+00  0.00000000E+00  0.00000000E+00
  0.00000000E+00  0.00000000E+00  0.00000000E+00
  0.00000000E+00  0.00000000E+00  0.00000000E+00
  0.00000000E+00  0.00000000E+00  0.00000000E+00
  0.00000000E+00  0.00000000E+00  0.00000000E+00
  0.00000000E+00  0.00000000E+00  0.00000000E+00
  0.00000000E+00  0.00000000E+00  0.00000000E+00
  0.00000000E+00  0.00000000E+00  0.00000000E+00
  0.00000000E+00  0.00000000E+00  0.00000000E+00
  0.00000000E+00  0.00000000E+00  0.00000000E+00
  0.00000000E+00  0.00000000E+00  0.00000000E+00
  0.00000000E+00  0.00000000E+00  0.00000000E+00
  0.00000000E+00  0.00000000E+00  0.00000000E+00
  0.00000000E+00  0.00000000E+00  0.00000000E+00
  0.00000000E+00  0.00000000E+00  0.00000000E+00
  0.00000000E+00  0.00000000E+00  0.00000000E+00
  0.00000000E+00  0.00000000E+00  0.00000000E+00
  0.00000000E+00  0.00000000E+00  0.00000000E+00
  0.00000000E+00  0.00000000E+00  0.00000000E+00
  0.00000000E+00  0.00000000E+00  0.00000000E+00
  0.00000000E+00  0.00000000E+00  0.00000000E+00
  0.00000000E+00  0.00000000E+00  0.00000000E+00
  0.00000000E+00  0.00000000E+00  0.00000000E+00
  0.00000000E+00  0.00000000E+00  0.00000000E+00
  0.00000000E+00  0.00000000E+00  0.00000000E+00
  0.00000000E+00  0.00000000E+00  0.00000000E+00
  0.00000000E+00  0.00000000E+00  0.00000000E+00
  0.00000000E+00  0.00000000E+00  0.00000000E+00
  0.00000000E+00  0.00000000E+00  0.00000000E+00
  0.00000000E+00  0.00000000E+00  0.00000000E+00
  0.00000000E+00  0.00000000E+00  0.00000000E+00
  0.00000000E+00  0.00000000E+00  0.00000000E+00
  0.00000000E+00  0.00000000E+00  0.00000000E+00
  0.00000000E+00  0.00000000E+00  0.00000000E+00
  0.00000000E+00  0.00000000E+00  0.00000000E+00
  0.00000000E+00  0.00000000E+00  0.00000000E+00
  0.00000000E+00  0.00000000E+00  0.00000000E+00
  0.00000000E+00  0.00000000E+00  0.00000000E+00
  0.00000000E+00  0.00000000E+00  0.00000000E+00
  0.00000000E+00  0.00000000E+00  0.00000000E+00
  0.00000000E+00  0.00000000E+00  0.00000000E+00
  0.00000000E+00  0.00000000E+00  0.00000000E+00
  0.00000000E+00  0.00000000E+00  0.00000000E+00
  0.00000000E+00  0.00000000E+00  0.00000000E+00
  0.00000000E+00  0.00000000E+00  0.00000000E+00
  0.00000000E+00  0.00000000E+00  0.00000000E+00
  0.00000000E+00  0.00000000E+00  0.00000000E+00
  0.00000000E+00  0.00000000E+00  0.00000000E+00
  0.00000000E+00  0.00000000E+00  0.00000000E+00
  0.00000000E+00  0.00000000E+00  0.00000000E+00
  0.00000000E+00  0.00000000E+00  0.00000000E+00
  0.00000000E+00  0.00000000E+00  0.00000000E+00
  0.00000000E+00  0.00000000E+00  0.00000000E+00
  0.00000000E+00  0.00000000E+00  0.00000000E+00
  0.00000000E+00  0.00000000E+00  0.00000000E+00
  0.00000000E+00  0.00000000E+00  0.00000000E+00
  0.00000000E+00  0.00000000E+00  0.00000000E+00
  0.00000000E+00  0.00000000E+00  0.00000000E+00
  0.00000000E+00  0.00000000E+00  0.00000000E+00
  0.00000000E+00  0.00000000E+00  0.00000000E+00
  0.00000000E+00  0.00000000E+00  0.00000000E+00
  0.00000000E+00  0.00000000E+00  0.00000000E+00
  0.00000000E+00  0.00000000E+00  0.00000000E+00
  0.00000000E+00  0.00000000E+00  0.00000000E+00
  0.00000000E+00  0.00000000E+00  0.00000000E+00
  0.00000000E+00  0.00000000E+00  0.00000000E+00
  0.00000000E+00  0.00000000E+00  0.00000000E+00
  0.00000000E+00  0.00000000E+00  0.00000000E+00
  0.00000000E+00  0.00000000E+00  0.00000000E+00
  0.00000000E+00  0.00000000E+00  0.00000000E+00
  0.00000000E+00  0.00000000E+00  0.00000000E+00
  0.00000000E+00  0.00000000E+00  0.00000000E+00
