Hf Nb                                   
    1.000000000000000     
    12.7527588745541713   -0.0436097927992500   -0.0057485709608895
    -6.4142514293697204   11.0044931696429096    0.0151855303857804
    -0.0089990112178550    0.0224694287505557   20.1584508908679538
  Hf             Nb           
             116              12
Direct
  0.3327237692978898  0.6655036452029666  0.3128297590923140
  0.9165226683970401  0.3337718823718912  0.9380355636407618
  0.5834649337982598  0.1627320150841059  0.0631076553494639
  0.0849555140116675  0.4152483657739177  0.8130357247095688
  0.6685915052697494  0.8413882155877470  0.1878912989738899
  0.4157695659554693  0.0814181259742173  0.4377680087665157
  0.5822675835775397  0.1688910005248914  0.8124387398946079
  0.0904870064287227  0.1718686989196689  0.8126766207923988
  0.4159565514181339  0.0819167807506554  0.1880423507386176
  0.4163484693079836  0.8339946610930741  0.1875054883458398
  0.6666649954268890  0.0822906398786014  0.9377193371257504
  0.6667140047762959  0.3353121542847807  0.6868235028822797
  0.0790439266735001  0.9112872714198068  0.3132787774138804
  0.1673514752551654  0.0835910321597255  0.1885076015252322
  0.5832948683836222  0.1612756014254199  0.3121431998996944
  0.8358168692582357  0.9194752846655899  0.8142070563354781
  0.3357080946445394  0.1668926438116565  0.0628181062343183
  0.6653774017578775  0.5843721665368806  0.9376013425397558
  0.1624772855472433  0.0838424041701214  0.6857946479741112
  0.3462595563973979  0.4239795727921013  0.3127369738729709
  0.3319331570302030  0.9177374537368754  0.8120269860587221
  0.6681901321456518  0.3303031850775721  0.1878797847182143
  0.9052448257340676  0.5772796109809976  0.4295321650372322
  0.8383793361779515  0.4172241490914134  0.5608486069866232
  0.3328841858431998  0.6663373088144312  0.8119379269185669
  0.9167866634582353  0.8360726967586393  0.1876577763893146
  0.9205832031085717  0.0855420883601379  0.6872893268741145
  0.1654774015961731  0.5833509639238496  0.9380178798041571
  0.1707399566280948  0.3346476831892459  0.1889371020394797
  0.5833800709414934  0.4167623205380288  0.0626991114579435
  0.1654000034068646  0.8332749722281279  0.9376385576477329
  0.8326695254792276  0.1673492774375314  0.8116165368173311
  0.3328884337476073  0.9152431832312427  0.0627087466756966
  0.0805994006139859  0.6652305417966961  0.0639403209400198
  0.8318516761894438  0.9205744878689223  0.3131866867617080
  0.3324085563504796  0.6661359221472221  0.0628312389889597
  0.6714182821760625  0.5906205698709417  0.6862291753503454
  0.5842304580616053  0.6704935331400995  0.0630443820397290
  0.6681533601406259  0.5892792720421707  0.4366074106525478
  0.4148268655294774  0.5830114751190298  0.9375152698432991
  0.9163329095074931  0.5842780788119195  0.9376986645041988
  0.5817718452360172  0.9181291267239242  0.8124238609928174
  0.5885058928267752  0.6699188458834623  0.5627138217699565
  0.8351749076018150  0.1666373431496029  0.5632234514484298
  0.4132678813096797  0.0833988617279029  0.6869296530460660
  0.9179374769630242  0.3332253497783716  0.4359137845110600
  0.5999408381386145  0.4229899591546205  0.3125606522615622
  0.3304983875720131  0.4129177496611175  0.8133964221029704
  0.8291642354695534  0.1547161242488217  0.3124551202490772
  0.9179679422321515  0.3379390119604240  0.6873709571544961
  0.9079374461444796  0.5793350224250510  0.1920353362320647
  0.1720842682601930  0.0893967757419747  0.9362367723905753
  0.0845971511927426  0.9186289552907099  0.0623752180780306
  0.6658261411689088  0.8371005534749624  0.4363538782045601
  0.0791618620444204  0.6582596206506834  0.5593223849566454
  0.3311991007874804  0.6600181425590222  0.5625147519071049
  0.5839408690589174  0.6671491066607611  0.8129250445630934
  0.9154934416160680  0.5915708083719656  0.6847123780936237
  0.1714320975706193  0.3351742104379101  0.4362952734757127
  0.1625216871636157  0.8312170821073709  0.6866031435902183
  0.8332246325179083  0.6671088411012046  0.0640352025307261
  0.9215877794103151  0.0908490888158806  0.9376852481652862
  0.0808079993064684  0.6634765710233657  0.3125213797943788
  0.0826958677716304  0.9172967526267080  0.8118707458585338
  0.6652771514302477  0.0796184726736518  0.4371339318341206
  0.3356557165351650  0.4174140590258626  0.5623288742962821
  0.1632519732878645  0.8316340532302886  0.1879396298187374
  0.8330195655200253  0.4186408503112627  0.8120984634765732
  0.1632625800104578  0.8299547830650351  0.4381070155792720
  0.4155826464775749  0.0854979709627655  0.9367619901392191
  0.4147935686927607  0.8323685912526904  0.4383598392517716
  0.5877210965316398  0.4192667709581313  0.5621101405958385
  0.6668691317889589  0.3344685463852666  0.9383412624177906
  0.6685853610344047  0.8382547285349738  0.6885803902917959
  0.4125815919178490  0.3307818912802309  0.9365365415984047
  0.1649025809074218  0.0810670103942514  0.4380593852820981
  0.3370161286233004  0.1673291608394439  0.3131797186335587
  0.3314187193601648  0.1666483307391308  0.5623325102500403
  0.3337737941955935  0.4167905927653025  0.0629006067239876
  0.4203064372450734  0.5875583267163380  0.1881038772852782
  0.1636982467977783  0.5822046255313320  0.1880560594130908
  0.4201200639720987  0.3333810827700121  0.4371016824739549
  0.6658018661850407  0.5885755337395880  0.1882749637037498
  0.0835980339143386  0.6662978903748392  0.8120014499836693
  0.3290512555779195  0.9136081697363764  0.5625480898974675
  0.8353451944243601  0.6712904801078191  0.8126073494321508
  0.4135164811988378  0.8324677515672712  0.6866568623176222
  0.3306737565397674  0.9140002708812597  0.3127426689877237
  0.9231335310160068  0.0870170309107375  0.4396653258874590
  0.6656443355239010  0.8374212604741753  0.9382752358719115
  0.0837739006367233  0.4138556197741364  0.0633714340839292
  0.6656530962965646  0.0750323787864040  0.1877029831424084
  0.0859447307776070  0.1697409119660077  0.0632017346351645
  0.0813553717827421  0.4150481396999144  0.3123239716009132
  0.8338285984466370  0.4163101307542198  0.0636355512422061
  0.4166008269850870  0.3326205820428114  0.6874810651826264
  0.0749829638940831  0.9083612099645811  0.5646937112535683
  0.4188720155683260  0.5851443931188240  0.6880085903714321
  0.5836529345381787  0.4172752597352830  0.8121959450174945
  0.6684794118391565  0.3305854732191441  0.4370118009048059
  0.8378307841310114  0.9143292520432142  0.5648686375771218
  0.5842549209090528  0.9164969608094533  0.5625459329956080
  0.8309560386430532  0.1596865816369028  0.0637803318773873
  0.1641558898623572  0.5770965719164511  0.4377438909550145
  0.9147175597794220  0.3289193068284123  0.1882684071064654
  0.4224934643793725  0.5874123399014336  0.4371356966981573
  0.1631363561692984  0.5802542300462554  0.6861266363434628
  0.4195763779761131  0.3340737973378983  0.1889178737543068
  0.1651690048035385  0.3337015841503357  0.6863520841217399
  0.9138688006289101  0.8275659181963387  0.4376481949920183
  0.0842046765299037  0.1655626449307974  0.3129432565985478
  0.6656413431724458  0.0852589840850950  0.6871956837667145
  0.9176626270065814  0.8369094313751902  0.9385679050045000
  0.8337519724741961  0.9230932376287851  0.0637612564488980
  0.5837925683154379  0.1662639694384553  0.5623575537569550
  0.4166327869590158  0.8340158485896400  0.9375735540265029
  0.5883473760737946  0.6785376983047611  0.3117698418415547
  0.1667463691912776  0.3428276753917136  0.9399156190547380
  0.9330371683841331  0.0928699851347683  0.1884371569432227
  0.3347640558177443  0.1620292680629612  0.8095881499441010
  0.5723952213905155  0.9058900135637201  0.3118181717281630
  0.0885234805910966  0.1741732385141678  0.5608212989411220
  0.9049568780762998  0.8362836433531975  0.6912130572861439
  0.8223845916233470  0.6774925530402615  0.3114852911161768
  0.5734719483528917  0.9101566036745513  0.0628886079381466
  0.8446667691717756  0.6577393226781573  0.5562861292615778
  0.0794463841370178  0.3979501105302794  0.5614086345538334
  0.8287565731636969  0.3996229023788001  0.3108705984992846
 
  0.00000000E+00  0.00000000E+00  0.00000000E+00
  0.00000000E+00  0.00000000E+00  0.00000000E+00
  0.00000000E+00  0.00000000E+00  0.00000000E+00
  0.00000000E+00  0.00000000E+00  0.00000000E+00
  0.00000000E+00  0.00000000E+00  0.00000000E+00
  0.00000000E+00  0.00000000E+00  0.00000000E+00
  0.00000000E+00  0.00000000E+00  0.00000000E+00
  0.00000000E+00  0.00000000E+00  0.00000000E+00
  0.00000000E+00  0.00000000E+00  0.00000000E+00
  0.00000000E+00  0.00000000E+00  0.00000000E+00
  0.00000000E+00  0.00000000E+00  0.00000000E+00
  0.00000000E+00  0.00000000E+00  0.00000000E+00
  0.00000000E+00  0.00000000E+00  0.00000000E+00
  0.00000000E+00  0.00000000E+00  0.00000000E+00
  0.00000000E+00  0.00000000E+00  0.00000000E+00
  0.00000000E+00  0.00000000E+00  0.00000000E+00
  0.00000000E+00  0.00000000E+00  0.00000000E+00
  0.00000000E+00  0.00000000E+00  0.00000000E+00
  0.00000000E+00  0.00000000E+00  0.00000000E+00
  0.00000000E+00  0.00000000E+00  0.00000000E+00
  0.00000000E+00  0.00000000E+00  0.00000000E+00
  0.00000000E+00  0.00000000E+00  0.00000000E+00
  0.00000000E+00  0.00000000E+00  0.00000000E+00
  0.00000000E+00  0.00000000E+00  0.00000000E+00
  0.00000000E+00  0.00000000E+00  0.00000000E+00
  0.00000000E+00  0.00000000E+00  0.00000000E+00
  0.00000000E+00  0.00000000E+00  0.00000000E+00
  0.00000000E+00  0.00000000E+00  0.00000000E+00
  0.00000000E+00  0.00000000E+00  0.00000000E+00
  0.00000000E+00  0.00000000E+00  0.00000000E+00
  0.00000000E+00  0.00000000E+00  0.00000000E+00
  0.00000000E+00  0.00000000E+00  0.00000000E+00
  0.00000000E+00  0.00000000E+00  0.00000000E+00
  0.00000000E+00  0.00000000E+00  0.00000000E+00
  0.00000000E+00  0.00000000E+00  0.00000000E+00
  0.00000000E+00  0.00000000E+00  0.00000000E+00
  0.00000000E+00  0.00000000E+00  0.00000000E+00
  0.00000000E+00  0.00000000E+00  0.00000000E+00
  0.00000000E+00  0.00000000E+00  0.00000000E+00
  0.00000000E+00  0.00000000E+00  0.00000000E+00
  0.00000000E+00  0.00000000E+00  0.00000000E+00
  0.00000000E+00  0.00000000E+00  0.00000000E+00
  0.00000000E+00  0.00000000E+00  0.00000000E+00
  0.00000000E+00  0.00000000E+00  0.00000000E+00
  0.00000000E+00  0.00000000E+00  0.00000000E+00
  0.00000000E+00  0.00000000E+00  0.00000000E+00
  0.00000000E+00  0.00000000E+00  0.00000000E+00
  0.00000000E+00  0.00000000E+00  0.00000000E+00
  0.00000000E+00  0.00000000E+00  0.00000000E+00
  0.00000000E+00  0.00000000E+00  0.00000000E+00
  0.00000000E+00  0.00000000E+00  0.00000000E+00
  0.00000000E+00  0.00000000E+00  0.00000000E+00
  0.00000000E+00  0.00000000E+00  0.00000000E+00
  0.00000000E+00  0.00000000E+00  0.00000000E+00
  0.00000000E+00  0.00000000E+00  0.00000000E+00
  0.00000000E+00  0.00000000E+00  0.00000000E+00
  0.00000000E+00  0.00000000E+00  0.00000000E+00
  0.00000000E+00  0.00000000E+00  0.00000000E+00
  0.00000000E+00  0.00000000E+00  0.00000000E+00
  0.00000000E+00  0.00000000E+00  0.00000000E+00
  0.00000000E+00  0.00000000E+00  0.00000000E+00
  0.00000000E+00  0.00000000E+00  0.00000000E+00
  0.00000000E+00  0.00000000E+00  0.00000000E+00
  0.00000000E+00  0.00000000E+00  0.00000000E+00
  0.00000000E+00  0.00000000E+00  0.00000000E+00
  0.00000000E+00  0.00000000E+00  0.00000000E+00
  0.00000000E+00  0.00000000E+00  0.00000000E+00
  0.00000000E+00  0.00000000E+00  0.00000000E+00
  0.00000000E+00  0.00000000E+00  0.00000000E+00
  0.00000000E+00  0.00000000E+00  0.00000000E+00
  0.00000000E+00  0.00000000E+00  0.00000000E+00
  0.00000000E+00  0.00000000E+00  0.00000000E+00
  0.00000000E+00  0.00000000E+00  0.00000000E+00
  0.00000000E+00  0.00000000E+00  0.00000000E+00
  0.00000000E+00  0.00000000E+00  0.00000000E+00
  0.00000000E+00  0.00000000E+00  0.00000000E+00
  0.00000000E+00  0.00000000E+00  0.00000000E+00
  0.00000000E+00  0.00000000E+00  0.00000000E+00
  0.00000000E+00  0.00000000E+00  0.00000000E+00
  0.00000000E+00  0.00000000E+00  0.00000000E+00
  0.00000000E+00  0.00000000E+00  0.00000000E+00
  0.00000000E+00  0.00000000E+00  0.00000000E+00
  0.00000000E+00  0.00000000E+00  0.00000000E+00
  0.00000000E+00  0.00000000E+00  0.00000000E+00
  0.00000000E+00  0.00000000E+00  0.00000000E+00
  0.00000000E+00  0.00000000E+00  0.00000000E+00
  0.00000000E+00  0.00000000E+00  0.00000000E+00
  0.00000000E+00  0.00000000E+00  0.00000000E+00
  0.00000000E+00  0.00000000E+00  0.00000000E+00
  0.00000000E+00  0.00000000E+00  0.00000000E+00
  0.00000000E+00  0.00000000E+00  0.00000000E+00
  0.00000000E+00  0.00000000E+00  0.00000000E+00
  0.00000000E+00  0.00000000E+00  0.00000000E+00
  0.00000000E+00  0.00000000E+00  0.00000000E+00
  0.00000000E+00  0.00000000E+00  0.00000000E+00
  0.00000000E+00  0.00000000E+00  0.00000000E+00
  0.00000000E+00  0.00000000E+00  0.00000000E+00
  0.00000000E+00  0.00000000E+00  0.00000000E+00
  0.00000000E+00  0.00000000E+00  0.00000000E+00
  0.00000000E+00  0.00000000E+00  0.00000000E+00
  0.00000000E+00  0.00000000E+00  0.00000000E+00
  0.00000000E+00  0.00000000E+00  0.00000000E+00
  0.00000000E+00  0.00000000E+00  0.00000000E+00
  0.00000000E+00  0.00000000E+00  0.00000000E+00
  0.00000000E+00  0.00000000E+00  0.00000000E+00
  0.00000000E+00  0.00000000E+00  0.00000000E+00
  0.00000000E+00  0.00000000E+00  0.00000000E+00
  0.00000000E+00  0.00000000E+00  0.00000000E+00
  0.00000000E+00  0.00000000E+00  0.00000000E+00
  0.00000000E+00  0.00000000E+00  0.00000000E+00
  0.00000000E+00  0.00000000E+00  0.00000000E+00
  0.00000000E+00  0.00000000E+00  0.00000000E+00
  0.00000000E+00  0.00000000E+00  0.00000000E+00
  0.00000000E+00  0.00000000E+00  0.00000000E+00
  0.00000000E+00  0.00000000E+00  0.00000000E+00
  0.00000000E+00  0.00000000E+00  0.00000000E+00
  0.00000000E+00  0.00000000E+00  0.00000000E+00
  0.00000000E+00  0.00000000E+00  0.00000000E+00
  0.00000000E+00  0.00000000E+00  0.00000000E+00
  0.00000000E+00  0.00000000E+00  0.00000000E+00
  0.00000000E+00  0.00000000E+00  0.00000000E+00
  0.00000000E+00  0.00000000E+00  0.00000000E+00
  0.00000000E+00  0.00000000E+00  0.00000000E+00
  0.00000000E+00  0.00000000E+00  0.00000000E+00
  0.00000000E+00  0.00000000E+00  0.00000000E+00
  0.00000000E+00  0.00000000E+00  0.00000000E+00
  0.00000000E+00  0.00000000E+00  0.00000000E+00
  0.00000000E+00  0.00000000E+00  0.00000000E+00
