Nb Ta                                   
    1.000000000000000     
    13.2285705085225178   -0.0017490824839471    0.0014710320571459
    -0.0017490901096667   13.2280971738603323    0.0004773747465065
     0.0014710454591421    0.0004774208904152   13.2288290820400007
   Nb   Ta
   124     4
Direct
  0.1245157654082650  0.8744500702793983  0.8755955272066309
  0.6256283031483854  0.6247993885282700  0.3744900496625415
  0.0000139287912189  0.7498627824575551  0.7498851233893449
 -0.0001793530184194  0.7497019678418760  0.0001807759834256
 -0.0000416949990643  0.5001161050026215  0.0000524804079867
  0.8750601272436178  0.6252381750481452  0.3751558758972656
  0.7499557131601787  0.0000706232973250  0.0000039605027128
 -0.0006021046965072  0.2507315237098658  0.7502112579538212
  0.8747874382992961  0.8746429322178615  0.3750183727998799
 -0.0000984898507391  0.7497825646337322  0.4999278450998847
  0.8749749145289113  0.3750468708357747  0.1249734885287283
  0.2501075350264758  0.2501250472051014  0.0002057479051895
  0.2500687182990675  0.2485514252449309  0.7509628696905642
  0.1252396889046229  0.8751136951990963  0.1249859735365663
  0.3751494880071007  0.1247378154093115  0.3748665080240423
  0.8748782734910671  0.3751352439167634  0.6249783269227902
  0.7484517803649078  0.7499797544660426  0.4999534826416087
  0.2498912798738570  0.7499569811923279  0.2498535293454701
  0.3750415471237405  0.8749836057527137  0.1249936932625961
  0.3750464744966109  0.3750377214146665  0.1249848715861095
  0.6250841903096332  0.6253393085495179  0.8751528956025841
  0.1250672754585133  0.3752405770980094  0.8750739793280445
  0.6255037520780552  0.8755325675942964  0.6255712112542163
  0.7500694242364674  0.7499672948819435 -0.0000730891900681
  0.7502229639592537  0.4996507671911533  0.7500680645602648
  0.7502211053111997  0.0003590124173436  0.7500757163289863
  0.1243238640892387  0.1252221230497511  0.8740873028445567
  0.8748805134523395  0.8748896531146826  0.6249912418374775
  0.6232692156439684  0.3750347372964945  0.6248469933165659
  0.1248983099392391  0.1246354358435633  0.3763863082812126
  0.4982627024805996  0.0002259192237506  0.7498332515318379
  0.2499602766811816  0.7498674806134701  0.0001596575999033
  0.7500244745736714  0.2500435573847706  0.7497197518979729
  0.2515753881511729  0.7498915036957567  0.5001679863374310
  0.1248348679372573  0.3751457596427966  0.3747254187550618
  0.1249834890847959  0.3751350723962797  0.1250582285214910
  0.5001722552573249  0.7498433459289717  0.0001760106491129
  0.5004100273284318  0.5019679464492349  0.4995716842784823
  0.6250517407423795  0.1247991476025195  0.3748929176185816
  0.6249974747160935  0.1247452963941087  0.6249770682563582
  0.3751323006596574  0.8748763590290290  0.6249783578490522
  0.6249805340840162  0.3748178402233890  0.1249175297721030
  0.2499739550326635  0.2501341951297057  0.4989339387848769
  0.7501087988744001  0.7501222475468929  0.2499731108399859
  0.6251320907132618  0.3750366911366466  0.8751851783464938
  0.5006020776575792  0.2495247732490588  0.7503442078938566
  0.2504871090583302 -0.0003933532691506  0.5012473971027835
  0.0010791804019800 -0.0004559655792293  0.7505131996611231
  0.6250262031725662  0.1249653709975429  0.1249896848628992
  0.7498959816253655  0.2500344911950521  0.0000565193192300
  0.6254506954539314  0.8754076825928901  0.3745170819832223
  0.8747123739477763  0.3753044486581308  0.8752219408860222
  0.7501197610264166  0.4997501261235253  0.5002594784024501
  0.1250836861054987  0.8748828448657371  0.3749766254804746
  0.8766432871011843  0.1247936323122593  0.6251315402956947
  0.3745843668299320  0.6246474060177405  0.3744015194688193
  0.4999788364335808  0.7500325667567241  0.2516038596046461
  0.5001434556742127  0.0000293496768612  0.0001615792674371
  0.2496271696497250  0.0003631320735420  0.2497343495884531
  0.6247436413393415  0.8749915455257227  0.1249821459971434
  0.2493028666846029  0.5003254637994951  0.4996618892556713
  0.4999994883127645  0.7499010348683772  0.7482832960175653
  0.3750308610203142  0.6251668356605994  0.1249745589186874
  0.3740048407829266  0.1269948148752953  0.6243882749795575
  0.1266857457236388  0.3734180288475261  0.6251008446791481
  0.3750305674694897  0.6252254423586965  0.8750445199013841
  0.6252340407763046  0.1246328309616060  0.8751420879681765
  0.0000858296554066  0.0000938652402240  0.0001002825185769
  0.7502922646631101  0.4997202343159003  0.2498291836031466
  0.4996765469288376  0.4996798391776626  0.2499092738540010
  0.1249907534878271  0.6252342689025172  0.6249896393730079
  0.2498321084465784  0.0001570678197841 -0.0015586937475888
  0.7500422172017764  0.2500210235758850  0.5002803657211049
  0.2501235238969595  0.4998438169892523  0.0000811292872190
  0.6248013843026854  0.6252373730218873  0.1248868656473342
  0.5000084237489721 -0.0015059246016868  0.5001664311114531
  0.0000313894871858  0.7499070784107379  0.2499886966378558
  0.3744980182367985  0.6230066991539693  0.6255494568854535
 -0.0005877128972021 -0.0004268909105284  0.4994147187172374
  0.1249177603581593  0.6251869418836157  0.8751255391252002
  0.8752080738113539  0.6249267075446528  0.1249131331209561
  0.6249053354248297  0.8749818510383014  0.8749458803276642
  0.8748753791677052  0.1249882866335953  0.3748388717061917
  0.0001061287041093  0.4998339936249008  0.5002722883207579
  0.2499717849519678  0.2500445614902896  0.2499191380867237
  0.2498792128707533  0.7516110716708503  0.7498136268409391
  0.3746537604937188  0.8753645306857121  0.3742806780744329
  0.4998919068888016  0.2501716196128670  0.2499164818506057
  0.0000969089994027  0.4999860563310597  0.2499361674430113
  0.8749805463690602  0.8749746992407049  0.1249862704461158
  0.7501635821285839  0.0003008672791310  0.2498179677597622
  0.0000759953868523  0.4998472691949426  0.7497329293970231
  0.3749173595865450  0.1247962475679412  0.1249954430027982
  0.3753620956001177  0.3752071447778926  0.3764790121573466
  0.1244455561481233  0.8760225996597432  0.6243780475255032
  0.5000930895662643  0.2503608863985590  0.0002518362216727
  0.7501315502191770  0.7499552791956229  0.7501357483825279
  0.8748740529218925  0.3751549098005653  0.3747929365188293
  0.0001078918197645  0.2498823832749727  0.2500611497523416
  0.8749687385508027  0.6251898023492629  0.6248330867660831
  0.1251677424426215  0.1247504344317580  0.1250743642214086
  0.6255635457127328  0.6246487899076263  0.6254524802850453
 -0.0000823658112200  0.2500668129391351  0.0002487200943861
  0.8749826056187527  0.6250048302072549  0.8750827573107571
  0.5006488627859033  0.2496565770087367  0.4995154629773484
  0.7500227113020201  0.2498918631287463  0.2499354252851349
  0.5004948992568110  0.5003116866586640  0.7505733353302579
  0.7501215977600917  0.0002536080605806  0.5001024483747251
  0.0001553576991169  0.0002334116196825  0.2500165056888676
  0.8748885795517494  0.1250581010552123  0.1250597587205826
  0.7500919586262403  0.4999193075096360 -0.0001548571825074
  0.2492021139717914  0.5002348945839171  0.7505059448237068
  0.4998273312553742  0.4997252281600118 -0.0000087882607768
 -0.0006996652300586  0.2508137011657084  0.4994571205364804
  0.3755972975678604  0.1253456308468389  0.8757281408095883
  0.5000554481678371  0.0001010356106774  0.2498595037693959
  0.1247276044595657  0.6253502970315610  0.3748776016284919
  0.6249017727006374  0.3749520235661890  0.3750489118421367
  0.1249604834530727  0.6250039757253899  0.1249822539823051
  0.2499111608581907  0.4996442311788588  0.2497513253475553
  0.8747924050295214  0.1247455456825282  0.8749499161198803
  0.3758300932995992  0.8741942313611510  0.8757606504523024
  0.8747929230547585  0.8749302015125162  0.8749859266060918
  0.3751013061106124  0.3752509702902888  0.8735369692834234
  0.1244586792897430  0.1253864965948886  0.6246014942251119
  0.2503898707828162 -0.0001672973868678  0.7505280685160512
  0.5000909339492607  0.7497086807402690  0.4999373671762266
  0.3750867285628062  0.3750979348027910  0.6250605325165435
 
  0.00000000E+00  0.00000000E+00  0.00000000E+00
  0.00000000E+00  0.00000000E+00  0.00000000E+00
  0.00000000E+00  0.00000000E+00  0.00000000E+00
  0.00000000E+00  0.00000000E+00  0.00000000E+00
  0.00000000E+00  0.00000000E+00  0.00000000E+00
  0.00000000E+00  0.00000000E+00  0.00000000E+00
  0.00000000E+00  0.00000000E+00  0.00000000E+00
  0.00000000E+00  0.00000000E+00  0.00000000E+00
  0.00000000E+00  0.00000000E+00  0.00000000E+00
  0.00000000E+00  0.00000000E+00  0.00000000E+00
  0.00000000E+00  0.00000000E+00  0.00000000E+00
  0.00000000E+00  0.00000000E+00  0.00000000E+00
  0.00000000E+00  0.00000000E+00  0.00000000E+00
  0.00000000E+00  0.00000000E+00  0.00000000E+00
  0.00000000E+00  0.00000000E+00  0.00000000E+00
  0.00000000E+00  0.00000000E+00  0.00000000E+00
  0.00000000E+00  0.00000000E+00  0.00000000E+00
  0.00000000E+00  0.00000000E+00  0.00000000E+00
  0.00000000E+00  0.00000000E+00  0.00000000E+00
  0.00000000E+00  0.00000000E+00  0.00000000E+00
  0.00000000E+00  0.00000000E+00  0.00000000E+00
  0.00000000E+00  0.00000000E+00  0.00000000E+00
  0.00000000E+00  0.00000000E+00  0.00000000E+00
  0.00000000E+00  0.00000000E+00  0.00000000E+00
  0.00000000E+00  0.00000000E+00  0.00000000E+00
  0.00000000E+00  0.00000000E+00  0.00000000E+00
  0.00000000E+00  0.00000000E+00  0.00000000E+00
  0.00000000E+00  0.00000000E+00  0.00000000E+00
  0.00000000E+00  0.00000000E+00  0.00000000E+00
  0.00000000E+00  0.00000000E+00  0.00000000E+00
  0.00000000E+00  0.00000000E+00  0.00000000E+00
  0.00000000E+00  0.00000000E+00  0.00000000E+00
  0.00000000E+00  0.00000000E+00  0.00000000E+00
  0.00000000E+00  0.00000000E+00  0.00000000E+00
  0.00000000E+00  0.00000000E+00  0.00000000E+00
  0.00000000E+00  0.00000000E+00  0.00000000E+00
  0.00000000E+00  0.00000000E+00  0.00000000E+00
  0.00000000E+00  0.00000000E+00  0.00000000E+00
  0.00000000E+00  0.00000000E+00  0.00000000E+00
  0.00000000E+00  0.00000000E+00  0.00000000E+00
  0.00000000E+00  0.00000000E+00  0.00000000E+00
  0.00000000E+00  0.00000000E+00  0.00000000E+00
  0.00000000E+00  0.00000000E+00  0.00000000E+00
  0.00000000E+00  0.00000000E+00  0.00000000E+00
  0.00000000E+00  0.00000000E+00  0.00000000E+00
  0.00000000E+00  0.00000000E+00  0.00000000E+00
  0.00000000E+00  0.00000000E+00  0.00000000E+00
  0.00000000E+00  0.00000000E+00  0.00000000E+00
  0.00000000E+00  0.00000000E+00  0.00000000E+00
  0.00000000E+00  0.00000000E+00  0.00000000E+00
  0.00000000E+00  0.00000000E+00  0.00000000E+00
  0.00000000E+00  0.00000000E+00  0.00000000E+00
  0.00000000E+00  0.00000000E+00  0.00000000E+00
  0.00000000E+00  0.00000000E+00  0.00000000E+00
  0.00000000E+00  0.00000000E+00  0.00000000E+00
  0.00000000E+00  0.00000000E+00  0.00000000E+00
  0.00000000E+00  0.00000000E+00  0.00000000E+00
  0.00000000E+00  0.00000000E+00  0.00000000E+00
  0.00000000E+00  0.00000000E+00  0.00000000E+00
  0.00000000E+00  0.00000000E+00  0.00000000E+00
  0.00000000E+00  0.00000000E+00  0.00000000E+00
  0.00000000E+00  0.00000000E+00  0.00000000E+00
  0.00000000E+00  0.00000000E+00  0.00000000E+00
  0.00000000E+00  0.00000000E+00  0.00000000E+00
  0.00000000E+00  0.00000000E+00  0.00000000E+00
  0.00000000E+00  0.00000000E+00  0.00000000E+00
  0.00000000E+00  0.00000000E+00  0.00000000E+00
  0.00000000E+00  0.00000000E+00  0.00000000E+00
  0.00000000E+00  0.00000000E+00  0.00000000E+00
  0.00000000E+00  0.00000000E+00  0.00000000E+00
  0.00000000E+00  0.00000000E+00  0.00000000E+00
  0.00000000E+00  0.00000000E+00  0.00000000E+00
  0.00000000E+00  0.00000000E+00  0.00000000E+00
  0.00000000E+00  0.00000000E+00  0.00000000E+00
  0.00000000E+00  0.00000000E+00  0.00000000E+00
  0.00000000E+00  0.00000000E+00  0.00000000E+00
  0.00000000E+00  0.00000000E+00  0.00000000E+00
  0.00000000E+00  0.00000000E+00  0.00000000E+00
  0.00000000E+00  0.00000000E+00  0.00000000E+00
  0.00000000E+00  0.00000000E+00  0.00000000E+00
  0.00000000E+00  0.00000000E+00  0.00000000E+00
  0.00000000E+00  0.00000000E+00  0.00000000E+00
  0.00000000E+00  0.00000000E+00  0.00000000E+00
  0.00000000E+00  0.00000000E+00  0.00000000E+00
  0.00000000E+00  0.00000000E+00  0.00000000E+00
  0.00000000E+00  0.00000000E+00  0.00000000E+00
  0.00000000E+00  0.00000000E+00  0.00000000E+00
  0.00000000E+00  0.00000000E+00  0.00000000E+00
  0.00000000E+00  0.00000000E+00  0.00000000E+00
  0.00000000E+00  0.00000000E+00  0.00000000E+00
  0.00000000E+00  0.00000000E+00  0.00000000E+00
  0.00000000E+00  0.00000000E+00  0.00000000E+00
  0.00000000E+00  0.00000000E+00  0.00000000E+00
  0.00000000E+00  0.00000000E+00  0.00000000E+00
  0.00000000E+00  0.00000000E+00  0.00000000E+00
  0.00000000E+00  0.00000000E+00  0.00000000E+00
  0.00000000E+00  0.00000000E+00  0.00000000E+00
  0.00000000E+00  0.00000000E+00  0.00000000E+00
  0.00000000E+00  0.00000000E+00  0.00000000E+00
  0.00000000E+00  0.00000000E+00  0.00000000E+00
  0.00000000E+00  0.00000000E+00  0.00000000E+00
  0.00000000E+00  0.00000000E+00  0.00000000E+00
  0.00000000E+00  0.00000000E+00  0.00000000E+00
  0.00000000E+00  0.00000000E+00  0.00000000E+00
  0.00000000E+00  0.00000000E+00  0.00000000E+00
  0.00000000E+00  0.00000000E+00  0.00000000E+00
  0.00000000E+00  0.00000000E+00  0.00000000E+00
  0.00000000E+00  0.00000000E+00  0.00000000E+00
  0.00000000E+00  0.00000000E+00  0.00000000E+00
  0.00000000E+00  0.00000000E+00  0.00000000E+00
  0.00000000E+00  0.00000000E+00  0.00000000E+00
  0.00000000E+00  0.00000000E+00  0.00000000E+00
  0.00000000E+00  0.00000000E+00  0.00000000E+00
  0.00000000E+00  0.00000000E+00  0.00000000E+00
  0.00000000E+00  0.00000000E+00  0.00000000E+00
  0.00000000E+00  0.00000000E+00  0.00000000E+00
  0.00000000E+00  0.00000000E+00  0.00000000E+00
  0.00000000E+00  0.00000000E+00  0.00000000E+00
  0.00000000E+00  0.00000000E+00  0.00000000E+00
  0.00000000E+00  0.00000000E+00  0.00000000E+00
  0.00000000E+00  0.00000000E+00  0.00000000E+00
  0.00000000E+00  0.00000000E+00  0.00000000E+00
  0.00000000E+00  0.00000000E+00  0.00000000E+00
  0.00000000E+00  0.00000000E+00  0.00000000E+00
  0.00000000E+00  0.00000000E+00  0.00000000E+00
  0.00000000E+00  0.00000000E+00  0.00000000E+00
  0.00000000E+00  0.00000000E+00  0.00000000E+00
  0.00000000E+00  0.00000000E+00  0.00000000E+00
