Hf Ta                                   
    1.000000000000000     
    13.8421034289373175    0.0154718506095855    0.0142287396214599
    -6.9313902790420805   10.0811940232275248   -0.0107824011353471
     0.0200162526799948   -0.0055524163024063   19.3165730215479527
  Hf             Ta           
              88              40
Direct
  0.8194267678352319  0.1557687742613747  0.0628506400761013
  0.5723462481732075  0.9066827508028132  0.3176541173720514
  0.9283143117874656  0.1169632241524455  0.4322677386554546
  0.0733128124606530  0.1382638188537877  0.0545233814944572
  0.8209624087437474  0.6648725269746397  0.3129996543999440
  0.5649238450982198  0.4044417361656611  0.5619545675728305
  0.6731562767007579  0.0935506358854604  0.9336085220014289
  0.1813885274836287  0.3524388657973276  0.6923265614348687
  0.3242261971694272  0.1464196077664909  0.3135361723953990
  0.6660563513674109  0.8474157026127007  0.1889717695059106
  0.3153577571065915  0.3816162227809000  0.0684069393450182
  0.1659908905288953  0.5962313097453581  0.9370716258246911
  0.6825764708937739  0.8566636344362579  0.6863422561222546
  0.1768382615851959  0.3552776797860892  0.9347771391290967
  0.3215422209850275  0.8993339425117105  0.5697401029525626
  0.0655798410344298  0.8861559955405000  0.0652477029162423
  0.9265230902687780  0.6165272150685158  0.1882043690467000
  0.6786593678943937  0.3530774657057938  0.4437714733929956
  0.3275810766730011  0.6392790063666833  0.0582606666032233
  0.0724071711862719  0.3915382682553393  0.0655431107014706
  0.8127269964640883  0.3835466692283853  0.3133816130155350
  0.3351331681440193  0.4000723536378442  0.8178687946739972
  0.0947743324734433  0.6631728600715565  0.0700429107307670
  0.9304250818001654  0.6214608006610439  0.9441818114191178
  0.5611787668092403  0.6318481728852653  0.0624898310158813
  0.5726579820428462  0.3906178548226774  0.3109971492847496
  0.9241009724357694  0.0975751399003577  0.1822082369426280
  0.0710085951838578  0.6418662559977424  0.5575464318229700
  0.3358902772707251  0.9047052097688171  0.3093814463341604
  0.4221675481666128  0.8444026543405051  0.9328409605356359
  0.8203936313789605  0.6394121152417785  0.5664473611646531
  0.0712571928463592  0.3959845276608677  0.5650445436194121
  0.1888604590976842  0.8465159074801408  0.4373448797085530
  0.8377028079466303  0.4221488997464999  0.0626373961386530
  0.0731160586381900  0.6487380746572929  0.8141050893702778
  0.5764842731105295  0.1532934470244460  0.5641454234718543
  0.5798565483411249  0.8979840099374914  0.0564330116616373
  0.0848802640039710  0.6506912656432422  0.3092803102266121
  0.5890845015182348  0.1635146330845166  0.0616610327278110
  0.3257618089827443  0.6454799432602958  0.3198698820877308
  0.0743845655643961  0.1391326764801862  0.8166875304864988
  0.3219599996595136  0.3923771337110196  0.5579693616343495
  0.1752265384614234  0.1049528114823787  0.4384882786033067
  0.9089505966564544  0.0947257085725004  0.9353917432557838
  0.8120278730078403  0.8817619310674896  0.0601160018058017
  0.5624300895735155  0.8899901036983452  0.5649761610984673
  0.8228578736908505  0.6467339668451348  0.8080690849687436
  0.6773499700539742  0.1039750317985292  0.6903815585975990
  0.6635463644969530  0.1023737677206331  0.1948345016388117
  0.4352995665717567  0.5986896929292872  0.4423597413404936
  0.8234341884354278  0.1488083447462303  0.5632131159250456
  0.0714371223091051  0.8896762139989823  0.3145556204387360
  0.9261538748786122  0.1080822205868516  0.6925841906850954
  0.5816302695269876  0.6609169279431142  0.8093112930281240
  0.3215708806306505  0.3898926051413845  0.3168847034811690
  0.0621327181429883  0.3793257418973465  0.3175392371928261
  0.9186567449676873  0.3540266674560433  0.9313978072077627
  0.6782568080889807  0.5997584218502240  0.1867268263963953
  0.3338555297250401  0.9053222627174876  0.0644585527127765
  0.6900330313668964  0.6176417130930980  0.9378249965124364
  0.1834832321636968  0.6102384235659378  0.6878835841083933
  0.3234916020951737  0.6450903930685501  0.8128682701842460
  0.9320469721251163  0.5965185629487491  0.6882219745620237
  0.6851963940694655  0.8569420928277999  0.4374062069813636
  0.0717735819276495  0.8917403805170144  0.5582202361891888
  0.5673821073841094  0.6471155468682898  0.3086748950436434
  0.4211426821929567  0.0978176358279582  0.9400523980314810
  0.9264577890277452  0.6112098053975201  0.4320778352397946
  0.4273066671367351  0.6132723983063691  0.6779118374853351
  0.1781128417334989  0.0909680246018564  0.6856408604614090
  0.9446002932384872  0.8743211417020794  0.9277083550853504
  0.3136464257992304  0.6523451573471216  0.5496031942971976
  0.6838781272456880  0.3633806068128352  0.9348700949544166
  0.9167312564196634  0.3449589385539387  0.1896001766161499
  0.6833253283649869  0.1112781271916368  0.4351245345602917
  0.4256971610002854  0.8331527014345641  0.1862974101965720
  0.5714626895878213  0.1493610285152386  0.8129690193844439
  0.9218450182136312  0.8525039113340324  0.6883177923410957
  0.4354122821094980  0.1167749644736119  0.1868537679111390
  0.5690754179810852  0.4025937322826131  0.8117555667187331
  0.1794870970589202  0.5874047575172264  0.1893902852589268
  0.0728627079083679  0.1389319146194600  0.3055546097043111
  0.0708895653249048  0.1479557376825213  0.5623896113163500
  0.4161657045837853  0.3465993313225313  0.6866713562907086
  0.6717726522048669  0.6024455333730212  0.4398138767414662
  0.6806467056922391  0.3625390695519609  0.6860186305220384
  0.4190850122971803  0.0980405630595149  0.6888159928468095
  0.4365966196674401  0.3548906498303403  0.9450356310811394
  0.1754047416716897  0.3378208286798811  0.1910641868829951
  0.6789322871614909  0.3587022062863503  0.1804933000880052
  0.3284100506703225  0.1503987336128814  0.5584586085350161
  0.8230873375442211  0.3906583013216156  0.8056734773741770
  0.9285017764899588  0.3561988538295199  0.6912459079119084
  0.8295212421775316  0.8890487626099340  0.5577688578877323
  0.1828339233002223  0.8604131659491026  0.1870220551921850
  0.9285343810073730  0.8615028518187782  0.1925529662760961
  0.5672412038588843  0.1499733022768053  0.3229088866927061
  0.4268543796522856  0.3554835576830151  0.1889160582517646
  0.8296113246113945  0.3935396991637874  0.5674243898116769
  0.3190961836558679  0.8957558902384438  0.8128976245803059
  0.1872156848698080  0.1101644568931059  0.1819122723509167
  0.8212173139944949  0.1388532207004881  0.3045613954984810
  0.6708338364003955  0.8496855263266543  0.9265488946304564
  0.8215416360596507  0.1461627392736177  0.8122792818097954
  0.4311004167692326  0.8596849439559040  0.6988910960516541
  0.4077482976646175  0.5782397761274471  0.1890687531109996
  0.1607793912303761  0.5822131206227742  0.4342847146721947
  0.4238598117839338  0.3359783041246796  0.4368716364981576
  0.5921744272437576  0.6649248001632853  0.5651229624765982
  0.4273711460449366  0.8654861861867396  0.4398901938404219
  0.5771224052211282  0.9031130010950994  0.8110206948403819
  0.4314580929056026  0.1077331644586688  0.4404185785211794
  0.1935454238542461  0.1063965973660327  0.9386452470149738
  0.1747615513522108  0.3555667550998278  0.4420010438561203
  0.3182756726903780  0.1405942322618360  0.0623008012067240
  0.1768626473574329  0.8515189692483267  0.6957496892746280
  0.1796166389482141  0.8654043496464534  0.9320291676978616
  0.9191087631891339  0.8623389882527772  0.4339898055817181
  0.9250797213682983  0.3654772781083279  0.4460608847176896
  0.6676559562142169  0.5996312497104154  0.6862039981913206
  0.8242820555923336  0.9028734356075644  0.3076479155536555
  0.8249970725448326  0.9083143954481625  0.8113264544101334
  0.3146584943597863  0.1304354845670438  0.8153934686069901
  0.0827197046313606  0.8990345208158621  0.8071045196539202
  0.5660425055793628  0.3857498547830356  0.0709220957304350
  0.4349365323471900  0.6032658719318864  0.9313721754020025
  0.0665005076087401  0.3916963019370001  0.8101595689190121
  0.8051066063786677  0.6358629170258067  0.0663114323774309
 
  0.00000000E+00  0.00000000E+00  0.00000000E+00
  0.00000000E+00  0.00000000E+00  0.00000000E+00
  0.00000000E+00  0.00000000E+00  0.00000000E+00
  0.00000000E+00  0.00000000E+00  0.00000000E+00
  0.00000000E+00  0.00000000E+00  0.00000000E+00
  0.00000000E+00  0.00000000E+00  0.00000000E+00
  0.00000000E+00  0.00000000E+00  0.00000000E+00
  0.00000000E+00  0.00000000E+00  0.00000000E+00
  0.00000000E+00  0.00000000E+00  0.00000000E+00
  0.00000000E+00  0.00000000E+00  0.00000000E+00
  0.00000000E+00  0.00000000E+00  0.00000000E+00
  0.00000000E+00  0.00000000E+00  0.00000000E+00
  0.00000000E+00  0.00000000E+00  0.00000000E+00
  0.00000000E+00  0.00000000E+00  0.00000000E+00
  0.00000000E+00  0.00000000E+00  0.00000000E+00
  0.00000000E+00  0.00000000E+00  0.00000000E+00
  0.00000000E+00  0.00000000E+00  0.00000000E+00
  0.00000000E+00  0.00000000E+00  0.00000000E+00
  0.00000000E+00  0.00000000E+00  0.00000000E+00
  0.00000000E+00  0.00000000E+00  0.00000000E+00
  0.00000000E+00  0.00000000E+00  0.00000000E+00
  0.00000000E+00  0.00000000E+00  0.00000000E+00
  0.00000000E+00  0.00000000E+00  0.00000000E+00
  0.00000000E+00  0.00000000E+00  0.00000000E+00
  0.00000000E+00  0.00000000E+00  0.00000000E+00
  0.00000000E+00  0.00000000E+00  0.00000000E+00
  0.00000000E+00  0.00000000E+00  0.00000000E+00
  0.00000000E+00  0.00000000E+00  0.00000000E+00
  0.00000000E+00  0.00000000E+00  0.00000000E+00
  0.00000000E+00  0.00000000E+00  0.00000000E+00
  0.00000000E+00  0.00000000E+00  0.00000000E+00
  0.00000000E+00  0.00000000E+00  0.00000000E+00
  0.00000000E+00  0.00000000E+00  0.00000000E+00
  0.00000000E+00  0.00000000E+00  0.00000000E+00
  0.00000000E+00  0.00000000E+00  0.00000000E+00
  0.00000000E+00  0.00000000E+00  0.00000000E+00
  0.00000000E+00  0.00000000E+00  0.00000000E+00
  0.00000000E+00  0.00000000E+00  0.00000000E+00
  0.00000000E+00  0.00000000E+00  0.00000000E+00
  0.00000000E+00  0.00000000E+00  0.00000000E+00
  0.00000000E+00  0.00000000E+00  0.00000000E+00
  0.00000000E+00  0.00000000E+00  0.00000000E+00
  0.00000000E+00  0.00000000E+00  0.00000000E+00
  0.00000000E+00  0.00000000E+00  0.00000000E+00
  0.00000000E+00  0.00000000E+00  0.00000000E+00
  0.00000000E+00  0.00000000E+00  0.00000000E+00
  0.00000000E+00  0.00000000E+00  0.00000000E+00
  0.00000000E+00  0.00000000E+00  0.00000000E+00
  0.00000000E+00  0.00000000E+00  0.00000000E+00
  0.00000000E+00  0.00000000E+00  0.00000000E+00
  0.00000000E+00  0.00000000E+00  0.00000000E+00
  0.00000000E+00  0.00000000E+00  0.00000000E+00
  0.00000000E+00  0.00000000E+00  0.00000000E+00
  0.00000000E+00  0.00000000E+00  0.00000000E+00
  0.00000000E+00  0.00000000E+00  0.00000000E+00
  0.00000000E+00  0.00000000E+00  0.00000000E+00
  0.00000000E+00  0.00000000E+00  0.00000000E+00
  0.00000000E+00  0.00000000E+00  0.00000000E+00
  0.00000000E+00  0.00000000E+00  0.00000000E+00
  0.00000000E+00  0.00000000E+00  0.00000000E+00
  0.00000000E+00  0.00000000E+00  0.00000000E+00
  0.00000000E+00  0.00000000E+00  0.00000000E+00
  0.00000000E+00  0.00000000E+00  0.00000000E+00
  0.00000000E+00  0.00000000E+00  0.00000000E+00
  0.00000000E+00  0.00000000E+00  0.00000000E+00
  0.00000000E+00  0.00000000E+00  0.00000000E+00
  0.00000000E+00  0.00000000E+00  0.00000000E+00
  0.00000000E+00  0.00000000E+00  0.00000000E+00
  0.00000000E+00  0.00000000E+00  0.00000000E+00
  0.00000000E+00  0.00000000E+00  0.00000000E+00
  0.00000000E+00  0.00000000E+00  0.00000000E+00
  0.00000000E+00  0.00000000E+00  0.00000000E+00
  0.00000000E+00  0.00000000E+00  0.00000000E+00
  0.00000000E+00  0.00000000E+00  0.00000000E+00
  0.00000000E+00  0.00000000E+00  0.00000000E+00
  0.00000000E+00  0.00000000E+00  0.00000000E+00
  0.00000000E+00  0.00000000E+00  0.00000000E+00
  0.00000000E+00  0.00000000E+00  0.00000000E+00
  0.00000000E+00  0.00000000E+00  0.00000000E+00
  0.00000000E+00  0.00000000E+00  0.00000000E+00
  0.00000000E+00  0.00000000E+00  0.00000000E+00
  0.00000000E+00  0.00000000E+00  0.00000000E+00
  0.00000000E+00  0.00000000E+00  0.00000000E+00
  0.00000000E+00  0.00000000E+00  0.00000000E+00
  0.00000000E+00  0.00000000E+00  0.00000000E+00
  0.00000000E+00  0.00000000E+00  0.00000000E+00
  0.00000000E+00  0.00000000E+00  0.00000000E+00
  0.00000000E+00  0.00000000E+00  0.00000000E+00
  0.00000000E+00  0.00000000E+00  0.00000000E+00
  0.00000000E+00  0.00000000E+00  0.00000000E+00
  0.00000000E+00  0.00000000E+00  0.00000000E+00
  0.00000000E+00  0.00000000E+00  0.00000000E+00
  0.00000000E+00  0.00000000E+00  0.00000000E+00
  0.00000000E+00  0.00000000E+00  0.00000000E+00
  0.00000000E+00  0.00000000E+00  0.00000000E+00
  0.00000000E+00  0.00000000E+00  0.00000000E+00
  0.00000000E+00  0.00000000E+00  0.00000000E+00
  0.00000000E+00  0.00000000E+00  0.00000000E+00
  0.00000000E+00  0.00000000E+00  0.00000000E+00
  0.00000000E+00  0.00000000E+00  0.00000000E+00
  0.00000000E+00  0.00000000E+00  0.00000000E+00
  0.00000000E+00  0.00000000E+00  0.00000000E+00
  0.00000000E+00  0.00000000E+00  0.00000000E+00
  0.00000000E+00  0.00000000E+00  0.00000000E+00
  0.00000000E+00  0.00000000E+00  0.00000000E+00
  0.00000000E+00  0.00000000E+00  0.00000000E+00
  0.00000000E+00  0.00000000E+00  0.00000000E+00
  0.00000000E+00  0.00000000E+00  0.00000000E+00
  0.00000000E+00  0.00000000E+00  0.00000000E+00
  0.00000000E+00  0.00000000E+00  0.00000000E+00
  0.00000000E+00  0.00000000E+00  0.00000000E+00
  0.00000000E+00  0.00000000E+00  0.00000000E+00
  0.00000000E+00  0.00000000E+00  0.00000000E+00
  0.00000000E+00  0.00000000E+00  0.00000000E+00
  0.00000000E+00  0.00000000E+00  0.00000000E+00
  0.00000000E+00  0.00000000E+00  0.00000000E+00
  0.00000000E+00  0.00000000E+00  0.00000000E+00
  0.00000000E+00  0.00000000E+00  0.00000000E+00
  0.00000000E+00  0.00000000E+00  0.00000000E+00
  0.00000000E+00  0.00000000E+00  0.00000000E+00
  0.00000000E+00  0.00000000E+00  0.00000000E+00
  0.00000000E+00  0.00000000E+00  0.00000000E+00
  0.00000000E+00  0.00000000E+00  0.00000000E+00
  0.00000000E+00  0.00000000E+00  0.00000000E+00
  0.00000000E+00  0.00000000E+00  0.00000000E+00
  0.00000000E+00  0.00000000E+00  0.00000000E+00
  0.00000000E+00  0.00000000E+00  0.00000000E+00
  0.00000000E+00  0.00000000E+00  0.00000000E+00
