Nb  V                                   
    1.000000000000000     
    13.0614840866181474    0.0166126383028788    0.0026549807279978
     0.0166047397844737   13.0533251633384531    0.0091227942346324
     0.0026612025687474    0.0091250230070230   13.0639202165075101
   Nb   V 
   108    20
Direct
  0.6219278995869967  0.3708040974117628  0.1235781999171979
  0.2496937718330097  0.7498155364441863  0.7482535318262266
  0.1270910891071200  0.8782410103188628  0.6204717514036809
  0.7466805512887421 -0.0021086425887524  0.4996001301244958
  0.0000279447860994  0.0023720820187420  0.7486130810263639
  0.3771998922884245  0.6232745266849979  0.6229154226255502
  0.2539546503533131  0.2497504656325170  0.0054820941270272
  0.7513233602032552  0.4971041336105089  0.2549132346721993
  0.6223385783222882  0.1265046676054603  0.3749855620740718
  0.2513236960477024  0.4963375556275248  0.2478222688882659
  0.3767307484523325  0.6242837833995595  0.3762985456123729
  0.1235010695365618  0.6239916847373438  0.3761262164623554
  0.1235044171450955  0.1278475910857108  0.8735539699921983
  0.7518966733945690  0.2508684709442316  0.7499561202265544
  0.4997120068611505 -0.0028292323268741  0.4969880810773772
  0.6247370567481986  0.1286268163496729  0.8786262380022115
  0.0040330817059839  0.0011652598946826  0.4972363916380018
  0.5011638991510654 -0.0004683482128271  0.7460408561376715
  0.0011335608305420  0.2493989213623046  0.0008223151340406
  0.8775570211947360  0.1299538041813326  0.3769665762670072
 -0.0014827260753880  0.4986012433783134  0.7489598856691582
  0.2483529176299637  0.2501141282640086  0.7491782697226180
 -0.0021556312875124  0.7473071592204805  0.7502592165917208
  0.6239324465093929  0.3766417257418875  0.3795860373872748
  0.7465073093233532  0.7513582225902133  0.4998012786616139
  0.8743944139936357  0.6198885504082706  0.6228537604755764
  0.1249508365940024  0.8752295953564366  0.8739396952416930
 -0.0009441627950147  0.4973760781474293  0.2543485263080357
  0.7481090795192155 -0.0011295690891599  0.7467752371308906
  0.3745648970054505  0.3743705590181872  0.8800514925573677
  0.3739810471215623  0.6225380238735312  0.8768373369257277
  0.6245770856557695  0.3765844146095854  0.6201053733966694
  0.4966620977855757  0.4947557776257850  0.0023334433846851
  0.3719562469157146  0.1273641829165569  0.6187585747773239
  0.0053840159724929  0.0021833634593462  0.2512435267924958
  0.7511279037488727  0.4982428779834808 -0.0012229468488592
  0.7500200065885546  0.7487306278427398  0.7481399242257956
  0.6250248768476212  0.8758297339378940  0.8721385556853046
  0.1209424013700840  0.3702341660856399  0.6211342069284824
  0.0000461035639605  0.4997029646439647 -0.0011597452916333
  0.7504440207569310  0.2517846530898215  0.2506625640119241
  0.1215698130740606  0.3721676722154338  0.3806600733164653
  0.7525513732508929  0.5007723480807387  0.7487176081198054
  0.3745770017113786  0.8756279173695858  0.8745854415031314
  0.3756073344432161  0.3722300868015577  0.3778706931687160
  0.1248752954575877  0.6220107355314342  0.8764970940051762
  0.6267770740216612  0.6232402911263970  0.8739127718955230
  0.0024785138517153  0.7517569997934015  0.2525534712482747
  0.7482903555127549  0.7501600566402631  0.2530517250131308
  0.6243448788751189  0.8762178805341229  0.1277888194384899
  0.6243989447170799  0.6231802641978058  0.1267316866859112
  0.6261016436066054  0.6223893240218406  0.3788705343221835
  0.1231409028248407  0.6215812391967912  0.6235464069575879
  0.8746250285467134  0.6191381761350405  0.3792043839342472
  0.1264171066064214  0.8768883349199145  0.1284871154888921
  0.2493090316374891  0.4982574899302360  0.4993340128688308
  0.8740485967097507  0.8749794056392499  0.6239073946468260
  0.2513471781938462  0.7562220470527974  0.4959485800593327
  0.0016824461550664  0.7493326594227190  0.4989513036434149
  0.7512240605301843  0.7472334580974705 -0.0025260194087038
  0.0025473722994042  0.0025967871301986  0.0018308184031325
  0.4972033265805355  0.0051745492780047  0.0028381118545770
  0.8747161745364117  0.1273086218356681  0.1237591696695444
  0.2497864696202536  0.4986400884941512  0.7512327357183960
  0.8746649943361240  0.8754618681424987  0.1258975616079901
  0.3726863966186130  0.1260720953686329  0.3779025443418871
  0.3749202663224639  0.8780528869939964  0.1286861695261847
  0.3764254701826737  0.3721653494984679  0.6201384320054412
  0.4970277573131921  0.0004834186222855  0.2531561317420406
  0.7476229377693475 -0.0001427255227568  0.2526030275609505
  0.0010589666635572  0.2499758859697813  0.2529412671264029
  0.7514527792975360  0.2531927198503791  0.4984306070088549
  0.2495994818625243  0.0054648057902940  0.0054324309155901
  0.8745068595218581  0.8738574277452150  0.8738226301784237
  0.1252746435435670  0.3741959280610859  0.8744130556018403
  0.2502728486661687  0.0014747099164413  0.7469489237529775
  0.6264594065749958  0.6225233815806384  0.6207340879740024
  0.3733849172184470  0.6206538562635719  0.1248460385505982
  0.4987072436936000  0.4973181871905010  0.2510603574852754
  0.3759063681975491  0.1277938746336851  0.8775223065374683
  0.1272792360587462  0.6230495591589481  0.1247114906126890
  0.7493446540118752  0.0018536108390174 -0.0005071282913893
  0.2504780417564197  0.2473372161725318  0.2470043928488222
  0.5025964096012878  0.7513945940025968  0.7456972830299829
  0.8753262959935160  0.6231092900303605  0.1251327774125860
  0.8733045299556610  0.3730609426772222  0.1259363056441389
  0.4988351366435126  0.7540907507244073  0.2556703983926531
  0.8798528232487942  0.1304052348057143  0.6250378267970611
  0.3753250667619216  0.8781955831032731  0.6195922438169503
 -0.0015859826613111  0.7472563703358460 -0.0016548725888220
  0.6215427320009926  0.1285693941703985  0.1223079784775327
  0.5010375488730158  0.4994937307954186  0.7488123471173078
  0.6244885152941083  0.3709179078076106  0.8780774063675115
  0.8742103001191595  0.1287699320904308  0.8743490024030611
  0.8782607485478205  0.3750413530899818  0.6188273050050481
  0.1280293816676826  0.3738505582337639  0.1249170575714194
  0.5005934827609564  0.7493276194315899  0.0009843579597338
  0.1258033346297341  0.1291955185463735  0.6197881340724769
  0.4995187411150520  0.2496628515702484  0.7502749141796571
  0.8754545587709891  0.3734703442367589  0.8733683417978868
  0.1280804939748860  0.1258032000507708  0.3790299335959836
  0.2512226890391528  0.7546148102875164  0.2541570436179999
  0.4948957296328205  0.2498533285014527  0.2460799490864705
  0.8760219134691840  0.8749925048455410  0.3748937426081711
  0.5013443664182194  0.7543997476803239  0.4978914811032092
  0.6229868577774188  0.1264089061305490  0.6234600982470730
  0.2497616937471526  0.7488553428749946  0.0019887272797820
  0.2517017101341034  0.0021334265455591  0.2530351635343139
  0.1314456365370520  0.8796541691579038  0.3765596700558406
  0.2493014664486057  0.2475515451725056  0.4983312948953750
  0.7536344464598391  0.4980289582130226  0.4985848053040818
 -0.0003440404195355  0.2505616373557418  0.7471205366942669
  0.8771966418510336  0.3777757782816787  0.3834496717334264
  0.3726992218631229  0.8802359324946037  0.3773110129219964
  0.2524714343266825  0.4959571590376625  0.0025368201431351
  0.3753847991004642  0.3710300476399089  0.1219269909772705
  0.8758391997195457  0.6227408371895498  0.8726651435347039
  0.7476964541156240  0.2499469713704010  0.0009279457672368
  0.2512208172498084 -0.0022164489350404  0.4928213163120175
  0.6218048476478711  0.8748480447529107  0.3781014296536690
 -0.0050559520791579  0.4946927946892239  0.4983751591769264
 -0.0004198178422715  0.2544188156922942  0.4994084778047771
  0.5028009387630635  0.4988595720825347  0.4994451536056516
  0.4940264712448970  0.2502590689528278  0.0056552401485132
  0.1285229355572448  0.1258159535458542  0.1268217887567098
  0.6234568782282647  0.8741117111237058  0.6206100460209515
  0.3748422255090515  0.1310505740026400  0.1250867738059880
  0.4982469702492913  0.2512704826059695  0.4991327155506045
 
  0.00000000E+00  0.00000000E+00  0.00000000E+00
  0.00000000E+00  0.00000000E+00  0.00000000E+00
  0.00000000E+00  0.00000000E+00  0.00000000E+00
  0.00000000E+00  0.00000000E+00  0.00000000E+00
  0.00000000E+00  0.00000000E+00  0.00000000E+00
  0.00000000E+00  0.00000000E+00  0.00000000E+00
  0.00000000E+00  0.00000000E+00  0.00000000E+00
  0.00000000E+00  0.00000000E+00  0.00000000E+00
  0.00000000E+00  0.00000000E+00  0.00000000E+00
  0.00000000E+00  0.00000000E+00  0.00000000E+00
  0.00000000E+00  0.00000000E+00  0.00000000E+00
  0.00000000E+00  0.00000000E+00  0.00000000E+00
  0.00000000E+00  0.00000000E+00  0.00000000E+00
  0.00000000E+00  0.00000000E+00  0.00000000E+00
  0.00000000E+00  0.00000000E+00  0.00000000E+00
  0.00000000E+00  0.00000000E+00  0.00000000E+00
  0.00000000E+00  0.00000000E+00  0.00000000E+00
  0.00000000E+00  0.00000000E+00  0.00000000E+00
  0.00000000E+00  0.00000000E+00  0.00000000E+00
  0.00000000E+00  0.00000000E+00  0.00000000E+00
  0.00000000E+00  0.00000000E+00  0.00000000E+00
  0.00000000E+00  0.00000000E+00  0.00000000E+00
  0.00000000E+00  0.00000000E+00  0.00000000E+00
  0.00000000E+00  0.00000000E+00  0.00000000E+00
  0.00000000E+00  0.00000000E+00  0.00000000E+00
  0.00000000E+00  0.00000000E+00  0.00000000E+00
  0.00000000E+00  0.00000000E+00  0.00000000E+00
  0.00000000E+00  0.00000000E+00  0.00000000E+00
  0.00000000E+00  0.00000000E+00  0.00000000E+00
  0.00000000E+00  0.00000000E+00  0.00000000E+00
  0.00000000E+00  0.00000000E+00  0.00000000E+00
  0.00000000E+00  0.00000000E+00  0.00000000E+00
  0.00000000E+00  0.00000000E+00  0.00000000E+00
  0.00000000E+00  0.00000000E+00  0.00000000E+00
  0.00000000E+00  0.00000000E+00  0.00000000E+00
  0.00000000E+00  0.00000000E+00  0.00000000E+00
  0.00000000E+00  0.00000000E+00  0.00000000E+00
  0.00000000E+00  0.00000000E+00  0.00000000E+00
  0.00000000E+00  0.00000000E+00  0.00000000E+00
  0.00000000E+00  0.00000000E+00  0.00000000E+00
  0.00000000E+00  0.00000000E+00  0.00000000E+00
  0.00000000E+00  0.00000000E+00  0.00000000E+00
  0.00000000E+00  0.00000000E+00  0.00000000E+00
  0.00000000E+00  0.00000000E+00  0.00000000E+00
  0.00000000E+00  0.00000000E+00  0.00000000E+00
  0.00000000E+00  0.00000000E+00  0.00000000E+00
  0.00000000E+00  0.00000000E+00  0.00000000E+00
  0.00000000E+00  0.00000000E+00  0.00000000E+00
  0.00000000E+00  0.00000000E+00  0.00000000E+00
  0.00000000E+00  0.00000000E+00  0.00000000E+00
  0.00000000E+00  0.00000000E+00  0.00000000E+00
  0.00000000E+00  0.00000000E+00  0.00000000E+00
  0.00000000E+00  0.00000000E+00  0.00000000E+00
  0.00000000E+00  0.00000000E+00  0.00000000E+00
  0.00000000E+00  0.00000000E+00  0.00000000E+00
  0.00000000E+00  0.00000000E+00  0.00000000E+00
  0.00000000E+00  0.00000000E+00  0.00000000E+00
  0.00000000E+00  0.00000000E+00  0.00000000E+00
  0.00000000E+00  0.00000000E+00  0.00000000E+00
  0.00000000E+00  0.00000000E+00  0.00000000E+00
  0.00000000E+00  0.00000000E+00  0.00000000E+00
  0.00000000E+00  0.00000000E+00  0.00000000E+00
  0.00000000E+00  0.00000000E+00  0.00000000E+00
  0.00000000E+00  0.00000000E+00  0.00000000E+00
  0.00000000E+00  0.00000000E+00  0.00000000E+00
  0.00000000E+00  0.00000000E+00  0.00000000E+00
  0.00000000E+00  0.00000000E+00  0.00000000E+00
  0.00000000E+00  0.00000000E+00  0.00000000E+00
  0.00000000E+00  0.00000000E+00  0.00000000E+00
  0.00000000E+00  0.00000000E+00  0.00000000E+00
  0.00000000E+00  0.00000000E+00  0.00000000E+00
  0.00000000E+00  0.00000000E+00  0.00000000E+00
  0.00000000E+00  0.00000000E+00  0.00000000E+00
  0.00000000E+00  0.00000000E+00  0.00000000E+00
  0.00000000E+00  0.00000000E+00  0.00000000E+00
  0.00000000E+00  0.00000000E+00  0.00000000E+00
  0.00000000E+00  0.00000000E+00  0.00000000E+00
  0.00000000E+00  0.00000000E+00  0.00000000E+00
  0.00000000E+00  0.00000000E+00  0.00000000E+00
  0.00000000E+00  0.00000000E+00  0.00000000E+00
  0.00000000E+00  0.00000000E+00  0.00000000E+00
  0.00000000E+00  0.00000000E+00  0.00000000E+00
  0.00000000E+00  0.00000000E+00  0.00000000E+00
  0.00000000E+00  0.00000000E+00  0.00000000E+00
  0.00000000E+00  0.00000000E+00  0.00000000E+00
  0.00000000E+00  0.00000000E+00  0.00000000E+00
  0.00000000E+00  0.00000000E+00  0.00000000E+00
  0.00000000E+00  0.00000000E+00  0.00000000E+00
  0.00000000E+00  0.00000000E+00  0.00000000E+00
  0.00000000E+00  0.00000000E+00  0.00000000E+00
  0.00000000E+00  0.00000000E+00  0.00000000E+00
  0.00000000E+00  0.00000000E+00  0.00000000E+00
  0.00000000E+00  0.00000000E+00  0.00000000E+00
  0.00000000E+00  0.00000000E+00  0.00000000E+00
  0.00000000E+00  0.00000000E+00  0.00000000E+00
  0.00000000E+00  0.00000000E+00  0.00000000E+00
  0.00000000E+00  0.00000000E+00  0.00000000E+00
  0.00000000E+00  0.00000000E+00  0.00000000E+00
  0.00000000E+00  0.00000000E+00  0.00000000E+00
  0.00000000E+00  0.00000000E+00  0.00000000E+00
  0.00000000E+00  0.00000000E+00  0.00000000E+00
  0.00000000E+00  0.00000000E+00  0.00000000E+00
  0.00000000E+00  0.00000000E+00  0.00000000E+00
  0.00000000E+00  0.00000000E+00  0.00000000E+00
  0.00000000E+00  0.00000000E+00  0.00000000E+00
  0.00000000E+00  0.00000000E+00  0.00000000E+00
  0.00000000E+00  0.00000000E+00  0.00000000E+00
  0.00000000E+00  0.00000000E+00  0.00000000E+00
  0.00000000E+00  0.00000000E+00  0.00000000E+00
  0.00000000E+00  0.00000000E+00  0.00000000E+00
  0.00000000E+00  0.00000000E+00  0.00000000E+00
  0.00000000E+00  0.00000000E+00  0.00000000E+00
  0.00000000E+00  0.00000000E+00  0.00000000E+00
  0.00000000E+00  0.00000000E+00  0.00000000E+00
  0.00000000E+00  0.00000000E+00  0.00000000E+00
  0.00000000E+00  0.00000000E+00  0.00000000E+00
  0.00000000E+00  0.00000000E+00  0.00000000E+00
  0.00000000E+00  0.00000000E+00  0.00000000E+00
  0.00000000E+00  0.00000000E+00  0.00000000E+00
  0.00000000E+00  0.00000000E+00  0.00000000E+00
  0.00000000E+00  0.00000000E+00  0.00000000E+00
  0.00000000E+00  0.00000000E+00  0.00000000E+00
  0.00000000E+00  0.00000000E+00  0.00000000E+00
  0.00000000E+00  0.00000000E+00  0.00000000E+00
  0.00000000E+00  0.00000000E+00  0.00000000E+00
  0.00000000E+00  0.00000000E+00  0.00000000E+00
  0.00000000E+00  0.00000000E+00  0.00000000E+00
  0.00000000E+00  0.00000000E+00  0.00000000E+00
