Nb Ti                                   
    1.000000000000000     
    11.3606515930464624    1.2115824096141248    0.0236147190807127
    -4.7448067913341854   10.1782997867795402    0.0513601772763211
    -0.1498386049738285   -0.3833661328898299   18.9133857318039276
  Nb              Ti            
   116    12
Direct
     0.3150205203129188    0.6931988025852420    0.3125106196146107
     0.9343659815315023    0.3114776815233176    0.9384062073020739
     0.5616450961476744    0.1897585189203650    0.0627600865591345
     0.0637721662665609    0.4351557560836076    0.8135679706469203
     0.6905819781208055    0.8182470916755367    0.1893226265308959
     0.4401433802013379    0.0608378479150080    0.4357267583539532
     0.5624397445789074    0.1859211615892160    0.8131065583774613
     0.0587220584722418    0.1857980725353320    0.8115166820607107
     0.4409454420176078    0.0596329875143716    0.1880374813094142
     0.4392956897554755    0.8087381178119633    0.1889561825656746
     0.6867573988929004    0.0605002607290499    0.9375255820578964
     0.6868392497840682    0.3126909586579696    0.6872489173891098
     0.0574730184222652    0.9363112883020493    0.3110350803470098
     0.1898310269796944    0.0627723562962395    0.1878413117884390
     0.5656175672005673    0.1943297325653834    0.3122041547479920
     0.8135868758727240    0.9345889248307182    0.8114919712578480
     0.3105986159040117    0.1880496109184785    0.0610505736124881
     0.6865933524977518    0.5621210609730077    0.9371735378671450
     0.1820039599255787    0.0590819394647298    0.6850781168904418
     0.3159315785267797    0.4412450274198998    0.3123553587333200
     0.3109584763558892    0.9350030675652347    0.8123484349547139
     0.6880474708345566    0.3126739189004287    0.1872737289313921
     0.9369925891735369    0.5657159168774025    0.4402655124864968
     0.8109998192939448    0.4351741896541776    0.5616382749471936
     0.3109627673828812    0.6861893677992132    0.8121150930282611
     0.9368793909183494    0.8104884787398712    0.1869588277570277
     0.9371478687468773    0.0651254926304004    0.6877151917078567
     0.1857221829548223    0.5653002883189695    0.9380468172478666
     0.1836131292906637    0.3102886227938119    0.1874100855114485
     0.5617792361332516    0.4372594265191984    0.0628866014697732
     0.1872846367090216    0.8130075186332242    0.9371978962886048
     0.8127101677133026    0.1864544169867414    0.8124243654528994
     0.3109562734625526    0.9385721684609976    0.0628283930330400
     0.0615719693514617    0.6875852621707824    0.0626356618219332
     0.8118586771760360    0.9375445868559955    0.3135441042531051
     0.3166712803719033    0.6909901898150346    0.0622110722215152
     0.6906268414466720    0.5639015215114671    0.6881016725045891
     0.5625992372780608    0.6837530623369993    0.0627246860100023
     0.6875604403838290    0.5619018690263946    0.4332024272112217
     0.4315228228670383    0.5571290834975284    0.9370362514683964
     0.9371359186773164    0.5618953951635429    0.9369611606324549
     0.5616484505745735    0.9364458267942525    0.8122890422851621
     0.5620179780989473    0.6886504788423529    0.5615607524531799
     0.8143518529552141    0.1908590448516382    0.5622600399000489
     0.4350441488327455    0.0635023284950720    0.6894669575254183
     0.9366639332894807    0.3129827492471365    0.4365265639085072
     0.5648817856466981    0.4389445311195837    0.3123314790064658
     0.3109863771009452    0.4395494872138492    0.8123428593467240
     0.8130632799634931    0.1808963374452586    0.3113982227003588
     0.9388439923406769    0.3111463936555425    0.6861302886600860
     0.9364572002141458    0.5653080471720516    0.1894363020807931
     0.1871078766489829    0.0581033624672920    0.9383845520985503
     0.0607635755774865    0.9390478323345050    0.0647137777504569
     0.6913266085780069    0.8124695859759008    0.4367524302448199
     0.0629271836882043    0.6914761049170086    0.5640172991184175
     0.3108199366805149    0.6837346431031726    0.5620433585351269
     0.5639778495152810    0.6867644484352027    0.8127117790238089
     0.9379229190086789    0.5585949652683067    0.6835420233159566
     0.1872043834060858    0.3158520976260137    0.4390843346905267
     0.1885201072845472    0.8108763409021172    0.6870315696298442
     0.8107923008039551    0.6872584528684500    0.0633748214244597
     0.9398523204096724    0.0648870625855485    0.9377593028983900
     0.0622517375247924    0.6849830801018059    0.3127535084711573
     0.0661588679529659    0.9420030110979628    0.8123301111987765
     0.6894371215845754    0.0630931325099322    0.4387458306068096
     0.3119204144794089    0.4334678013331542    0.5624903546310780
     0.1886295873606587    0.8126174522014791    0.1877873410105819
     0.8125766030779074    0.4370858057203424    0.8120307177324463
     0.1878090762644518    0.8129577950722162    0.4372392556269262
     0.4373803058242426    0.0619753186885931    0.9374981444208044
     0.4400812380773169    0.8116513696509002    0.4363553879328043
     0.5667273927598326    0.4428922490467966    0.5618705788313018
     0.6863531482157728    0.3104964208579175    0.9375756872768946
     0.6870898158350527    0.8112855105444897    0.6851866164449640
     0.4391135602029249    0.3110435008674607    0.9381749852247452
     0.1876270488764726    0.0646378053752194    0.4390947214200546
     0.3117192245504023    0.1878617830287820    0.3128182493494973
     0.3151519951672637    0.1880193505554015    0.5630219042165895
     0.3113317400597601    0.4374208162772300    0.0628371355221681
     0.4374002445093252    0.5622927498516984    0.1869823489278452
     0.1879787476430486    0.5633044685263700    0.1870991970951189
     0.4388540694254692    0.3125178910399178    0.4367166384320783
     0.6858988340478867    0.5622425917820749    0.1900538982228627
     0.0584597873169161    0.6884119356198423    0.8105096997133988
     0.3130446528879968    0.9383493069414177    0.5622849619044347
     0.8111771360895041    0.6854871362845936    0.8117816266420336
     0.4376950481482511    0.8124832642864065    0.6872144929548994
     0.3106354986389406    0.9390670620604623    0.3121493345997478
     0.9373633886323427    0.0631109389495130    0.4375122419202071
     0.6851677177008947    0.8126423299601109    0.9383352597260776
     0.0626661330239828    0.4364143802450762    0.0612946632127504
     0.6867898949294097    0.0652414391916881    0.1875276524863107
     0.0619740332916986    0.1877451190071962    0.0624368924197130
     0.0651397552575307    0.4380918871786560    0.3136610219089454
     0.8127842942111447    0.4378025045811031    0.0631895433226070
     0.4364400259759398    0.3117571649828569    0.6872852888659891
     0.0597185942764117    0.9320184094684761    0.5619084444435689
     0.4369588886650670    0.5606410333698068    0.6868088458821329
     0.5577453045703016    0.4330792299677306    0.8123874840608876
     0.6892530103864183    0.3132013915049757    0.4377617899637092
     0.8169994223451359    0.9424968803790545    0.5643218876279088
     0.5634053901999887    0.9362831043859791    0.5623839951009352
     0.8097620557140278    0.1821215451054105    0.0639994998586536
     0.1878977765119252    0.5642181529137109    0.4368117714339714
     0.9360708329476964    0.3174073070569614    0.1887105524958314
     0.4393226024147296    0.5641009822758762    0.4378768562929011
     0.1874248747538091    0.5625136067844850    0.6880640768938530
     0.4377527673084423    0.3132170325392113    0.1881371606938395
     0.1886558491206751    0.3140579030582299    0.6886624533569287
     0.9392564319038883    0.8154096269076854    0.4380071543418474
     0.0653434358310064    0.1906626228316616    0.3135251693974914
     0.6871223975688748    0.0624518672355313    0.6875117296962315
     0.9355991080956771    0.8120456362368579    0.9368448772578574
     0.8129149980303683    0.9346080628852458    0.0621525110917115
     0.5613910059780990    0.1868240706456609    0.5625671593888507
     0.4367086237728652    0.8106906389082094    0.9368674264790217
     0.5617161329273399    0.6847453237949381    0.3113727222936373
     0.1878036635433616    0.3103310536802728    0.9352511728045596
     0.9366523697204212    0.0637137259107046    0.1885329231365339
     0.3089812392335912    0.1884681638561998    0.8136917632078450
     0.5631784184253026    0.9421301927610934    0.3124909396727226
     0.0660015582845191    0.1844349973518585    0.5634242588816981
     0.9381115735320016    0.8119271981870630    0.6881187079018155
     0.8164183066307981    0.6930085329609468    0.3127444502050339
     0.5628403926479466    0.9362814689775133    0.0637351769359780
     0.8103758082788346    0.6859829267901146    0.5609928305618711
     0.0623057325794984    0.4418402625795193    0.5618520107911010
     0.8145441837053492    0.4348723593812910    0.3130371120270538
 
  0.00000000E+00  0.00000000E+00  0.00000000E+00
  0.00000000E+00  0.00000000E+00  0.00000000E+00
  0.00000000E+00  0.00000000E+00  0.00000000E+00
  0.00000000E+00  0.00000000E+00  0.00000000E+00
  0.00000000E+00  0.00000000E+00  0.00000000E+00
  0.00000000E+00  0.00000000E+00  0.00000000E+00
  0.00000000E+00  0.00000000E+00  0.00000000E+00
  0.00000000E+00  0.00000000E+00  0.00000000E+00
  0.00000000E+00  0.00000000E+00  0.00000000E+00
  0.00000000E+00  0.00000000E+00  0.00000000E+00
  0.00000000E+00  0.00000000E+00  0.00000000E+00
  0.00000000E+00  0.00000000E+00  0.00000000E+00
  0.00000000E+00  0.00000000E+00  0.00000000E+00
  0.00000000E+00  0.00000000E+00  0.00000000E+00
  0.00000000E+00  0.00000000E+00  0.00000000E+00
  0.00000000E+00  0.00000000E+00  0.00000000E+00
  0.00000000E+00  0.00000000E+00  0.00000000E+00
  0.00000000E+00  0.00000000E+00  0.00000000E+00
  0.00000000E+00  0.00000000E+00  0.00000000E+00
  0.00000000E+00  0.00000000E+00  0.00000000E+00
  0.00000000E+00  0.00000000E+00  0.00000000E+00
  0.00000000E+00  0.00000000E+00  0.00000000E+00
  0.00000000E+00  0.00000000E+00  0.00000000E+00
  0.00000000E+00  0.00000000E+00  0.00000000E+00
  0.00000000E+00  0.00000000E+00  0.00000000E+00
  0.00000000E+00  0.00000000E+00  0.00000000E+00
  0.00000000E+00  0.00000000E+00  0.00000000E+00
  0.00000000E+00  0.00000000E+00  0.00000000E+00
  0.00000000E+00  0.00000000E+00  0.00000000E+00
  0.00000000E+00  0.00000000E+00  0.00000000E+00
  0.00000000E+00  0.00000000E+00  0.00000000E+00
  0.00000000E+00  0.00000000E+00  0.00000000E+00
  0.00000000E+00  0.00000000E+00  0.00000000E+00
  0.00000000E+00  0.00000000E+00  0.00000000E+00
  0.00000000E+00  0.00000000E+00  0.00000000E+00
  0.00000000E+00  0.00000000E+00  0.00000000E+00
  0.00000000E+00  0.00000000E+00  0.00000000E+00
  0.00000000E+00  0.00000000E+00  0.00000000E+00
  0.00000000E+00  0.00000000E+00  0.00000000E+00
  0.00000000E+00  0.00000000E+00  0.00000000E+00
  0.00000000E+00  0.00000000E+00  0.00000000E+00
  0.00000000E+00  0.00000000E+00  0.00000000E+00
  0.00000000E+00  0.00000000E+00  0.00000000E+00
  0.00000000E+00  0.00000000E+00  0.00000000E+00
  0.00000000E+00  0.00000000E+00  0.00000000E+00
  0.00000000E+00  0.00000000E+00  0.00000000E+00
  0.00000000E+00  0.00000000E+00  0.00000000E+00
  0.00000000E+00  0.00000000E+00  0.00000000E+00
  0.00000000E+00  0.00000000E+00  0.00000000E+00
  0.00000000E+00  0.00000000E+00  0.00000000E+00
  0.00000000E+00  0.00000000E+00  0.00000000E+00
  0.00000000E+00  0.00000000E+00  0.00000000E+00
  0.00000000E+00  0.00000000E+00  0.00000000E+00
  0.00000000E+00  0.00000000E+00  0.00000000E+00
  0.00000000E+00  0.00000000E+00  0.00000000E+00
  0.00000000E+00  0.00000000E+00  0.00000000E+00
  0.00000000E+00  0.00000000E+00  0.00000000E+00
  0.00000000E+00  0.00000000E+00  0.00000000E+00
  0.00000000E+00  0.00000000E+00  0.00000000E+00
  0.00000000E+00  0.00000000E+00  0.00000000E+00
  0.00000000E+00  0.00000000E+00  0.00000000E+00
  0.00000000E+00  0.00000000E+00  0.00000000E+00
  0.00000000E+00  0.00000000E+00  0.00000000E+00
  0.00000000E+00  0.00000000E+00  0.00000000E+00
  0.00000000E+00  0.00000000E+00  0.00000000E+00
  0.00000000E+00  0.00000000E+00  0.00000000E+00
  0.00000000E+00  0.00000000E+00  0.00000000E+00
  0.00000000E+00  0.00000000E+00  0.00000000E+00
  0.00000000E+00  0.00000000E+00  0.00000000E+00
  0.00000000E+00  0.00000000E+00  0.00000000E+00
  0.00000000E+00  0.00000000E+00  0.00000000E+00
  0.00000000E+00  0.00000000E+00  0.00000000E+00
  0.00000000E+00  0.00000000E+00  0.00000000E+00
  0.00000000E+00  0.00000000E+00  0.00000000E+00
  0.00000000E+00  0.00000000E+00  0.00000000E+00
  0.00000000E+00  0.00000000E+00  0.00000000E+00
  0.00000000E+00  0.00000000E+00  0.00000000E+00
  0.00000000E+00  0.00000000E+00  0.00000000E+00
  0.00000000E+00  0.00000000E+00  0.00000000E+00
  0.00000000E+00  0.00000000E+00  0.00000000E+00
  0.00000000E+00  0.00000000E+00  0.00000000E+00
  0.00000000E+00  0.00000000E+00  0.00000000E+00
  0.00000000E+00  0.00000000E+00  0.00000000E+00
  0.00000000E+00  0.00000000E+00  0.00000000E+00
  0.00000000E+00  0.00000000E+00  0.00000000E+00
  0.00000000E+00  0.00000000E+00  0.00000000E+00
  0.00000000E+00  0.00000000E+00  0.00000000E+00
  0.00000000E+00  0.00000000E+00  0.00000000E+00
  0.00000000E+00  0.00000000E+00  0.00000000E+00
  0.00000000E+00  0.00000000E+00  0.00000000E+00
  0.00000000E+00  0.00000000E+00  0.00000000E+00
  0.00000000E+00  0.00000000E+00  0.00000000E+00
  0.00000000E+00  0.00000000E+00  0.00000000E+00
  0.00000000E+00  0.00000000E+00  0.00000000E+00
  0.00000000E+00  0.00000000E+00  0.00000000E+00
  0.00000000E+00  0.00000000E+00  0.00000000E+00
  0.00000000E+00  0.00000000E+00  0.00000000E+00
  0.00000000E+00  0.00000000E+00  0.00000000E+00
  0.00000000E+00  0.00000000E+00  0.00000000E+00
  0.00000000E+00  0.00000000E+00  0.00000000E+00
  0.00000000E+00  0.00000000E+00  0.00000000E+00
  0.00000000E+00  0.00000000E+00  0.00000000E+00
  0.00000000E+00  0.00000000E+00  0.00000000E+00
  0.00000000E+00  0.00000000E+00  0.00000000E+00
  0.00000000E+00  0.00000000E+00  0.00000000E+00
  0.00000000E+00  0.00000000E+00  0.00000000E+00
  0.00000000E+00  0.00000000E+00  0.00000000E+00
  0.00000000E+00  0.00000000E+00  0.00000000E+00
  0.00000000E+00  0.00000000E+00  0.00000000E+00
  0.00000000E+00  0.00000000E+00  0.00000000E+00
  0.00000000E+00  0.00000000E+00  0.00000000E+00
  0.00000000E+00  0.00000000E+00  0.00000000E+00
  0.00000000E+00  0.00000000E+00  0.00000000E+00
  0.00000000E+00  0.00000000E+00  0.00000000E+00
  0.00000000E+00  0.00000000E+00  0.00000000E+00
  0.00000000E+00  0.00000000E+00  0.00000000E+00
  0.00000000E+00  0.00000000E+00  0.00000000E+00
  0.00000000E+00  0.00000000E+00  0.00000000E+00
  0.00000000E+00  0.00000000E+00  0.00000000E+00
  0.00000000E+00  0.00000000E+00  0.00000000E+00
  0.00000000E+00  0.00000000E+00  0.00000000E+00
  0.00000000E+00  0.00000000E+00  0.00000000E+00
  0.00000000E+00  0.00000000E+00  0.00000000E+00
  0.00000000E+00  0.00000000E+00  0.00000000E+00
  0.00000000E+00  0.00000000E+00  0.00000000E+00
  0.00000000E+00  0.00000000E+00  0.00000000E+00
  0.00000000E+00  0.00000000E+00  0.00000000E+00
  0.00000000E+00  0.00000000E+00  0.00000000E+00
