Hf Ta                                   
    1.000000000000000     
    11.6054455178762144   -0.0329051039372666    1.7244269259271734
    -5.8971905902782051   10.4612036428032944   -0.8635110165003097
     2.8286586066330015    0.0146783331079550   20.7507546290561500
  Hf             Ta           
              24             104
Direct
  0.0910481751522893  0.1888488086923110  0.8128545574421076
  0.6583455543463517  0.5644130466139188  0.4387765905353430
  0.4059784324259957  0.0592453612502748  0.6863370589737477
  0.3411755371645339  0.1900523714652760  0.8146911651783781
  0.4072361836402710  0.5634451671157594  0.4378942824429846
  0.6583634713532540  0.3157659809839884  0.6836058522490921
  0.3382367591524529  0.6843819804763791  0.8146067990888365
  0.6568946080166743  0.3119634048996728  0.9395906446867989
  0.3449401906246943  0.9335181729926456  0.3125297503379802
  0.4026414547016358  0.5621922144226964  0.9388959730615851
  0.6535933271828900  0.3111985790784140  0.4400746530922180
  0.8448092593052704  0.9349930747111885  0.8137109772843444
  0.1570379562614982  0.0633557270692530  0.1863787694915787
  0.8421025401999794  0.1860959259333795  0.0623743443168488
  0.5954052981431376  0.1905040155462701  0.3119254879532747
  0.6577243045400175  0.8118676007268023  0.1864021014624606
  0.5950163032451172  0.1887979142834907  0.8106863408960632
  0.9086644097919889  0.5643800115705390  0.6858540263012167
  0.9083887528128238  0.3094952771899809  0.4360410098157666
  0.1593216685490979  0.5677142537158359  0.4358379714713287
  0.5908445868300071  0.9416581233049435  0.8131823441290358
  0.0914780642879963  0.9365098692775904  0.3135930555154893
  0.5972271105584076  0.6829739018650697  0.8110617855929736
  0.9054639085802657  0.3144317179701062  0.1890852092588516
  0.8445453818516580  0.9378835427467810  0.5622941447331036
  0.4007788081892035  0.3160288844036138  0.6870420762680762
  0.8430467382621449  0.6867041950631780  0.3115164357293085
  0.0945990929277835  0.1872779978069575  0.5626339154606111
  0.5957691474249477  0.4412184309742408  0.8143813457188495
  0.4102885149151025  0.8188220393446125  0.4369938808099884
  0.3434874679151109  0.4362742074382481  0.5629228122516725
  0.0909423457468347  0.4385931346653135  0.8121893752630690
  0.1566953874079553  0.0628404914565230  0.4391847995256229
  0.0911180407801591  0.6862731160875074  0.8124550641384173
  0.0905425356527524  0.1898068144317618  0.3129359476862635
  0.3501157475322568  0.6859270664847325  0.3089908949293808
  0.8421839643565916  0.9360775860384909  0.3116643951578687
  0.6532191648422405  0.3150740506187433  0.1859237247455075
  0.8483944145000951  0.4440283324764007  0.3132694903122117
  0.6530547567131334  0.5645819873584516  0.6865933960215139
  0.8459157116854416  0.1865788626294004  0.5625880480979147
  0.0919790004715384  0.6823758699652112  0.3123290707178892
  0.8447485038764961  0.1832284662285861  0.3118162736750191
  0.3406094027708992  0.9374172018581816  0.0636224032805359
  0.9086032837174149  0.8077560497846595  0.1862568888850986
  0.5893650548542059  0.1854424976888595  0.0643310419676640
  0.4046912379454117  0.3123109737533479  0.9405352033657037
  0.4017621772943584  0.8155733171783157  0.9428441297360846
  0.3326454952802002  0.9312059832431314  0.8136457040705629
  0.6605124943866069  0.8164525149226070  0.4372539732660073
  0.9113898455083043  0.5723177740106337  0.4376552746468650
  0.1576916462353807  0.8116255584506301  0.6861031962817611
  0.5964443043300158  0.1849640596453727  0.5601303097532332
  0.5970639350320106  0.6861431182594154  0.3117488001776975
  0.8469755889898378  0.9369337126901920  0.0611868767595094
  0.0918642995632380  0.9352136386872305  0.0615087574876317
  0.8427717888310507  0.6879794582902069  0.0624360556027522
  0.5897421511812281  0.9340901514112847  0.0637795605545635
  0.0941576158510849  0.4368780153447851  0.5630534539791731
  0.0957902950677389  0.6903953781040508  0.5619486517829912
  0.8419778737622687  0.4385695223267687  0.0621263146152983
  0.9093654730912003  0.3120857412214634  0.9367294142382085
  0.3426490767118898  0.6901790487273654  0.5633344466010645
  0.4066539700809307  0.5633062027079636  0.6859808471101385
  0.1537005761636952  0.0606832495284051  0.6860898327664912
  0.8471093384830253  0.6852803241774834  0.8128412812499766
  0.6551891598773575  0.8163908341444609  0.9407043448229703
  0.3396118572709877  0.4353152205875830  0.8107729448757122
  0.4085643951694874  0.0638647858288392  0.1868152791705559
  0.4082334451330490  0.8113603074825960  0.6866833756180175
  0.4079399497530754  0.3157483276112554  0.1865787308393409
  0.9054585936306877  0.0627478684341293  0.1871183470446121
  0.5930158310545114  0.4395753626092476  0.0636147977051657
  0.5973272212855824  0.9343301961209757  0.3126746785342215
  0.9061922225562425  0.8143611744175894  0.4394176945383816
  0.8472404965704098  0.1968214793764082  0.8122765803713128
  0.5910638718751090  0.4372868881842517  0.5662212382128430
  0.5939996679569036  0.4384195297279781  0.3104250513213650
  0.5924195824787361  0.6865727157117711  0.0609343813887426
  0.0964042215000311  0.4377803721315563  0.3082282123670546
  0.0918423238908854  0.9298304871658928  0.8119166312571778
  0.9054240501303071  0.8122596252869417  0.9378518694481227
  0.4051653089539914  0.8111358496064400  0.1865413533509485
  0.3462071784728361  0.1866264998936203  0.0609436085452826
  0.3411694989673508  0.6875145309991580  0.0642155971925755
  0.1575598899527726  0.3146902426924169  0.6860760271586508
  0.9063259062716978  0.5636009536220155  0.1880174298452825
  0.9133570121590079  0.3126994692867464  0.6871345558160996
  0.8478103815638983  0.4393062617799490  0.8127449595725148
  0.1555839034136407  0.3110664278465766  0.9394598132033942
  0.1575424132020268  0.3072082853075638  0.4378643119835163
  0.0913748240767142  0.6861666426042764  0.0632176181088763
  0.3419506759537781  0.9356131460817958  0.5613401491842118
  0.9072450883783219  0.8135345053043953  0.6864630644944797
  0.9076872653991398  0.0614638139241232  0.9403122502751207
  0.6590530675283141  0.8136462810261766  0.6846954500489991
  0.0972500431985944  0.4400470563362623  0.0622147668214108
  0.3436665544482134  0.1856803767127470  0.5630158667236749
  0.1578725057992000  0.8087991479468701  0.1872539518916861
  0.1584764934163990  0.3149023501279146  0.1872259911223591
  0.3418780266730094  0.1947496742568978  0.3118928357242043
  0.0929122385646487  0.9377842366064997  0.5629026085380773
  0.1533101649848329  0.8102253207337993  0.9384593549274964
  0.4016533776227654  0.0606812948726589  0.4403476913978548
  0.8429109118349809  0.6878742244064535  0.5626685392439100
  0.9085043949587497  0.0643103040283060  0.6861643138503939
  0.5945663649533282  0.9376223679567434  0.5614908465010354
  0.5918587026474565  0.6902227354585405  0.5628585393380648
  0.9074890287791145  0.5639260235221453  0.9382245729275843
  0.1534647093566022  0.8148827171877900  0.4396913459516786
  0.1532979550857187  0.0615745261545992  0.9396946322090657
  0.6629891934436575  0.0594828829898821  0.6836511718906398
  0.6593511525059867  0.5653714577756312  0.9384689900037904
  0.6507107285856948  0.0594515077167567  0.1878199840115640
  0.6570539193299924  0.5613486002250192  0.1875905576092384
  0.6583122540919284  0.0613735337950683  0.9403998708941934
  0.8456276756911709  0.4391952622462001  0.5590015640253667
  0.4066174221862494  0.5599212566846449  0.1860263497632510
  0.3428535429954033  0.4370979297022781  0.3108380053020454
  0.4008800371607011  0.0574055212726956  0.9385098393667812
  0.3435229173609272  0.4361533044214616  0.0639112587198437
  0.1596235785631272  0.5641616624614592  0.1865254100238451
  0.1483959278919700  0.5612708181570665  0.9403025535506720
  0.1602149221155973  0.5637382595367854  0.6866907157542312
  0.0977069523280367  0.1868861783321509  0.0633381999159477
  0.9073313286419092  0.0608527417145051  0.4380546275504358
  0.6547722985042941  0.0589902982356382  0.4372033716665119
  0.4000667128029057  0.3068781222410456  0.4374430664879968
 
  0.00000000E+00  0.00000000E+00  0.00000000E+00
  0.00000000E+00  0.00000000E+00  0.00000000E+00
  0.00000000E+00  0.00000000E+00  0.00000000E+00
  0.00000000E+00  0.00000000E+00  0.00000000E+00
  0.00000000E+00  0.00000000E+00  0.00000000E+00
  0.00000000E+00  0.00000000E+00  0.00000000E+00
  0.00000000E+00  0.00000000E+00  0.00000000E+00
  0.00000000E+00  0.00000000E+00  0.00000000E+00
  0.00000000E+00  0.00000000E+00  0.00000000E+00
  0.00000000E+00  0.00000000E+00  0.00000000E+00
  0.00000000E+00  0.00000000E+00  0.00000000E+00
  0.00000000E+00  0.00000000E+00  0.00000000E+00
  0.00000000E+00  0.00000000E+00  0.00000000E+00
  0.00000000E+00  0.00000000E+00  0.00000000E+00
  0.00000000E+00  0.00000000E+00  0.00000000E+00
  0.00000000E+00  0.00000000E+00  0.00000000E+00
  0.00000000E+00  0.00000000E+00  0.00000000E+00
  0.00000000E+00  0.00000000E+00  0.00000000E+00
  0.00000000E+00  0.00000000E+00  0.00000000E+00
  0.00000000E+00  0.00000000E+00  0.00000000E+00
  0.00000000E+00  0.00000000E+00  0.00000000E+00
  0.00000000E+00  0.00000000E+00  0.00000000E+00
  0.00000000E+00  0.00000000E+00  0.00000000E+00
  0.00000000E+00  0.00000000E+00  0.00000000E+00
  0.00000000E+00  0.00000000E+00  0.00000000E+00
  0.00000000E+00  0.00000000E+00  0.00000000E+00
  0.00000000E+00  0.00000000E+00  0.00000000E+00
  0.00000000E+00  0.00000000E+00  0.00000000E+00
  0.00000000E+00  0.00000000E+00  0.00000000E+00
  0.00000000E+00  0.00000000E+00  0.00000000E+00
  0.00000000E+00  0.00000000E+00  0.00000000E+00
  0.00000000E+00  0.00000000E+00  0.00000000E+00
  0.00000000E+00  0.00000000E+00  0.00000000E+00
  0.00000000E+00  0.00000000E+00  0.00000000E+00
  0.00000000E+00  0.00000000E+00  0.00000000E+00
  0.00000000E+00  0.00000000E+00  0.00000000E+00
  0.00000000E+00  0.00000000E+00  0.00000000E+00
  0.00000000E+00  0.00000000E+00  0.00000000E+00
  0.00000000E+00  0.00000000E+00  0.00000000E+00
  0.00000000E+00  0.00000000E+00  0.00000000E+00
  0.00000000E+00  0.00000000E+00  0.00000000E+00
  0.00000000E+00  0.00000000E+00  0.00000000E+00
  0.00000000E+00  0.00000000E+00  0.00000000E+00
  0.00000000E+00  0.00000000E+00  0.00000000E+00
  0.00000000E+00  0.00000000E+00  0.00000000E+00
  0.00000000E+00  0.00000000E+00  0.00000000E+00
  0.00000000E+00  0.00000000E+00  0.00000000E+00
  0.00000000E+00  0.00000000E+00  0.00000000E+00
  0.00000000E+00  0.00000000E+00  0.00000000E+00
  0.00000000E+00  0.00000000E+00  0.00000000E+00
  0.00000000E+00  0.00000000E+00  0.00000000E+00
  0.00000000E+00  0.00000000E+00  0.00000000E+00
  0.00000000E+00  0.00000000E+00  0.00000000E+00
  0.00000000E+00  0.00000000E+00  0.00000000E+00
  0.00000000E+00  0.00000000E+00  0.00000000E+00
  0.00000000E+00  0.00000000E+00  0.00000000E+00
  0.00000000E+00  0.00000000E+00  0.00000000E+00
  0.00000000E+00  0.00000000E+00  0.00000000E+00
  0.00000000E+00  0.00000000E+00  0.00000000E+00
  0.00000000E+00  0.00000000E+00  0.00000000E+00
  0.00000000E+00  0.00000000E+00  0.00000000E+00
  0.00000000E+00  0.00000000E+00  0.00000000E+00
  0.00000000E+00  0.00000000E+00  0.00000000E+00
  0.00000000E+00  0.00000000E+00  0.00000000E+00
  0.00000000E+00  0.00000000E+00  0.00000000E+00
  0.00000000E+00  0.00000000E+00  0.00000000E+00
  0.00000000E+00  0.00000000E+00  0.00000000E+00
  0.00000000E+00  0.00000000E+00  0.00000000E+00
  0.00000000E+00  0.00000000E+00  0.00000000E+00
  0.00000000E+00  0.00000000E+00  0.00000000E+00
  0.00000000E+00  0.00000000E+00  0.00000000E+00
  0.00000000E+00  0.00000000E+00  0.00000000E+00
  0.00000000E+00  0.00000000E+00  0.00000000E+00
  0.00000000E+00  0.00000000E+00  0.00000000E+00
  0.00000000E+00  0.00000000E+00  0.00000000E+00
  0.00000000E+00  0.00000000E+00  0.00000000E+00
  0.00000000E+00  0.00000000E+00  0.00000000E+00
  0.00000000E+00  0.00000000E+00  0.00000000E+00
  0.00000000E+00  0.00000000E+00  0.00000000E+00
  0.00000000E+00  0.00000000E+00  0.00000000E+00
  0.00000000E+00  0.00000000E+00  0.00000000E+00
  0.00000000E+00  0.00000000E+00  0.00000000E+00
  0.00000000E+00  0.00000000E+00  0.00000000E+00
  0.00000000E+00  0.00000000E+00  0.00000000E+00
  0.00000000E+00  0.00000000E+00  0.00000000E+00
  0.00000000E+00  0.00000000E+00  0.00000000E+00
  0.00000000E+00  0.00000000E+00  0.00000000E+00
  0.00000000E+00  0.00000000E+00  0.00000000E+00
  0.00000000E+00  0.00000000E+00  0.00000000E+00
  0.00000000E+00  0.00000000E+00  0.00000000E+00
  0.00000000E+00  0.00000000E+00  0.00000000E+00
  0.00000000E+00  0.00000000E+00  0.00000000E+00
  0.00000000E+00  0.00000000E+00  0.00000000E+00
  0.00000000E+00  0.00000000E+00  0.00000000E+00
  0.00000000E+00  0.00000000E+00  0.00000000E+00
  0.00000000E+00  0.00000000E+00  0.00000000E+00
  0.00000000E+00  0.00000000E+00  0.00000000E+00
  0.00000000E+00  0.00000000E+00  0.00000000E+00
  0.00000000E+00  0.00000000E+00  0.00000000E+00
  0.00000000E+00  0.00000000E+00  0.00000000E+00
  0.00000000E+00  0.00000000E+00  0.00000000E+00
  0.00000000E+00  0.00000000E+00  0.00000000E+00
  0.00000000E+00  0.00000000E+00  0.00000000E+00
  0.00000000E+00  0.00000000E+00  0.00000000E+00
  0.00000000E+00  0.00000000E+00  0.00000000E+00
  0.00000000E+00  0.00000000E+00  0.00000000E+00
  0.00000000E+00  0.00000000E+00  0.00000000E+00
  0.00000000E+00  0.00000000E+00  0.00000000E+00
  0.00000000E+00  0.00000000E+00  0.00000000E+00
  0.00000000E+00  0.00000000E+00  0.00000000E+00
  0.00000000E+00  0.00000000E+00  0.00000000E+00
  0.00000000E+00  0.00000000E+00  0.00000000E+00
  0.00000000E+00  0.00000000E+00  0.00000000E+00
  0.00000000E+00  0.00000000E+00  0.00000000E+00
  0.00000000E+00  0.00000000E+00  0.00000000E+00
  0.00000000E+00  0.00000000E+00  0.00000000E+00
  0.00000000E+00  0.00000000E+00  0.00000000E+00
  0.00000000E+00  0.00000000E+00  0.00000000E+00
  0.00000000E+00  0.00000000E+00  0.00000000E+00
  0.00000000E+00  0.00000000E+00  0.00000000E+00
  0.00000000E+00  0.00000000E+00  0.00000000E+00
  0.00000000E+00  0.00000000E+00  0.00000000E+00
  0.00000000E+00  0.00000000E+00  0.00000000E+00
  0.00000000E+00  0.00000000E+00  0.00000000E+00
  0.00000000E+00  0.00000000E+00  0.00000000E+00
  0.00000000E+00  0.00000000E+00  0.00000000E+00
  0.00000000E+00  0.00000000E+00  0.00000000E+00
  0.00000000E+00  0.00000000E+00  0.00000000E+00
