Hf Ti                                   
    1.000000000000000     
    11.8517118205804639   -0.0004908740662261   -0.0002804341038017
    -5.9262806245757975   10.2673811779703215   -0.0010728540389424
    -0.0004420795588774   -0.0022348444631145   18.7325572957555018
  Hf              Ti            
    12   116
Direct
     0.1661209333205916    0.8294368962075673    0.9377365558354355
     0.3327095100149585    0.4187844366914563    0.3105508976389282
     0.9155033853051886    0.0833616464310271    0.4373377119526781
     0.6646577644117142    0.5832903708778745    0.6891129290376576
     0.8367513653897197    0.6689264294877258    0.5609373523522665
     0.1629781121795871    0.0823461403915521    0.9385311698629912
     0.1680668036415547    0.5841802950930535    0.6872292791681077
     0.4194802589295424    0.3359630650236090    0.9375414173470575
     0.6670198896479862    0.3314622049286931    0.1871736632757869
     0.0842391704504978    0.6679647986055054    0.3120610365573018
     0.6669000707903219    0.8350801718979245    0.9377414138257290
     0.4173385557919349    0.3307012796904137    0.4394136762325416
     0.8309176420163612    0.1642683235850213    0.8125037734059182
     0.6663088108507330    0.8361829231861972    0.6876544081007341
     0.6673913779393426    0.0867639866029307    0.9379988908076029
     0.9150336823869668    0.5791245661220249    0.9380239738912421
     0.0788407532197308    0.4114574266762530    0.3128328976765667
     0.4140047997519457    0.3289497467658992    0.6876982953843002
     0.1639807431278480    0.3364209232856240    0.9369807569076946
     0.8325329508791490    0.4163962260311321    0.8119121592374893
     0.4179740822434849    0.5881998194537512    0.4382833749768792
     0.6655475665013030    0.5839844183179903    0.4355027039357872
     0.9160857238956599    0.5841577156480959    0.1854086594730884
     0.3373289249122142    0.6701041880593946    0.3121740211899246
     0.8317868027667744    0.1688447161148439    0.5637453120333057
     0.9162081952299758    0.0819254051361882    0.1878306853554314
     0.8329432773178941    0.4146452406431450    0.3130794545311976
     0.5826990064674694    0.6633757752018179    0.0626815794580390
     0.6644168170781374    0.5860630478957767    0.1875423621205366
     0.5814843125201221    0.9171250738145782    0.0645505638010594
     0.1659418460686949    0.0848533438390711    0.1867473120512798
     0.5790560806072126    0.6641741433047808    0.8141017656457336
     0.4187326129840088    0.8369048429773193    0.9374849823054313
     0.0835796541768973    0.1653786165644719    0.3110771820046180
     0.3286061130181180    0.4161751305228711    0.0639819648388869
     0.9144120061036044    0.3286991544402933    0.6888857920052596
     0.3312177999910025    0.4180464180869112    0.8104535158752526
     0.5847214515581628    0.9184205591765521    0.5610648964039494
     0.3359768868840617    0.1642497626518864    0.0652299846557331
     0.4155439032148301    0.0786294500501371    0.1873707217420433
     0.0814872163402919    0.1702668479187525    0.0642084657778485
     0.8316419031827376    0.9162614472051652    0.5636781870002509
     0.5823750157177463    0.9198668711492103    0.8112482239883376
     0.1707514689363053    0.5804502827759767    0.1865648018293745
     0.5828094305654595    0.4129815732169548    0.5635721693225243
     0.6704245844238629    0.3332566798160697    0.9374562112013216
     0.6664064202079399    0.8334178133071084    0.1867999660404602
     0.8297343827836787    0.9138285309454340    0.3108523753559195
     0.5860000783294920    0.4179405039951359    0.3124882935720804
     0.1693620934268622    0.5816318012844852    0.4381187634487682
     0.9215965005292107    0.3368288091289381    0.1862614108796586
     0.1682866628365866    0.0813420468740591    0.4365284130056333
     0.3325556819231849    0.4208662993017803    0.5652338462108747
     0.4217164541123946    0.0834859720907560    0.9363933668010427
     0.8377001218890866    0.9196257428779052    0.0642255688910574
     0.5850234930066380    0.6709092189559127    0.3118501674140772
     0.1658314838185589    0.3351951564389209    0.4394375329741359
     0.4162795518788492    0.3331328099549485    0.1850870924405023
     0.0850241949043964    0.9225486865609074    0.5617996709184575
     0.5824060336877805    0.1661282309609487    0.5627420728367070
     0.9147014862411615    0.5785930625883606    0.4367868632205378
     0.8359412152812985    0.4152071054026294    0.5642681043085851
     0.4146939972960584    0.8317422606953236    0.1880115778424118
     0.0884998019322729    0.1684556124886408    0.5638482342311573
     0.8300393501256614    0.6643124450188898    0.3113893962260974
     0.1616726227509953    0.3309279626831024    0.1864013194299645
     0.0822089413605646    0.1691296668958457    0.8105682418791512
     0.5849723447195784    0.1676217449841445    0.8115894405603776
     0.3346349703663800    0.1630743244083675    0.3101127098453637
     0.3336009978269474    0.1640514656983921    0.8102220279261811
     0.3363558813479753    0.6687577042211228    0.5609687549620939
     0.0849016266173479    0.6669379997972738    0.5600372395418683
     0.1701956003731377    0.8368820397395873    0.1868217823442637
     0.6657951653079682    0.3292438609325690    0.6871533422325850
     0.3358884304671839    0.6699614878013544    0.8151725766169028
     0.0806254027935522    0.6641372166997950    0.8124430722415573
     0.3361011098368351    0.9202137336107854    0.3133168811259935
     0.1675967338316524    0.8358762616584650    0.4392164333824249
     0.5856162507429679    0.4136670115215448    0.8121977683480390
     0.9187112086264356    0.5841834354362389    0.6892921972218448
     0.9160010649497367    0.8319448361532999    0.1883990964184396
     0.4174387204921480    0.0830914437879675    0.6872544093569993
     0.5871679767427019    0.4219835928027180    0.0629295035882098
     0.4192126985351807    0.5888594511146504    0.1844809504825795
     0.0816857442545766    0.4140262439039348    0.8130502330624251
     0.4146254845086723    0.8330862260562304    0.4374680115304388
     0.9160208065941924    0.0834581011296983    0.6871798839969562
     0.4206946170744972    0.8357262045697155    0.6867938878074706
     0.1647836429417913    0.3297222805133347    0.6873912342689181
     0.5802277553057171    0.1634118356792241    0.3146271280357645
     0.4157406610368308    0.0795561520168221    0.4390475836393431
     0.3300890341325016    0.1620355475570820    0.5645800069440279
     0.3340015393660207    0.9156202203353709    0.5630716681166801
     0.0801113798504195    0.4115889465122242    0.5617636250524448
     0.6660123784581876    0.0823499604467874    0.6867917613390544
     0.8305510342205163    0.1691058599946642    0.3100547110481387
     0.3348297320184593    0.9167786291202246    0.8096355534200205
     0.5785730940880585    0.6664933702906729    0.5617743748466492
     0.0811527910457475    0.9154571581140847    0.8100993009050464
     0.0847223366799151    0.9205568127181383    0.3114096449512143
     0.1627764429741388    0.5789230122471365    0.9379236029733441
     0.0839171039195228    0.4172845906455145    0.0622148472278879
     0.1647304262582560    0.8351034174639954    0.6862188418829430
     0.8316321322284351    0.1658773366936445    0.0635513865767319
     0.0830870444678383    0.6634916407673283    0.0651225420496458
     0.9159133114715702    0.3323990186561459    0.9371434189302406
     0.4122091706745730    0.5812809469048204    0.9383171617156298
     0.0790984502506095    0.9132436757498218    0.0665820935212443
     0.8324737463389602    0.6672311211303321    0.0632988036741250
     0.8369614994288807    0.6696994435283136    0.8144039574994709
     0.9166983429370743    0.0881897975254804    0.9375474989638598
     0.5818604450082872    0.1644065650329050    0.0614310667689800
     0.4176970481117065    0.5873321931737460    0.6886665357084908
     0.6654689004081062    0.8294503074844237    0.4377474937728237
     0.5856330455071388    0.9176186913558243    0.3134125400650544
     0.6650537751189749    0.0846682148202719    0.4374930588579615
     0.9191882713715287    0.8329597913851056    0.4342580423079994
     0.3359889180169429    0.9184236707880048    0.0638152447900519
     0.6713266148503200    0.5825672928300948    0.9373996836209806
     0.1666841511600647    0.0828696708072480    0.6881030207751806
     0.6642836887609664    0.0789345096395634    0.1878814621311423
     0.9151892266212482    0.8306254140690008    0.9384122266480660
     0.3333868180117026    0.6694498668663810    0.0616977268330844
     0.8361777107340631    0.4167510030724392    0.0609429324248928
     0.6713731471106249    0.3353247362290261    0.4387218242468656
     0.9206043376978696    0.8389893072557073    0.6882635606148642
     0.9151500803372008    0.3359397151770465    0.4376289133696772
     0.8365889519953170    0.9181526173607900    0.8114642869400718
 
  0.00000000E+00  0.00000000E+00  0.00000000E+00
  0.00000000E+00  0.00000000E+00  0.00000000E+00
  0.00000000E+00  0.00000000E+00  0.00000000E+00
  0.00000000E+00  0.00000000E+00  0.00000000E+00
  0.00000000E+00  0.00000000E+00  0.00000000E+00
  0.00000000E+00  0.00000000E+00  0.00000000E+00
  0.00000000E+00  0.00000000E+00  0.00000000E+00
  0.00000000E+00  0.00000000E+00  0.00000000E+00
  0.00000000E+00  0.00000000E+00  0.00000000E+00
  0.00000000E+00  0.00000000E+00  0.00000000E+00
  0.00000000E+00  0.00000000E+00  0.00000000E+00
  0.00000000E+00  0.00000000E+00  0.00000000E+00
  0.00000000E+00  0.00000000E+00  0.00000000E+00
  0.00000000E+00  0.00000000E+00  0.00000000E+00
  0.00000000E+00  0.00000000E+00  0.00000000E+00
  0.00000000E+00  0.00000000E+00  0.00000000E+00
  0.00000000E+00  0.00000000E+00  0.00000000E+00
  0.00000000E+00  0.00000000E+00  0.00000000E+00
  0.00000000E+00  0.00000000E+00  0.00000000E+00
  0.00000000E+00  0.00000000E+00  0.00000000E+00
  0.00000000E+00  0.00000000E+00  0.00000000E+00
  0.00000000E+00  0.00000000E+00  0.00000000E+00
  0.00000000E+00  0.00000000E+00  0.00000000E+00
  0.00000000E+00  0.00000000E+00  0.00000000E+00
  0.00000000E+00  0.00000000E+00  0.00000000E+00
  0.00000000E+00  0.00000000E+00  0.00000000E+00
  0.00000000E+00  0.00000000E+00  0.00000000E+00
  0.00000000E+00  0.00000000E+00  0.00000000E+00
  0.00000000E+00  0.00000000E+00  0.00000000E+00
  0.00000000E+00  0.00000000E+00  0.00000000E+00
  0.00000000E+00  0.00000000E+00  0.00000000E+00
  0.00000000E+00  0.00000000E+00  0.00000000E+00
  0.00000000E+00  0.00000000E+00  0.00000000E+00
  0.00000000E+00  0.00000000E+00  0.00000000E+00
  0.00000000E+00  0.00000000E+00  0.00000000E+00
  0.00000000E+00  0.00000000E+00  0.00000000E+00
  0.00000000E+00  0.00000000E+00  0.00000000E+00
  0.00000000E+00  0.00000000E+00  0.00000000E+00
  0.00000000E+00  0.00000000E+00  0.00000000E+00
  0.00000000E+00  0.00000000E+00  0.00000000E+00
  0.00000000E+00  0.00000000E+00  0.00000000E+00
  0.00000000E+00  0.00000000E+00  0.00000000E+00
  0.00000000E+00  0.00000000E+00  0.00000000E+00
  0.00000000E+00  0.00000000E+00  0.00000000E+00
  0.00000000E+00  0.00000000E+00  0.00000000E+00
  0.00000000E+00  0.00000000E+00  0.00000000E+00
  0.00000000E+00  0.00000000E+00  0.00000000E+00
  0.00000000E+00  0.00000000E+00  0.00000000E+00
  0.00000000E+00  0.00000000E+00  0.00000000E+00
  0.00000000E+00  0.00000000E+00  0.00000000E+00
  0.00000000E+00  0.00000000E+00  0.00000000E+00
  0.00000000E+00  0.00000000E+00  0.00000000E+00
  0.00000000E+00  0.00000000E+00  0.00000000E+00
  0.00000000E+00  0.00000000E+00  0.00000000E+00
  0.00000000E+00  0.00000000E+00  0.00000000E+00
  0.00000000E+00  0.00000000E+00  0.00000000E+00
  0.00000000E+00  0.00000000E+00  0.00000000E+00
  0.00000000E+00  0.00000000E+00  0.00000000E+00
  0.00000000E+00  0.00000000E+00  0.00000000E+00
  0.00000000E+00  0.00000000E+00  0.00000000E+00
  0.00000000E+00  0.00000000E+00  0.00000000E+00
  0.00000000E+00  0.00000000E+00  0.00000000E+00
  0.00000000E+00  0.00000000E+00  0.00000000E+00
  0.00000000E+00  0.00000000E+00  0.00000000E+00
  0.00000000E+00  0.00000000E+00  0.00000000E+00
  0.00000000E+00  0.00000000E+00  0.00000000E+00
  0.00000000E+00  0.00000000E+00  0.00000000E+00
  0.00000000E+00  0.00000000E+00  0.00000000E+00
  0.00000000E+00  0.00000000E+00  0.00000000E+00
  0.00000000E+00  0.00000000E+00  0.00000000E+00
  0.00000000E+00  0.00000000E+00  0.00000000E+00
  0.00000000E+00  0.00000000E+00  0.00000000E+00
  0.00000000E+00  0.00000000E+00  0.00000000E+00
  0.00000000E+00  0.00000000E+00  0.00000000E+00
  0.00000000E+00  0.00000000E+00  0.00000000E+00
  0.00000000E+00  0.00000000E+00  0.00000000E+00
  0.00000000E+00  0.00000000E+00  0.00000000E+00
  0.00000000E+00  0.00000000E+00  0.00000000E+00
  0.00000000E+00  0.00000000E+00  0.00000000E+00
  0.00000000E+00  0.00000000E+00  0.00000000E+00
  0.00000000E+00  0.00000000E+00  0.00000000E+00
  0.00000000E+00  0.00000000E+00  0.00000000E+00
  0.00000000E+00  0.00000000E+00  0.00000000E+00
  0.00000000E+00  0.00000000E+00  0.00000000E+00
  0.00000000E+00  0.00000000E+00  0.00000000E+00
  0.00000000E+00  0.00000000E+00  0.00000000E+00
  0.00000000E+00  0.00000000E+00  0.00000000E+00
  0.00000000E+00  0.00000000E+00  0.00000000E+00
  0.00000000E+00  0.00000000E+00  0.00000000E+00
  0.00000000E+00  0.00000000E+00  0.00000000E+00
  0.00000000E+00  0.00000000E+00  0.00000000E+00
  0.00000000E+00  0.00000000E+00  0.00000000E+00
  0.00000000E+00  0.00000000E+00  0.00000000E+00
  0.00000000E+00  0.00000000E+00  0.00000000E+00
  0.00000000E+00  0.00000000E+00  0.00000000E+00
  0.00000000E+00  0.00000000E+00  0.00000000E+00
  0.00000000E+00  0.00000000E+00  0.00000000E+00
  0.00000000E+00  0.00000000E+00  0.00000000E+00
  0.00000000E+00  0.00000000E+00  0.00000000E+00
  0.00000000E+00  0.00000000E+00  0.00000000E+00
  0.00000000E+00  0.00000000E+00  0.00000000E+00
  0.00000000E+00  0.00000000E+00  0.00000000E+00
  0.00000000E+00  0.00000000E+00  0.00000000E+00
  0.00000000E+00  0.00000000E+00  0.00000000E+00
  0.00000000E+00  0.00000000E+00  0.00000000E+00
  0.00000000E+00  0.00000000E+00  0.00000000E+00
  0.00000000E+00  0.00000000E+00  0.00000000E+00
  0.00000000E+00  0.00000000E+00  0.00000000E+00
  0.00000000E+00  0.00000000E+00  0.00000000E+00
  0.00000000E+00  0.00000000E+00  0.00000000E+00
  0.00000000E+00  0.00000000E+00  0.00000000E+00
  0.00000000E+00  0.00000000E+00  0.00000000E+00
  0.00000000E+00  0.00000000E+00  0.00000000E+00
  0.00000000E+00  0.00000000E+00  0.00000000E+00
  0.00000000E+00  0.00000000E+00  0.00000000E+00
  0.00000000E+00  0.00000000E+00  0.00000000E+00
  0.00000000E+00  0.00000000E+00  0.00000000E+00
  0.00000000E+00  0.00000000E+00  0.00000000E+00
  0.00000000E+00  0.00000000E+00  0.00000000E+00
  0.00000000E+00  0.00000000E+00  0.00000000E+00
  0.00000000E+00  0.00000000E+00  0.00000000E+00
  0.00000000E+00  0.00000000E+00  0.00000000E+00
  0.00000000E+00  0.00000000E+00  0.00000000E+00
  0.00000000E+00  0.00000000E+00  0.00000000E+00
  0.00000000E+00  0.00000000E+00  0.00000000E+00
  0.00000000E+00  0.00000000E+00  0.00000000E+00
  0.00000000E+00  0.00000000E+00  0.00000000E+00
  0.00000000E+00  0.00000000E+00  0.00000000E+00
