Nb Ti                                   
    1.000000000000000     
    13.1460398075354785    0.2572409418632551    0.1358429273387539
    -6.5458103150791604    9.1680291249071626   -0.0414197921885538
    -0.1902592728911936   -0.0645414064037231   18.7896461492918121
  Nb              Ti            
   120     8
Direct
     0.9360802308630585    0.1243635390373504    0.4390022348127418
     0.3143486072935396    0.6255100030668025    0.5622960773009478
     0.8128381048214510    0.6249655447101666    0.8127518089333147
     0.9363471258307285    0.8746469899291509    0.1877821137924188
     0.4387760329513117    0.8753553932140464    0.6873179916148853
     0.4374730332786758    0.1238446299942143    0.6874670283497477
     0.0644809184729180    0.6251158049987638    0.8143661866415211
     0.6900408308328383    0.3763759991001632    0.1873145605656728
     0.4370034802414850    0.1247807280857428    0.9378000321655466
     0.3121169069605064    0.1236487325645193    0.5628037589178926
     0.6872083847487972    0.1250640950204137    0.6876527011120005
     0.8137405885250886    0.1254556963889517    0.3110469348239319
     0.1873082253789312    0.1248407762492414    0.1874104781817941
     0.1841365194015598    0.8739501650742187    0.4373827511574640
     0.4373432313314480    0.1257045543754279    0.1874437609953242
     0.3120326801637431    0.6245919263406078    0.0624794457711235
     0.3127043469678925    0.8749304406189046    0.5622407994586049
     0.4351646129280256    0.3714196978495918    0.9352377781491149
     0.3131495383870966    0.1261897487742472    0.3125897432305094
     0.4376757435552378    0.8765619255434949    0.1879251983845439
     0.3109997405178003    0.8737109864991454    0.3127164120220072
     0.5622502665064270    0.3753390490051607    0.8122427402663488
     0.8126440441978606    0.1273247991377381    0.5622616809837224
     0.4370721290702388    0.3746866590629288    0.1873862924238920
     0.4387288048714876    0.3759780489442042    0.4372775858423871
     0.0623470119887937    0.6255781941078669    0.0627489719331398
     0.9396981825083185    0.8757358084579460    0.9383174494171477
     0.0618956493294150    0.1222455534041887    0.5611940342118180
     0.4385331164887356    0.6260994075230112    0.4373755358970048
     0.0596024421466111    0.3734923455011632    0.3129237522580294
     0.1869782299514837    0.8741547728907161    0.1871778414875191
     0.6868641891243669    0.8754077504339328    0.1874330983582533
     0.8089718078055235    0.8750962235817417    0.0622688036776100
     0.8147587393916003    0.6253811392877666    0.5617553612257277
     0.6887151252108551    0.1275391971476082    0.4357269456223954
     0.0631315495480203    0.8743085792079017    0.3123513704737758
     0.3117882147935842    0.3747239527805902    0.3121004677729324
     0.5621336166602560    0.1279637264765180    0.0627682947965560
     0.6863522840947384    0.6247287440259761    0.1873509826603622
     0.0624681303811947    0.3750302383976367    0.0622947443963466
     0.8123886886704543    0.6250964684994967    0.0622481609601516
     0.5629630815748022    0.8754842858846600    0.8128955407223813
     0.0611035048899577    0.8747102946797192    0.0627944570386598
     0.5664985586789840    0.8752948759967878    0.5620146779505080
     0.6879790141868142    0.8756346353465070    0.6876513608347875
     0.9367279070057346    0.1218977315216109    0.6859201365988428
     0.3121494627682283    0.3767871601320513    0.8121045828196071
     0.1872265462819006    0.3735475370760937    0.6871181038426402
     0.9384325439185864    0.8750002064325072    0.6873352768543527
     0.8117850318175633    0.1241677028160353    0.8124857807817559
     0.1880492209296342    0.6249934748114453    0.4372713799533762
     0.5614309152128047    0.6223649281068852    0.0619601932758563
     0.5610752269589836    0.3742049969011091    0.0618503518724103
     0.8123553516690172    0.3747414642890749    0.8128042364266752
     0.6888370950493915    0.6267721062593241    0.4391417114738329
     0.4384339915821568    0.6243825708548173    0.6871631579689197
     0.9360449975186583    0.3746504803889454    0.9378238441169922
     0.1902822787791422    0.8769240228540921    0.6889361099869235
     0.5629862402916588    0.8759260324480234    0.3119177033300894
     0.8136314577206378    0.3762707161738113    0.5628176198860584
     0.3124074491658771    0.3736454465969700    0.5626092546282920
     0.3099570731595508    0.1215355904238518    0.0604858680174690
     0.8122947319694335    0.3767607286748183    0.0624854253097362
     0.4390165603006378    0.8755569758007615    0.4371701389038555
     0.6860653076283365    0.1246197271689317    0.1873536111418050
     0.9368035652313931    0.1227696939097697    0.1873785292139959
     0.6885199357395279    0.3760177295704028    0.6883084130841571
     0.8135344325927467    0.6299787715925594    0.3145291050017225
     0.6895824696487119    0.6278203369984716    0.6860161436528146
     0.6871077621051247    0.3755822567505972    0.4381619919314394
     0.0614740712127990    0.6225225895641406    0.3111666019681578
     0.5664091750183492    0.3762326025357420    0.3124849408590767
     0.0637396166950139    0.6255764189481087    0.5629063730693414
     0.3148449210569698    0.8746476890088620    0.0631067230320124
     0.8170066668701743    0.8762758737191689    0.8124670177645679
     0.1851095839529334    0.1248111555774178    0.9364324429381932
     0.9366594927080960    0.6203888558631481    0.4359373352331352
     0.1858052173323999    0.1219156548290149    0.6880864250934778
     0.5626348444623462    0.1253123346540365    0.3121325421022957
     0.4369591741797380    0.1241378515153623    0.4372278409774835
     0.6906351256765041    0.8766071471031290    0.4368047020185291
     0.1871319097150636    0.3738576784831661    0.4373974462415261
     0.3110406327921542    0.3742752953531022    0.0620936282845138
     0.6848725797060105    0.1221842560796797    0.9392122433172752
     0.0609075584019970    0.1227945420463562    0.3143061459609741
     0.8120304064962284    0.8753584581170805    0.3124134893592292
     0.9406149466786575    0.6294718670676946    0.6896185092178189
     0.9365855214115406    0.1247308222389756    0.9378399043571790
     0.0633714565049816    0.3749651545523375    0.5629420306766788
     0.5588232576684605    0.1240939150945001    0.8127643501299014
     0.9392572552149578    0.6269738718975094    0.9367464356442307
     0.9376990464823449    0.3753233603430159    0.6879598680919533
     0.6884928345378215    0.8756314258167377    0.9369682770570010
     0.0609475538285770    0.8738174112632494    0.5629459035065449
     0.5629752697695721    0.1252176662062587    0.5620645687932893
     0.6873648061148427    0.3755962345664892    0.9368942564168483
     0.5631057432381872    0.3753099979901198    0.5631339498858986
     0.0619614822427052    0.3739234837579004    0.8123633690269381
     0.9359372499822893    0.6252047449978495    0.1891299824721036
     0.5628156726987759    0.6238518632193822    0.5623121692144060
     0.1877024619735669    0.6228505696609782    0.9380623986839545
     0.0652112088057517    0.1266020946986306    0.8119459583061157
     0.4390200560013339    0.6274176563264107    0.9387547204616093
     0.8132196322828721    0.1297780446344572    0.0644322595924171
     0.4376368748963529    0.6265953330022647    0.1852918082537594
     0.3137033401483775    0.6265716462518478    0.8124154687793965
     0.1838538594419486    0.3745878738534693    0.1875358382047262
     0.5622589968596297    0.6252205252042377    0.3124143806417217
     0.3098156957548036    0.8722630294276362    0.8123568446187160
     0.6874567448821337    0.6262479274911462    0.9371735663506064
     0.4337393843946286    0.8755104511241821    0.9371869869881467
     0.1873470370962944    0.3743888987945979    0.9372999132454065
     0.5637303270325108    0.6259129216094539    0.8121123542885847
     0.1887282123704430    0.6252603742678260    0.6877116769012992
     0.3120082048224351    0.6237374719731180    0.3119790530084101
     0.0614045410550472    0.1240106646633360    0.0625537061889828
     0.9383018412583404    0.3741821410718622    0.4379756809787893
     0.1872076654760418    0.6254977815493498    0.1871859354380195
     0.4363543572021330    0.3719378430630740    0.6886952975885554
     0.1878508688956790    0.1245894705858064    0.4375420088890239
     0.8119982706665538    0.8748918242448828    0.5627210069204374
     0.8126449534917836    0.3779486619280927    0.3140483600716940
     0.5620854516423216    0.8751529413130873    0.0617579152604588
     0.0622146360696524    0.8741254126872325    0.8128111404828642
     0.9375505279438863    0.8738820247281771    0.4365333122901714
     0.9360443967705085    0.3731426339148546    0.1873888222031990
     0.1893503271160194    0.8764396132125223    0.9377852281287078
     0.3127750804305113    0.1252642785381209    0.8137322668574756
 
  0.00000000E+00  0.00000000E+00  0.00000000E+00
  0.00000000E+00  0.00000000E+00  0.00000000E+00
  0.00000000E+00  0.00000000E+00  0.00000000E+00
  0.00000000E+00  0.00000000E+00  0.00000000E+00
  0.00000000E+00  0.00000000E+00  0.00000000E+00
  0.00000000E+00  0.00000000E+00  0.00000000E+00
  0.00000000E+00  0.00000000E+00  0.00000000E+00
  0.00000000E+00  0.00000000E+00  0.00000000E+00
  0.00000000E+00  0.00000000E+00  0.00000000E+00
  0.00000000E+00  0.00000000E+00  0.00000000E+00
  0.00000000E+00  0.00000000E+00  0.00000000E+00
  0.00000000E+00  0.00000000E+00  0.00000000E+00
  0.00000000E+00  0.00000000E+00  0.00000000E+00
  0.00000000E+00  0.00000000E+00  0.00000000E+00
  0.00000000E+00  0.00000000E+00  0.00000000E+00
  0.00000000E+00  0.00000000E+00  0.00000000E+00
  0.00000000E+00  0.00000000E+00  0.00000000E+00
  0.00000000E+00  0.00000000E+00  0.00000000E+00
  0.00000000E+00  0.00000000E+00  0.00000000E+00
  0.00000000E+00  0.00000000E+00  0.00000000E+00
  0.00000000E+00  0.00000000E+00  0.00000000E+00
  0.00000000E+00  0.00000000E+00  0.00000000E+00
  0.00000000E+00  0.00000000E+00  0.00000000E+00
  0.00000000E+00  0.00000000E+00  0.00000000E+00
  0.00000000E+00  0.00000000E+00  0.00000000E+00
  0.00000000E+00  0.00000000E+00  0.00000000E+00
  0.00000000E+00  0.00000000E+00  0.00000000E+00
  0.00000000E+00  0.00000000E+00  0.00000000E+00
  0.00000000E+00  0.00000000E+00  0.00000000E+00
  0.00000000E+00  0.00000000E+00  0.00000000E+00
  0.00000000E+00  0.00000000E+00  0.00000000E+00
  0.00000000E+00  0.00000000E+00  0.00000000E+00
  0.00000000E+00  0.00000000E+00  0.00000000E+00
  0.00000000E+00  0.00000000E+00  0.00000000E+00
  0.00000000E+00  0.00000000E+00  0.00000000E+00
  0.00000000E+00  0.00000000E+00  0.00000000E+00
  0.00000000E+00  0.00000000E+00  0.00000000E+00
  0.00000000E+00  0.00000000E+00  0.00000000E+00
  0.00000000E+00  0.00000000E+00  0.00000000E+00
  0.00000000E+00  0.00000000E+00  0.00000000E+00
  0.00000000E+00  0.00000000E+00  0.00000000E+00
  0.00000000E+00  0.00000000E+00  0.00000000E+00
  0.00000000E+00  0.00000000E+00  0.00000000E+00
  0.00000000E+00  0.00000000E+00  0.00000000E+00
  0.00000000E+00  0.00000000E+00  0.00000000E+00
  0.00000000E+00  0.00000000E+00  0.00000000E+00
  0.00000000E+00  0.00000000E+00  0.00000000E+00
  0.00000000E+00  0.00000000E+00  0.00000000E+00
  0.00000000E+00  0.00000000E+00  0.00000000E+00
  0.00000000E+00  0.00000000E+00  0.00000000E+00
  0.00000000E+00  0.00000000E+00  0.00000000E+00
  0.00000000E+00  0.00000000E+00  0.00000000E+00
  0.00000000E+00  0.00000000E+00  0.00000000E+00
  0.00000000E+00  0.00000000E+00  0.00000000E+00
  0.00000000E+00  0.00000000E+00  0.00000000E+00
  0.00000000E+00  0.00000000E+00  0.00000000E+00
  0.00000000E+00  0.00000000E+00  0.00000000E+00
  0.00000000E+00  0.00000000E+00  0.00000000E+00
  0.00000000E+00  0.00000000E+00  0.00000000E+00
  0.00000000E+00  0.00000000E+00  0.00000000E+00
  0.00000000E+00  0.00000000E+00  0.00000000E+00
  0.00000000E+00  0.00000000E+00  0.00000000E+00
  0.00000000E+00  0.00000000E+00  0.00000000E+00
  0.00000000E+00  0.00000000E+00  0.00000000E+00
  0.00000000E+00  0.00000000E+00  0.00000000E+00
  0.00000000E+00  0.00000000E+00  0.00000000E+00
  0.00000000E+00  0.00000000E+00  0.00000000E+00
  0.00000000E+00  0.00000000E+00  0.00000000E+00
  0.00000000E+00  0.00000000E+00  0.00000000E+00
  0.00000000E+00  0.00000000E+00  0.00000000E+00
  0.00000000E+00  0.00000000E+00  0.00000000E+00
  0.00000000E+00  0.00000000E+00  0.00000000E+00
  0.00000000E+00  0.00000000E+00  0.00000000E+00
  0.00000000E+00  0.00000000E+00  0.00000000E+00
  0.00000000E+00  0.00000000E+00  0.00000000E+00
  0.00000000E+00  0.00000000E+00  0.00000000E+00
  0.00000000E+00  0.00000000E+00  0.00000000E+00
  0.00000000E+00  0.00000000E+00  0.00000000E+00
  0.00000000E+00  0.00000000E+00  0.00000000E+00
  0.00000000E+00  0.00000000E+00  0.00000000E+00
  0.00000000E+00  0.00000000E+00  0.00000000E+00
  0.00000000E+00  0.00000000E+00  0.00000000E+00
  0.00000000E+00  0.00000000E+00  0.00000000E+00
  0.00000000E+00  0.00000000E+00  0.00000000E+00
  0.00000000E+00  0.00000000E+00  0.00000000E+00
  0.00000000E+00  0.00000000E+00  0.00000000E+00
  0.00000000E+00  0.00000000E+00  0.00000000E+00
  0.00000000E+00  0.00000000E+00  0.00000000E+00
  0.00000000E+00  0.00000000E+00  0.00000000E+00
  0.00000000E+00  0.00000000E+00  0.00000000E+00
  0.00000000E+00  0.00000000E+00  0.00000000E+00
  0.00000000E+00  0.00000000E+00  0.00000000E+00
  0.00000000E+00  0.00000000E+00  0.00000000E+00
  0.00000000E+00  0.00000000E+00  0.00000000E+00
  0.00000000E+00  0.00000000E+00  0.00000000E+00
  0.00000000E+00  0.00000000E+00  0.00000000E+00
  0.00000000E+00  0.00000000E+00  0.00000000E+00
  0.00000000E+00  0.00000000E+00  0.00000000E+00
  0.00000000E+00  0.00000000E+00  0.00000000E+00
  0.00000000E+00  0.00000000E+00  0.00000000E+00
  0.00000000E+00  0.00000000E+00  0.00000000E+00
  0.00000000E+00  0.00000000E+00  0.00000000E+00
  0.00000000E+00  0.00000000E+00  0.00000000E+00
  0.00000000E+00  0.00000000E+00  0.00000000E+00
  0.00000000E+00  0.00000000E+00  0.00000000E+00
  0.00000000E+00  0.00000000E+00  0.00000000E+00
  0.00000000E+00  0.00000000E+00  0.00000000E+00
  0.00000000E+00  0.00000000E+00  0.00000000E+00
  0.00000000E+00  0.00000000E+00  0.00000000E+00
  0.00000000E+00  0.00000000E+00  0.00000000E+00
  0.00000000E+00  0.00000000E+00  0.00000000E+00
  0.00000000E+00  0.00000000E+00  0.00000000E+00
  0.00000000E+00  0.00000000E+00  0.00000000E+00
  0.00000000E+00  0.00000000E+00  0.00000000E+00
  0.00000000E+00  0.00000000E+00  0.00000000E+00
  0.00000000E+00  0.00000000E+00  0.00000000E+00
  0.00000000E+00  0.00000000E+00  0.00000000E+00
  0.00000000E+00  0.00000000E+00  0.00000000E+00
  0.00000000E+00  0.00000000E+00  0.00000000E+00
  0.00000000E+00  0.00000000E+00  0.00000000E+00
  0.00000000E+00  0.00000000E+00  0.00000000E+00
  0.00000000E+00  0.00000000E+00  0.00000000E+00
  0.00000000E+00  0.00000000E+00  0.00000000E+00
  0.00000000E+00  0.00000000E+00  0.00000000E+00
  0.00000000E+00  0.00000000E+00  0.00000000E+00
  0.00000000E+00  0.00000000E+00  0.00000000E+00
  0.00000000E+00  0.00000000E+00  0.00000000E+00
  0.00000000E+00  0.00000000E+00  0.00000000E+00
