Nb Ta  Zr 
 1.0000000000000000
    12.6606534398499999    0.0000000000000000    0.0000000000000000
     0.0000000000000000   12.6606534398499999    0.0000000000000000
     0.0000000000000000    0.0000000000000000   12.6606534398499999
 Nb  Ta  Zr  
  16 104   8
Direct
  0.3749999999999999  0.1250000000000000  0.6250000000000000
  0.2500000000000000  0.7499999999999999  0.5000000000000000
  0.0000000000000000  0.2500000000000000  0.7499999999999999
  0.7499999999999999  0.5000000000000000  0.7499999999999999
  0.6250000000000000  0.6250000000000000  0.6250000000000000
  0.5000000000000000  0.7499999999999999  0.0000000000000000
  0.5000000000000000  0.0000000000000000  0.5000000000000000
  0.2500000000000000  0.7499999999999999  0.2500000000000000
  0.7499999999999999  0.0000000000000000  0.5000000000000000
  0.3749999999999999  0.3749999999999999  0.6250000000000000
  0.8750000000000000  0.6250000000000000  0.1250000000000000
  0.8750000000000000  0.6250000000000000  0.3749999999999999
  0.2500000000000000  0.2500000000000000  0.0000000000000000
  0.3749999999999999  0.3749999999999999  0.1250000000000000
  0.5000000000000000  0.7499999999999999  0.7499999999999999
  0.3749999999999999  0.8750000000000000  0.1250000000000000
  0.5000000000000000  0.2500000000000000  0.2500000000000000
  0.2500000000000000  0.2500000000000000  0.7499999999999999
  0.0000000000000000  0.7499999999999999  0.2500000000000000
  0.1250000000000000  0.6250000000000000  0.6250000000000000
  0.6250000000000000  0.1250000000000000  0.1250000000000000
  0.3749999999999999  0.1250000000000000  0.3749999999999999
  0.8750000000000000  0.8750000000000000  0.1250000000000000
  0.6250000000000000  0.1250000000000000  0.6250000000000000
  0.6250000000000000  0.3749999999999999  0.1250000000000000
  0.1250000000000000  0.3749999999999999  0.6250000000000000
  0.8750000000000000  0.1250000000000000  0.6250000000000000
  0.8750000000000000  0.3749999999999999  0.6250000000000000
  0.8750000000000000  0.8750000000000000  0.6250000000000000
  0.0000000000000000  0.5000000000000000  0.7499999999999999
  0.3749999999999999  0.1250000000000000  0.8750000000000000
  0.7499999999999999  0.5000000000000000  0.2500000000000000
  0.7499999999999999  0.2500000000000000  0.2500000000000000
  0.2500000000000000  0.5000000000000000  0.2500000000000000
  0.7499999999999999  0.2500000000000000  0.0000000000000000
  0.6250000000000000  0.3749999999999999  0.3749999999999999
  0.0000000000000000  0.5000000000000000  0.0000000000000000
  0.3749999999999999  0.6250000000000000  0.1250000000000000
  0.3749999999999999  0.6250000000000000  0.6250000000000000
  0.3749999999999999  0.3749999999999999  0.3749999999999999
  0.0000000000000000  0.2500000000000000  0.0000000000000000
  0.8750000000000000  0.8750000000000000  0.8750000000000000
  0.5000000000000000  0.5000000000000000  0.0000000000000000
  0.5000000000000000  0.5000000000000000  0.7499999999999999
  0.2500000000000000  0.0000000000000000  0.2500000000000000
  0.2500000000000000  0.5000000000000000  0.7499999999999999
  0.7499999999999999  0.7499999999999999  0.0000000000000000
  0.0000000000000000  0.7499999999999999  0.0000000000000000
  0.5000000000000000  0.2500000000000000  0.5000000000000000
  0.0000000000000000  0.0000000000000000  0.7499999999999999
  0.3749999999999999  0.8750000000000000  0.8750000000000000
  0.8750000000000000  0.1250000000000000  0.1250000000000000
  0.2500000000000000  0.0000000000000000  0.5000000000000000
  0.1250000000000000  0.3749999999999999  0.3749999999999999
  0.6250000000000000  0.6250000000000000  0.3749999999999999
  0.6250000000000000  0.8750000000000000  0.8750000000000000
  0.7499999999999999  0.0000000000000000  0.0000000000000000
  0.8750000000000000  0.6250000000000000  0.6250000000000000
  0.1250000000000000  0.8750000000000000  0.1250000000000000
  0.3749999999999999  0.6250000000000000  0.3749999999999999
  0.7499999999999999  0.5000000000000000  0.0000000000000000
  0.7499999999999999  0.2500000000000000  0.5000000000000000
  0.8750000000000000  0.3749999999999999  0.1250000000000000
  0.1250000000000000  0.8750000000000000  0.3749999999999999
  0.6250000000000000  0.8750000000000000  0.1250000000000000
  0.6250000000000000  0.6250000000000000  0.1250000000000000
  0.7499999999999999  0.0000000000000000  0.2500000000000000
  0.2500000000000000  0.7499999999999999  0.7499999999999999
  0.2500000000000000  0.0000000000000000  0.7499999999999999
  0.5000000000000000  0.0000000000000000  0.0000000000000000
  0.1250000000000000  0.1250000000000000  0.3749999999999999
  0.7499999999999999  0.0000000000000000  0.7499999999999999
  0.1250000000000000  0.8750000000000000  0.6250000000000000
  0.2500000000000000  0.5000000000000000  0.0000000000000000
  0.6250000000000000  0.6250000000000000  0.8750000000000000
  0.6250000000000000  0.1250000000000000  0.3749999999999999
  0.3749999999999999  0.1250000000000000  0.1250000000000000
  0.2500000000000000  0.2500000000000000  0.2500000000000000
  0.3749999999999999  0.8750000000000000  0.3749999999999999
  0.8750000000000000  0.3749999999999999  0.8750000000000000
  0.8750000000000000  0.6250000000000000  0.8750000000000000
  0.5000000000000000  0.5000000000000000  0.5000000000000000
  0.5000000000000000  0.5000000000000000  0.2500000000000000
  0.5000000000000000  0.0000000000000000  0.7499999999999999
  0.1250000000000000  0.3749999999999999  0.1250000000000000
  0.0000000000000000  0.5000000000000000  0.2500000000000000
  0.1250000000000000  0.6250000000000000  0.1250000000000000
  0.6250000000000000  0.3749999999999999  0.6250000000000000
  0.7499999999999999  0.7499999999999999  0.7499999999999999
  0.0000000000000000  0.0000000000000000  0.0000000000000000
  0.7499999999999999  0.7499999999999999  0.2500000000000000
  0.0000000000000000  0.0000000000000000  0.2500000000000000
  0.8750000000000000  0.8750000000000000  0.3749999999999999
  0.1250000000000000  0.3749999999999999  0.8750000000000000
  0.1250000000000000  0.6250000000000000  0.3749999999999999
  0.0000000000000000  0.5000000000000000  0.5000000000000000
  0.7499999999999999  0.5000000000000000  0.5000000000000000
  0.5000000000000000  0.2500000000000000  0.0000000000000000
  0.5000000000000000  0.7499999999999999  0.5000000000000000
  0.6250000000000000  0.8750000000000000  0.3749999999999999
  0.3749999999999999  0.6250000000000000  0.8750000000000000
  0.5000000000000000  0.0000000000000000  0.2500000000000000
  0.1250000000000000  0.1250000000000000  0.6250000000000000
  0.2500000000000000  0.0000000000000000  0.0000000000000000
  0.6250000000000000  0.3749999999999999  0.8750000000000000
  0.1250000000000000  0.1250000000000000  0.1250000000000000
  0.0000000000000000  0.2500000000000000  0.5000000000000000
  0.1250000000000000  0.6250000000000000  0.8750000000000000
  0.2500000000000000  0.7499999999999999  0.0000000000000000
  0.1250000000000000  0.1250000000000000  0.8750000000000000
  0.0000000000000000  0.2500000000000000  0.2500000000000000
  0.5000000000000000  0.2500000000000000  0.7499999999999999
  0.5000000000000000  0.7499999999999999  0.2500000000000000
  0.0000000000000000  0.7499999999999999  0.7499999999999999
  0.7499999999999999  0.2500000000000000  0.7499999999999999
  0.0000000000000000  0.0000000000000000  0.5000000000000000
  0.3749999999999999  0.3749999999999999  0.8750000000000000
  0.6250000000000000  0.8750000000000000  0.6250000000000000
  0.8750000000000000  0.1250000000000000  0.3749999999999999
  0.8750000000000000  0.3749999999999999  0.3749999999999999
  0.0000000000000000  0.7499999999999999  0.5000000000000000
  0.8750000000000000  0.1250000000000000  0.8750000000000000
  0.1250000000000000  0.8750000000000000  0.8750000000000000
  0.2500000000000000  0.2500000000000000  0.5000000000000000
  0.3749999999999999  0.8750000000000000  0.6250000000000000
  0.7499999999999999  0.7499999999999999  0.5000000000000000
  0.6250000000000000  0.1250000000000000  0.8750000000000000
  0.2500000000000000  0.5000000000000000  0.5000000000000000
