Hf Ta                                   
    1.000000000000000     
    11.5597976558638145   -0.0844316173221104   -1.7003774163946603
    -5.8624984460685008   10.4589447750035127    0.8485097330828603
    -2.8634132392346499    0.0385293013117580   20.6775959684616844
  Hf             Ta           
              16             112
Direct
  0.4095369669419386  0.8100385995973983  0.1863278411878457
  0.5958725122006158  0.6896925218782910  0.5627644131572507
  0.9063468986230083  0.3128641877670689  0.9350653770315352
  0.1601314559796341  0.0632018233870050  0.4386448984812701
  0.8406507778618156  0.1866153819545419  0.0625148629769379
  0.9086423727313661  0.3112304712678697  0.6889419114248947
  0.6566786217833513  0.5636557832337242  0.1864838388149904
  0.6597879888893510  0.5649655973878009  0.9377832859307296
  0.0891088401637108  0.1853111850858551  0.3106412869445658
  0.4039568262823078  0.3111082854359296  0.9368867265836476
  0.5958195700774576  0.4353868920539168  0.3142742352243331
  0.3416647320066903  0.4353600577790530  0.5621064460620638
  0.1521739094198782  0.8100863722852869  0.1882152679030569
  0.3422776144969675  0.4405046518870138  0.3108219629294259
  0.4095669219872896  0.0676374751928733  0.1884630892738224
  0.8441441102864934  0.4383269167934886  0.5624000896053324
  0.3428725185833517  0.4387304686756405  0.8107302210695180
  0.1564261700848818  0.5624704046467337  0.4391031398633781
  0.4050822987589818  0.8128559482959286  0.9363379646708911
  0.3439553568302342  0.4373752017957899  0.0607884582663256
  0.6575298486937590  0.3113062685778036  0.4385775777504519
  0.0924440765332537  0.6880267121648730  0.8121333308381677
  0.1531843256159179  0.0611460964316910  0.9367130362703175
  0.3984921437430274  0.3103650004858833  0.1861351267910622
  0.8451708648824453  0.1844583104648222  0.5622200085292843
  0.5928257033241054  0.4354081786270858  0.8119481824400562
  0.1584212123978306  0.5649980627436187  0.9366454265138310
  0.6564058026395969  0.5649199094686181  0.4391556448955598
  0.3428110861773236  0.6880690935251266  0.8121114210184817
  0.9066037758049970  0.5665320127637191  0.6886075648978882
  0.3411555478868236  0.6901642048164747  0.5640916160197667
  0.5895608954509562  0.9365326571100984  0.0616668988319263
  0.8426026330552681  0.6880544727852390  0.8127110560519087
  0.3391101456615161  0.1867205880040229  0.0624299165588973
  0.9110226212371566  0.5654953816338621  0.9366343033886527
  0.5927469793720893  0.1846271150068791  0.5632139963644551
  0.1561179434525714  0.8126710563736012  0.6879914264145135
  0.5985185034458003  0.1864781732324711  0.3155002427363603
  0.8468041540376791  0.4382595945330490  0.3133759993454061
  0.3434176306367990  0.9369930310202832  0.5635335095899110
  0.8427994107232890  0.9366960629133116  0.8126300227987844
  0.6633223858880681  0.0658358996556628  0.1877984009856030
  0.0956956628174477  0.9349002666033160  0.3119827970865525
  0.8463715950769971  0.6876824468941768  0.0641030680209985
  0.3428879572133463  0.1855609867261802  0.8113446822876687
  0.6537420497239979  0.3126234551504277  0.6877861309240951
  0.1537472304074615  0.5578749305316946  0.1872133902834162
  0.8411084576063542  0.9339707672185024  0.3125185464094744
  0.0927116262154499  0.1864215315296869  0.8121874427582938
  0.6565307972988857  0.8137599832207536  0.6889173271741570
  0.0953451742507445  0.6892861250307615  0.5628298781750649
  0.4120276593230973  0.3154616436318067  0.4398361639619321
  0.4077336877600102  0.5649438321538039  0.6886047389256188
  0.5952185817033322  0.9389818577914741  0.5644157803363646
  0.8439135619701829  0.4395782964530318  0.0626182322044059
  0.9065945765324482  0.5606271325446565  0.1883313539989668
  0.9059170432282391  0.3121674817267303  0.4378362549836788
  0.6548569415827299  0.0610777510429520  0.6880653115736326
  0.0976810737234333  0.4414176438685708  0.0617834201659960
  0.5952787769756855  0.4357269979171965  0.0641660924790824
  0.8414447425341391  0.1836929815595859  0.8120430213377691
  0.4045182969897734  0.5622008635319532  0.1840718423623162
  0.9070438048700173  0.3142708113357836  0.1886298719079143
  0.1507760148225823  0.0659200932006593  0.1859409551395220
  0.0934264038508165  0.4371041546536099  0.5632536051034833
  0.5971092271764731  0.6917644746422501  0.3120265386288528
  0.9041998277010252  0.0599625649577746  0.9365525363481094
  0.0928032386309137  0.9373634476428790  0.8120905619983031
  0.5948893643288946  0.4336959075758198  0.5642686823387002
  0.1556060783786914  0.3126236912496605  0.9366629871027463
  0.5930483383845757  0.1868005641079698  0.8121657730761602
  0.6502304562846382  0.0586212210442462  0.9358048213074459
  0.3446042737637942  0.1788626067973454  0.3129984056306719
  0.1578642012238262  0.8118561584305869  0.4379946663997683
  0.0944655665116768  0.6865959227130758  0.3150480929678516
  0.6588713387129111  0.3134629662421597  0.1878418950445163
  0.3428237424420875  0.6884914848849605  0.3141223167212716
  0.3437955039468391  0.6873659156419071  0.0599414995266948
  0.1530838966528466  0.3140242905615294  0.4367036899474144
  0.3470909531795322  0.1861932382845681  0.5652700103574750
  0.5922608225811414  0.9369351533812619  0.8121331404079738
  0.5888001872834814  0.1878531405101715  0.0623454733446697
  0.0929225201165021  0.1860747857292210  0.5625137244047471
  0.6583018905874698  0.0611240022349395  0.4388498001845720
  0.4124658362695771  0.0625637071382402  0.4387940100305112
  0.5953541895899285  0.9384209242325602  0.3138114328529772
  0.5920676453705558  0.6873789240438866  0.0598698356442059
  0.8426353215093628  0.4393690020029137  0.8109470206218821
  0.4077646279379160  0.3115830175882057  0.6888858579405929
  0.5919566361733500  0.6886314574143073  0.8117476722901046
  0.6569426352427301  0.5616312728809565  0.6891333563467124
  0.8475645118390129  0.6896751950622121  0.5635906042864820
  0.0939478648095023  0.9365550304415294  0.5642546817149315
  0.0953680369222968  0.4376828772787273  0.8138381294951951
  0.9075833034375955  0.0607420966015480  0.6872973139914383
  0.4061451125675122  0.8134593348844341  0.6877228088569216
  0.0943384863338267  0.6867833013461493  0.0610822039804066
  0.3395572937633830  0.9375276111873918  0.0592890503606247
  0.4040425224573120  0.5641857535378372  0.4353752612374951
  0.4079164325408624  0.8117004378046743  0.4395300812877707
  0.9044641052236868  0.0614285040634030  0.4376840096175251
  0.9052267019276641  0.8115412046228651  0.4383608167493657
  0.1588560392339234  0.5647819156071556  0.6881509223697603
  0.6574627564139833  0.8139324630153887  0.4363155357157217
  0.1516545778578573  0.3134010678869930  0.1827846932853136
  0.8506401133704613  0.6911034572789803  0.3140378402321471
  0.1558106382152798  0.8130942209016538  0.9361688081541381
  0.8470081054038534  0.9393908387465749  0.5625311140471465
  0.8406436705527842  0.1866637573027518  0.3133668027150359
  0.9076563146185970  0.5655973152009903  0.4366589429211652
  0.3473988070227618  0.9361837644051975  0.3170404778529137
  0.3421950269742143  0.9364257750657897  0.8122573926008503
  0.9089366275783303  0.8145828353934225  0.9375740093585726
  0.6557473368656058  0.8144987535493079  0.9362691297141836
  0.1570513650448339  0.0621195801303559  0.6875536666504155
  0.6553455085365866  0.3083026601351760  0.9368476998075791
  0.0891485313600231  0.4389208300248634  0.3138435933806394
  0.6594499397549104  0.8141805814456891  0.1858277427887369
  0.1606293316569885  0.3128767359371039  0.6872511746927072
  0.0916901207890628  0.9377347956258580  0.0611105995346817
  0.9060994029715980  0.8160394840060112  0.1877578500438578
  0.9028969938720418  0.0602188347514460  0.1864397627077893
  0.4060913499419744  0.0617033454545131  0.6879776298894225
  0.4038550593441823  0.0606251921571543  0.9361374191746819
  0.9064982710233944  0.8134050007690320  0.6876528309983716
  0.8418590899439194  0.9342769817610113  0.0618990351172498
  0.4030370418378053  0.5659645324168479  0.9354880889395806
  0.0938902648849998  0.1870167972099638  0.0609085402307726
 
  0.00000000E+00  0.00000000E+00  0.00000000E+00
  0.00000000E+00  0.00000000E+00  0.00000000E+00
  0.00000000E+00  0.00000000E+00  0.00000000E+00
  0.00000000E+00  0.00000000E+00  0.00000000E+00
  0.00000000E+00  0.00000000E+00  0.00000000E+00
  0.00000000E+00  0.00000000E+00  0.00000000E+00
  0.00000000E+00  0.00000000E+00  0.00000000E+00
  0.00000000E+00  0.00000000E+00  0.00000000E+00
  0.00000000E+00  0.00000000E+00  0.00000000E+00
  0.00000000E+00  0.00000000E+00  0.00000000E+00
  0.00000000E+00  0.00000000E+00  0.00000000E+00
  0.00000000E+00  0.00000000E+00  0.00000000E+00
  0.00000000E+00  0.00000000E+00  0.00000000E+00
  0.00000000E+00  0.00000000E+00  0.00000000E+00
  0.00000000E+00  0.00000000E+00  0.00000000E+00
  0.00000000E+00  0.00000000E+00  0.00000000E+00
  0.00000000E+00  0.00000000E+00  0.00000000E+00
  0.00000000E+00  0.00000000E+00  0.00000000E+00
  0.00000000E+00  0.00000000E+00  0.00000000E+00
  0.00000000E+00  0.00000000E+00  0.00000000E+00
  0.00000000E+00  0.00000000E+00  0.00000000E+00
  0.00000000E+00  0.00000000E+00  0.00000000E+00
  0.00000000E+00  0.00000000E+00  0.00000000E+00
  0.00000000E+00  0.00000000E+00  0.00000000E+00
  0.00000000E+00  0.00000000E+00  0.00000000E+00
  0.00000000E+00  0.00000000E+00  0.00000000E+00
  0.00000000E+00  0.00000000E+00  0.00000000E+00
  0.00000000E+00  0.00000000E+00  0.00000000E+00
  0.00000000E+00  0.00000000E+00  0.00000000E+00
  0.00000000E+00  0.00000000E+00  0.00000000E+00
  0.00000000E+00  0.00000000E+00  0.00000000E+00
  0.00000000E+00  0.00000000E+00  0.00000000E+00
  0.00000000E+00  0.00000000E+00  0.00000000E+00
  0.00000000E+00  0.00000000E+00  0.00000000E+00
  0.00000000E+00  0.00000000E+00  0.00000000E+00
  0.00000000E+00  0.00000000E+00  0.00000000E+00
  0.00000000E+00  0.00000000E+00  0.00000000E+00
  0.00000000E+00  0.00000000E+00  0.00000000E+00
  0.00000000E+00  0.00000000E+00  0.00000000E+00
  0.00000000E+00  0.00000000E+00  0.00000000E+00
  0.00000000E+00  0.00000000E+00  0.00000000E+00
  0.00000000E+00  0.00000000E+00  0.00000000E+00
  0.00000000E+00  0.00000000E+00  0.00000000E+00
  0.00000000E+00  0.00000000E+00  0.00000000E+00
  0.00000000E+00  0.00000000E+00  0.00000000E+00
  0.00000000E+00  0.00000000E+00  0.00000000E+00
  0.00000000E+00  0.00000000E+00  0.00000000E+00
  0.00000000E+00  0.00000000E+00  0.00000000E+00
  0.00000000E+00  0.00000000E+00  0.00000000E+00
  0.00000000E+00  0.00000000E+00  0.00000000E+00
  0.00000000E+00  0.00000000E+00  0.00000000E+00
  0.00000000E+00  0.00000000E+00  0.00000000E+00
  0.00000000E+00  0.00000000E+00  0.00000000E+00
  0.00000000E+00  0.00000000E+00  0.00000000E+00
  0.00000000E+00  0.00000000E+00  0.00000000E+00
  0.00000000E+00  0.00000000E+00  0.00000000E+00
  0.00000000E+00  0.00000000E+00  0.00000000E+00
  0.00000000E+00  0.00000000E+00  0.00000000E+00
  0.00000000E+00  0.00000000E+00  0.00000000E+00
  0.00000000E+00  0.00000000E+00  0.00000000E+00
  0.00000000E+00  0.00000000E+00  0.00000000E+00
  0.00000000E+00  0.00000000E+00  0.00000000E+00
  0.00000000E+00  0.00000000E+00  0.00000000E+00
  0.00000000E+00  0.00000000E+00  0.00000000E+00
  0.00000000E+00  0.00000000E+00  0.00000000E+00
  0.00000000E+00  0.00000000E+00  0.00000000E+00
  0.00000000E+00  0.00000000E+00  0.00000000E+00
  0.00000000E+00  0.00000000E+00  0.00000000E+00
  0.00000000E+00  0.00000000E+00  0.00000000E+00
  0.00000000E+00  0.00000000E+00  0.00000000E+00
  0.00000000E+00  0.00000000E+00  0.00000000E+00
  0.00000000E+00  0.00000000E+00  0.00000000E+00
  0.00000000E+00  0.00000000E+00  0.00000000E+00
  0.00000000E+00  0.00000000E+00  0.00000000E+00
  0.00000000E+00  0.00000000E+00  0.00000000E+00
  0.00000000E+00  0.00000000E+00  0.00000000E+00
  0.00000000E+00  0.00000000E+00  0.00000000E+00
  0.00000000E+00  0.00000000E+00  0.00000000E+00
  0.00000000E+00  0.00000000E+00  0.00000000E+00
  0.00000000E+00  0.00000000E+00  0.00000000E+00
  0.00000000E+00  0.00000000E+00  0.00000000E+00
  0.00000000E+00  0.00000000E+00  0.00000000E+00
  0.00000000E+00  0.00000000E+00  0.00000000E+00
  0.00000000E+00  0.00000000E+00  0.00000000E+00
  0.00000000E+00  0.00000000E+00  0.00000000E+00
  0.00000000E+00  0.00000000E+00  0.00000000E+00
  0.00000000E+00  0.00000000E+00  0.00000000E+00
  0.00000000E+00  0.00000000E+00  0.00000000E+00
  0.00000000E+00  0.00000000E+00  0.00000000E+00
  0.00000000E+00  0.00000000E+00  0.00000000E+00
  0.00000000E+00  0.00000000E+00  0.00000000E+00
  0.00000000E+00  0.00000000E+00  0.00000000E+00
  0.00000000E+00  0.00000000E+00  0.00000000E+00
  0.00000000E+00  0.00000000E+00  0.00000000E+00
  0.00000000E+00  0.00000000E+00  0.00000000E+00
  0.00000000E+00  0.00000000E+00  0.00000000E+00
  0.00000000E+00  0.00000000E+00  0.00000000E+00
  0.00000000E+00  0.00000000E+00  0.00000000E+00
  0.00000000E+00  0.00000000E+00  0.00000000E+00
  0.00000000E+00  0.00000000E+00  0.00000000E+00
  0.00000000E+00  0.00000000E+00  0.00000000E+00
  0.00000000E+00  0.00000000E+00  0.00000000E+00
  0.00000000E+00  0.00000000E+00  0.00000000E+00
  0.00000000E+00  0.00000000E+00  0.00000000E+00
  0.00000000E+00  0.00000000E+00  0.00000000E+00
  0.00000000E+00  0.00000000E+00  0.00000000E+00
  0.00000000E+00  0.00000000E+00  0.00000000E+00
  0.00000000E+00  0.00000000E+00  0.00000000E+00
  0.00000000E+00  0.00000000E+00  0.00000000E+00
  0.00000000E+00  0.00000000E+00  0.00000000E+00
  0.00000000E+00  0.00000000E+00  0.00000000E+00
  0.00000000E+00  0.00000000E+00  0.00000000E+00
  0.00000000E+00  0.00000000E+00  0.00000000E+00
  0.00000000E+00  0.00000000E+00  0.00000000E+00
  0.00000000E+00  0.00000000E+00  0.00000000E+00
  0.00000000E+00  0.00000000E+00  0.00000000E+00
  0.00000000E+00  0.00000000E+00  0.00000000E+00
  0.00000000E+00  0.00000000E+00  0.00000000E+00
  0.00000000E+00  0.00000000E+00  0.00000000E+00
  0.00000000E+00  0.00000000E+00  0.00000000E+00
  0.00000000E+00  0.00000000E+00  0.00000000E+00
  0.00000000E+00  0.00000000E+00  0.00000000E+00
  0.00000000E+00  0.00000000E+00  0.00000000E+00
  0.00000000E+00  0.00000000E+00  0.00000000E+00
  0.00000000E+00  0.00000000E+00  0.00000000E+00
  0.00000000E+00  0.00000000E+00  0.00000000E+00
  0.00000000E+00  0.00000000E+00  0.00000000E+00
  0.00000000E+00  0.00000000E+00  0.00000000E+00
