Hf Ti                                   
    1.000000000000000     
    12.4360464461400078   -0.0032217745655635   -0.0051995758708470
    -6.2208057093829074   10.7462560565350937    0.0042572474620430
    -0.0082670830587233    0.0030082429821170   19.5687249519492852
  Hf              Ti            
    76    52
Direct
     0.4226671983378680    0.8400640821636424    0.6876797916633818
     0.9220068935567969    0.8343178529561944    0.4385477115298763
     0.4228483343773469    0.3420351289920688    0.1902073043738732
     0.9196120591880976    0.3335140725844724    0.1894298877351718
     0.1733804863579578    0.8445113850867356    0.1874526753922876
     0.9177912084899645    0.8337312811494986    0.9415986105703661
     0.4172709080574018    0.8347272172046935    0.9402926447267572
     0.0892043102711789    0.1697148647070675    0.5576384707957157
     0.0853757884630466    0.6654342384100753    0.3119048541393266
     0.8348094134207984    0.1616618557476718    0.3117921842591962
     0.8301638960718103    0.4150512763242195    0.5566831659046229
     0.5806611043627311    0.6657419427898223    0.0654733853264636
     0.6651274648014597    0.3270222795254228    0.9378590806726214
     0.6660867636393365    0.0811003353498547    0.1876594006611528
     0.6589491630701363    0.8292983830797868    0.4374619947293087
     0.4158373357711622    0.8367169485048652    0.4370182834517480
     0.4174471737157832    0.0827116466064883    0.6841820752215791
     0.6655364319735776    0.3286069396475589    0.6861476576822654
     0.4160851762189150    0.8330524962006095    0.1847395479655100
     0.4093135514366131    0.3324265991245435    0.4342491393599031
     0.8342029178058595    0.9217959506540558    0.8136593352385605
     0.3317786132357669    0.1664200811918917    0.8106819656951061
     0.9227465580670939    0.3288430436706801    0.4356735812401786
     0.0912001572521843    0.9222608949487151    0.5621985427059605
     0.5780121323250905    0.1611481410941053    0.0642685554514049
     0.3324432936457091    0.4181495607006790    0.8146383658721866
     0.6623684987823444    0.8308058451537504    0.6851612046406226
     0.1662561472003706    0.5801174679381245    0.4359683036577800
     0.6662383800880125    0.5823565791159516    0.9410204697888224
     0.9117421130717964    0.3268400164137701    0.6859529271004029
     0.6688874042737777    0.0847479864974184    0.4393032418653045
     0.6688989333661587    0.8422452096764438    0.9406870874834934
     0.0845205809279629    0.9195414081280600    0.3111253910787662
     0.8317911365983146    0.6674648629217952    0.3107236737076269
     0.3348696649640457    0.6647851259274784    0.3113528712751680
     0.9134904536836346    0.5851074015898745    0.6848294719387733
     0.0872432491957812    0.1734044395650934    0.3143697445934867
     0.0762345134003813    0.4078978532871214    0.8144250847259710
     0.1703384355658141    0.8373835979537276    0.6874137099388665
     0.3293671743681834    0.1615810382689402    0.3092613593089610
     0.5827978933938244    0.4155325029297287    0.8111514611535041
     0.8327104098540287    0.1579493595267402    0.0605077496225551
     0.1618350651177648    0.0814447372664447    0.9401576776834818
     0.6685589058111727    0.5807073921206207    0.4383480338143633
     0.1584718294638882    0.3254219098017193    0.9405833635336318
     0.0872341986061424    0.6709024498397508    0.8141188544659198
     0.4191538995986411    0.3345140905544127    0.9413764326666701
     0.0820988788853528    0.4150905504472125    0.0655286182217130
     0.9155555694173122    0.5862648688255231    0.1862027356110536
     0.0915750996937132    0.6754472857652850    0.0645949024467110
     0.9184641814442572    0.5849250280758588    0.9404580384562347
     0.5802835693771382    0.4114290466087204    0.5606830368158667
     0.3286383665087763    0.1606703427069532    0.0678092094954856
     0.8308260785602919    0.9147145780021125    0.5613103695963475
     0.8351845446544942    0.9189737493269327    0.3117531509560088
     0.8297205235861783    0.4171656705005840    0.3147523164061686
     0.4123652093338649    0.0840480186610047    0.4409374936199608
     0.5750680798282493    0.6545263511280176    0.3098267847336276
     0.0838413274832414    0.9195926895800982    0.8117963742457062
     0.5806333280580782    0.6673323420856362    0.8126609076765854
     0.3316657746626196    0.4175176050201692    0.0651364156194836
     0.6699210790038690    0.8365932430806169    0.1867065597824257
     0.5795257036028284    0.1676249787621824    0.3123188851279120
     0.1699763350543139    0.5834322587347152    0.9399638828593615
     0.9182354987975373    0.0839251802015988    0.6871367171983582
     0.3388091271809400    0.6687189784613743    0.8123457789945685
     0.1708697162931719    0.3331226077253875    0.6862801469564572
     0.4147340540346517    0.3367806351157797    0.6841012712493233
     0.1673125835987199    0.5827035952562500    0.6868059523361049
     0.0853752338301586    0.4135409191155858    0.5604991511391330
     0.0850656707517601    0.6718716643122767    0.5585919428032352
     0.4149499858766986    0.0781354817488093    0.9362783525581624
     0.8328948318476947    0.4106793505570684    0.8138263105731267
     0.8309408426629431    0.6679247859298940    0.8109198765095117
     0.8285449656228808    0.4134847588111885    0.0647719594220962
     0.3435093212566058    0.6679331807700923    0.5620441553636435
     0.6617819285761553    0.3355433744232743    0.1891348033644868
     0.6681084990713512    0.0834002633457697    0.9350471107459947
     0.5879439200152197    0.4180754303925953    0.0666987579171867
     0.1628876150058307    0.0845638486013992    0.6868235908937019
     0.8413574737264226    0.9204951470571073    0.0647118340042156
     0.1692912536201440    0.0829934367838862    0.4371797722070535
     0.9178623758594731    0.0855219748554951    0.9375422807151441
     0.3279780495412500    0.4202399414951045    0.3111716569673085
     0.5870163162103317    0.4175193319204158    0.3116702966610302
     0.3375258535324876    0.9190541767352962    0.3120177104718563
     0.5789655985032580    0.6602908426199592    0.5622658208417189
     0.0911790695048996    0.4191339295782809    0.3097877928889172
     0.9253986985254001    0.0840795513453709    0.1859674428078197
     0.8318387522586224    0.6720001614094464    0.0659957015608971
     0.6679059943136449    0.5890488788821583    0.6835128058425958
     0.9135078603618757    0.8321281382474627    0.6857025752318513
     0.9158258551026840    0.8358064852494761    0.1840170213845177
     0.8273435432749244    0.1604218547908954    0.5629820881795321
     0.1719175055943082    0.5808684062229360    0.1870512317102337
     0.8276405599214868    0.1631917754711509    0.8150781185034344
     0.9163178347166467    0.0836712878465293    0.4386623904974471
     0.3368643782933441    0.4209418764399294    0.5588612139184281
     0.5836419837904457    0.9186973002731267    0.0623852965354386
     0.4213507111798754    0.5807933052047176    0.6848153359306548
     0.1744599373993415    0.3424271366537164    0.4349161205531406
     0.5833399991994538    0.9244475714832704    0.5631715374504586
     0.0796542063312369    0.9149809593191052    0.0656722013008464
     0.4153280975924381    0.5865061680391855    0.9406286379386603
     0.3356394962773914    0.6655375712230801    0.0640258464821679
     0.9168498854721552    0.5885182454955172    0.4373175534798930
     0.1569871904387022    0.0848484801503853    0.1861156042207064
     0.5871645472868111    0.1642756018336828    0.5629855032576555
     0.0807871748973291    0.1656368060695723    0.8132194977744548
     0.4159738608480779    0.5776530207421604    0.4373716588843857
     0.6678405413473750    0.5798490737858559    0.1859398765931375
     0.4152647679427857    0.0803230764198770    0.1884779314469679
     0.1718868217372813    0.8383370584729556    0.4355005892297378
     0.3310932813096065    0.9186609946171639    0.0632429139511794
     0.5869736047412639    0.9272933574931875    0.8134502861050227
     0.9127238648956130    0.3275533288261885    0.9386727998700476
     0.5847299806861844    0.1574766082961269    0.8108532208465363
     0.1670833021034457    0.3294901579667758    0.1889044097057200
     0.4073325048182579    0.5788803278890610    0.1871167794474340
     0.6687327570663254    0.0818445570736055    0.6878450727482617
     0.3294653732033068    0.1681171106554563    0.5620741712536627
     0.5787974113031894    0.9147867413195546    0.3116737381565249
     0.3342127217228819    0.9157461521423210    0.5610462109836378
     0.6608083980647628    0.3302916634759829    0.4366054856162532
     0.1704593265523507    0.8382373044570242    0.9395866605782782
     0.3358277361015212    0.9173398361950346    0.8131796878032007
     0.8313535525726261    0.6683507711225432    0.5629419858213498
     0.0776261734342562    0.1591309293806523    0.0653637455360965
 
  0.00000000E+00  0.00000000E+00  0.00000000E+00
  0.00000000E+00  0.00000000E+00  0.00000000E+00
  0.00000000E+00  0.00000000E+00  0.00000000E+00
  0.00000000E+00  0.00000000E+00  0.00000000E+00
  0.00000000E+00  0.00000000E+00  0.00000000E+00
  0.00000000E+00  0.00000000E+00  0.00000000E+00
  0.00000000E+00  0.00000000E+00  0.00000000E+00
  0.00000000E+00  0.00000000E+00  0.00000000E+00
  0.00000000E+00  0.00000000E+00  0.00000000E+00
  0.00000000E+00  0.00000000E+00  0.00000000E+00
  0.00000000E+00  0.00000000E+00  0.00000000E+00
  0.00000000E+00  0.00000000E+00  0.00000000E+00
  0.00000000E+00  0.00000000E+00  0.00000000E+00
  0.00000000E+00  0.00000000E+00  0.00000000E+00
  0.00000000E+00  0.00000000E+00  0.00000000E+00
  0.00000000E+00  0.00000000E+00  0.00000000E+00
  0.00000000E+00  0.00000000E+00  0.00000000E+00
  0.00000000E+00  0.00000000E+00  0.00000000E+00
  0.00000000E+00  0.00000000E+00  0.00000000E+00
  0.00000000E+00  0.00000000E+00  0.00000000E+00
  0.00000000E+00  0.00000000E+00  0.00000000E+00
  0.00000000E+00  0.00000000E+00  0.00000000E+00
  0.00000000E+00  0.00000000E+00  0.00000000E+00
  0.00000000E+00  0.00000000E+00  0.00000000E+00
  0.00000000E+00  0.00000000E+00  0.00000000E+00
  0.00000000E+00  0.00000000E+00  0.00000000E+00
  0.00000000E+00  0.00000000E+00  0.00000000E+00
  0.00000000E+00  0.00000000E+00  0.00000000E+00
  0.00000000E+00  0.00000000E+00  0.00000000E+00
  0.00000000E+00  0.00000000E+00  0.00000000E+00
  0.00000000E+00  0.00000000E+00  0.00000000E+00
  0.00000000E+00  0.00000000E+00  0.00000000E+00
  0.00000000E+00  0.00000000E+00  0.00000000E+00
  0.00000000E+00  0.00000000E+00  0.00000000E+00
  0.00000000E+00  0.00000000E+00  0.00000000E+00
  0.00000000E+00  0.00000000E+00  0.00000000E+00
  0.00000000E+00  0.00000000E+00  0.00000000E+00
  0.00000000E+00  0.00000000E+00  0.00000000E+00
  0.00000000E+00  0.00000000E+00  0.00000000E+00
  0.00000000E+00  0.00000000E+00  0.00000000E+00
  0.00000000E+00  0.00000000E+00  0.00000000E+00
  0.00000000E+00  0.00000000E+00  0.00000000E+00
  0.00000000E+00  0.00000000E+00  0.00000000E+00
  0.00000000E+00  0.00000000E+00  0.00000000E+00
  0.00000000E+00  0.00000000E+00  0.00000000E+00
  0.00000000E+00  0.00000000E+00  0.00000000E+00
  0.00000000E+00  0.00000000E+00  0.00000000E+00
  0.00000000E+00  0.00000000E+00  0.00000000E+00
  0.00000000E+00  0.00000000E+00  0.00000000E+00
  0.00000000E+00  0.00000000E+00  0.00000000E+00
  0.00000000E+00  0.00000000E+00  0.00000000E+00
  0.00000000E+00  0.00000000E+00  0.00000000E+00
  0.00000000E+00  0.00000000E+00  0.00000000E+00
  0.00000000E+00  0.00000000E+00  0.00000000E+00
  0.00000000E+00  0.00000000E+00  0.00000000E+00
  0.00000000E+00  0.00000000E+00  0.00000000E+00
  0.00000000E+00  0.00000000E+00  0.00000000E+00
  0.00000000E+00  0.00000000E+00  0.00000000E+00
  0.00000000E+00  0.00000000E+00  0.00000000E+00
  0.00000000E+00  0.00000000E+00  0.00000000E+00
  0.00000000E+00  0.00000000E+00  0.00000000E+00
  0.00000000E+00  0.00000000E+00  0.00000000E+00
  0.00000000E+00  0.00000000E+00  0.00000000E+00
  0.00000000E+00  0.00000000E+00  0.00000000E+00
  0.00000000E+00  0.00000000E+00  0.00000000E+00
  0.00000000E+00  0.00000000E+00  0.00000000E+00
  0.00000000E+00  0.00000000E+00  0.00000000E+00
  0.00000000E+00  0.00000000E+00  0.00000000E+00
  0.00000000E+00  0.00000000E+00  0.00000000E+00
  0.00000000E+00  0.00000000E+00  0.00000000E+00
  0.00000000E+00  0.00000000E+00  0.00000000E+00
  0.00000000E+00  0.00000000E+00  0.00000000E+00
  0.00000000E+00  0.00000000E+00  0.00000000E+00
  0.00000000E+00  0.00000000E+00  0.00000000E+00
  0.00000000E+00  0.00000000E+00  0.00000000E+00
  0.00000000E+00  0.00000000E+00  0.00000000E+00
  0.00000000E+00  0.00000000E+00  0.00000000E+00
  0.00000000E+00  0.00000000E+00  0.00000000E+00
  0.00000000E+00  0.00000000E+00  0.00000000E+00
  0.00000000E+00  0.00000000E+00  0.00000000E+00
  0.00000000E+00  0.00000000E+00  0.00000000E+00
  0.00000000E+00  0.00000000E+00  0.00000000E+00
  0.00000000E+00  0.00000000E+00  0.00000000E+00
  0.00000000E+00  0.00000000E+00  0.00000000E+00
  0.00000000E+00  0.00000000E+00  0.00000000E+00
  0.00000000E+00  0.00000000E+00  0.00000000E+00
  0.00000000E+00  0.00000000E+00  0.00000000E+00
  0.00000000E+00  0.00000000E+00  0.00000000E+00
  0.00000000E+00  0.00000000E+00  0.00000000E+00
  0.00000000E+00  0.00000000E+00  0.00000000E+00
  0.00000000E+00  0.00000000E+00  0.00000000E+00
  0.00000000E+00  0.00000000E+00  0.00000000E+00
  0.00000000E+00  0.00000000E+00  0.00000000E+00
  0.00000000E+00  0.00000000E+00  0.00000000E+00
  0.00000000E+00  0.00000000E+00  0.00000000E+00
  0.00000000E+00  0.00000000E+00  0.00000000E+00
  0.00000000E+00  0.00000000E+00  0.00000000E+00
  0.00000000E+00  0.00000000E+00  0.00000000E+00
  0.00000000E+00  0.00000000E+00  0.00000000E+00
  0.00000000E+00  0.00000000E+00  0.00000000E+00
  0.00000000E+00  0.00000000E+00  0.00000000E+00
  0.00000000E+00  0.00000000E+00  0.00000000E+00
  0.00000000E+00  0.00000000E+00  0.00000000E+00
  0.00000000E+00  0.00000000E+00  0.00000000E+00
  0.00000000E+00  0.00000000E+00  0.00000000E+00
  0.00000000E+00  0.00000000E+00  0.00000000E+00
  0.00000000E+00  0.00000000E+00  0.00000000E+00
  0.00000000E+00  0.00000000E+00  0.00000000E+00
  0.00000000E+00  0.00000000E+00  0.00000000E+00
  0.00000000E+00  0.00000000E+00  0.00000000E+00
  0.00000000E+00  0.00000000E+00  0.00000000E+00
  0.00000000E+00  0.00000000E+00  0.00000000E+00
  0.00000000E+00  0.00000000E+00  0.00000000E+00
  0.00000000E+00  0.00000000E+00  0.00000000E+00
  0.00000000E+00  0.00000000E+00  0.00000000E+00
  0.00000000E+00  0.00000000E+00  0.00000000E+00
  0.00000000E+00  0.00000000E+00  0.00000000E+00
  0.00000000E+00  0.00000000E+00  0.00000000E+00
  0.00000000E+00  0.00000000E+00  0.00000000E+00
  0.00000000E+00  0.00000000E+00  0.00000000E+00
  0.00000000E+00  0.00000000E+00  0.00000000E+00
  0.00000000E+00  0.00000000E+00  0.00000000E+00
  0.00000000E+00  0.00000000E+00  0.00000000E+00
  0.00000000E+00  0.00000000E+00  0.00000000E+00
  0.00000000E+00  0.00000000E+00  0.00000000E+00
  0.00000000E+00  0.00000000E+00  0.00000000E+00
  0.00000000E+00  0.00000000E+00  0.00000000E+00
  0.00000000E+00  0.00000000E+00  0.00000000E+00
