Nb Ta                                   
    1.000000000000000     
    13.2316830761291744   -0.0005814659778840   -0.0049416957376309
    -0.0005815266959671   13.2314127312510159    0.0007721807532839
    -0.0049425421660457    0.0007723907709051   13.2337006063003688
   Nb   Ta
   120     8
Direct
  0.0001677465591475  0.0002293612217455  0.7493044952265043
  0.8753887888675527  0.3751964597656298  0.1255602420333828
 -0.0001212204818718  0.4996202783631852  0.7500845845473063
  0.1247272684331351  0.8746760462141545  0.3750468942574611
  0.2501955035538979  0.7503117822806049  0.7512769011204479
  0.3753338572474130  0.6262280632891254  0.1256615374678362
  0.2493253552706408  0.2502958071748203  0.4994926234108590
  0.7500799203206606  0.7503647819558311 -0.0016795425134356
  0.8754012296009657  0.1245893333565829  0.6262309468991362
  0.0003015459842765  0.2503365915481709  0.0000839593520770
  0.6250336059667941  0.3754529143436878  0.3746789034643143
  0.1267110935124666  0.1249865798300786  0.6248696358289240
  0.0003523664488104  0.0000162140908624  0.0005328760873586
  0.1242650344545060  0.8749715082133437  0.8744889948126138
  0.2497048950310829 -0.0005126652506179  0.4995774822366638
  0.3763922531724530  0.1248677908239709  0.8733739890771521
  0.1250124398324079  0.3754641901916224  0.8752802696555152
  0.8750253412659545  0.8745233327328110  0.1251380514817093
  0.6251166180508939  0.6251555075627525  0.6239715352160888
  0.2500175360779836  0.5015527145250255  0.0001645019053828
  0.8746690713406398  0.8748182834134632  0.3750604479975177
  0.3752356861405886  0.3751380496082353  0.3749265517729591
  0.7507389492480395  0.2503712146422772  0.7482588575373270
  0.5003218408926686  0.4996010648771205  0.2500792901279899
  0.3742322925092222  0.3732315919681276  0.6242713451438033
  0.7488518751102320  0.5020850389544398  0.7498306827377229
  0.6231725907208810  0.1247760439459890  0.6264268378111939
  0.7505710313497642  0.5003251699289417  0.0003960900837396
  0.7500356917532315  0.0003462587526895  0.4999667827274334
  0.3748156531780831  0.6251734033872642  0.8747493012169678
  0.1230846711576578  0.1251576262659889  0.8750738647898174
  0.1243940921151637  0.6243648944701822  0.8739540201150243
  0.0000803508132868  0.4993819119538857 -0.0000727829427393
  0.3754432682055448  0.8750594204787682  0.8760498852768487
  0.8754415270355573  0.3756985827751804  0.6247058158129137
  0.7497965041877890 -0.0022167621629801  0.7491057969502395
  0.7498683204215462  0.0001006143406724  0.2498596654565598
  0.3749775691823193  0.1250654108723122  0.3767195784237047
  0.5004891875953241  0.2502514642249151  0.4993729581569378
  0.8752947933728807  0.1248179232492886  0.1238572734234036
  0.5001163692706420 -0.0002234684046316  0.4992627537808225
  0.8735094685396937  0.3737953717501407  0.8748956204278480
  0.5001408340856333  0.2498456748725589  0.2498647453460529
  0.2496502473444604 -0.0002205770312947  0.7506152425198923
  0.2501135235279483  0.7503744357694849  0.5000831347930706
  0.7499970363998736  0.4999973856669431  0.4996091124410544
  0.8751337577008562  0.1249509908818436  0.3750237359518272
  0.8751397847723511  0.6254957739470774  0.1251000905203035
  0.6252351493112857  0.6232604792558163  0.8758408768448549
  0.1245326385464277  0.6243768368552794  0.1254284028374934
  0.6253860607977102  0.3749559890866829  0.6256707873611196
  0.2501441543495972  0.4999169981403615  0.2499193097896415
  0.7498452364365360  0.4998168045537479  0.2500521044553877
  0.1251229565748274  0.6251282062556356  0.6253682557705190
  0.7502308357637949  0.7502899026027748  0.5012458929131688
  0.6250007016577482  0.1250088586641994  0.1238571457654426
  0.3748650581933203  0.8761306447113888  0.6249871934531336
  0.0005209988424141  0.2501763499515746  0.7497224139332237
 -0.0004657337586054  0.0003643990641714  0.2500958423711029
  0.6245965146427270  0.8764323053560783  0.8755646501239256
  0.7500968771692007  0.2493753493163933  0.4995496210804247
  0.2493308332804792  0.2501608513009233  0.7509858755621606
  0.3742679300137492  0.6258784461776401  0.6246132411212671
  0.1252222068819369  0.8743665271914578  0.6249623501554205
  0.8755029993451475  0.8767260148769785  0.8756206796406119
  0.7497035017683772 -0.0008655317375108  0.0009956209818537
  0.6249666186540436  0.6251281267517363  0.1250120048942195
  0.6232011360324357  0.8743329339707239  0.1251724946301703
  0.8751154925259332  0.3750635372212685  0.3747661357870042
  0.3751464984251823  0.6248051383767830  0.3752486719913485
  0.5016762696050008  0.7484938185390148  0.7500194238493534
  0.3749892246420998  0.8748571323202593  0.3732789682015366
  0.2496407081894525 -0.0008252738029907 -0.0006357270110238
  0.7507803184162799  0.2503592401507977  0.0018781007764548
  0.2493911739238983  0.7494651860469960  0.2489934069852200
  0.6252467885604127  0.1250405496725394  0.3750379090729480
  0.4994913769680085  0.2517283249181913  0.7495498069256209
  0.1253416209416127  0.3752324214945335  0.1250372490380280
  0.3747627256701085  0.3754550588224975  0.1251242308692337
  0.0002288448074651  0.4997838171485764  0.4996338109987531
  0.1251270272659803  0.1251759213774604  0.1248755833933730
 -0.0018119740635055  0.7499940948756931  0.7500233831862159
  0.8746839750352798  0.6251474963802532  0.3751035680368703
  0.8756365486781011  0.6248887029215521  0.6244770296268549
  0.7498636000742989  0.2498302846399752  0.2500667933966658
  0.0017359331300537  0.7502408412657116  0.0001268740647884
 -0.0002272030587545  0.7499984357997268  0.2499719189836897
  0.5001840910001693 -0.0003712289836274  0.7501098757640535
  0.7500284836391655  0.7502123701968573  0.2498628084529416
  0.8756671920349822  0.6246727475880456  0.8753782324203340
  0.0000700460689919  0.0005946058251218  0.5000990936703372
  0.4990013553261954  0.2495784699123040  0.0009165613813736
  0.1252610148663410  0.3755562254800221  0.6248775226738668
  0.4994351838702903  0.4999846955557793 -0.0009650564352492
  0.1247547585840914  0.3751255054681711  0.3747703693405393
  0.1246880979213477  0.6246719564444099  0.3752984393662677
  0.2498081818114572  0.0006157232667658  0.2505849655858101
  0.0001769051789299  0.2497177307570073  0.5000473556190105
  0.5006856880748478  0.0009117599568546  0.2506305040512595
  0.4999977137353080  0.0008051079505274 -0.0000858606362933
  0.3758678224988444  0.3747530948896799  0.8757551600371226
  0.6242855307629426  0.8750064406973062  0.6243636983622571
  0.6255561960186862  0.8745680121280965  0.3748439558324512
  0.3745422903863128  0.1230797617731133  0.1251275103103725
  0.4999174325374657  0.4995625703955776  0.5016160858538327
 -0.0002392751164448  0.2500075609129103  0.2500131442380620
  0.2503350956039717  0.2499119228512688  0.2497999430680997
  0.6246601952891817  0.3755689530264955  0.1238715809011526
  0.4988756699732933  0.7496520333360753 -0.0004169242669040
  0.6254809746598683  0.6247693200206135  0.3752241638304102
  0.2500234952502562  0.2495203399926522 -0.0002080025993404
  0.1263048291637767  0.8752905349627703  0.1256923111647529
 -0.0000576456998585  0.7499590565038561  0.4999903286336069
  0.5005672813573256  0.7495143612194134  0.2505828069276901
  0.8755553187195043  0.8750196427776353  0.6242700581139399
  0.4997051583327415  0.7502777490968181  0.4999414127095879
  0.1246590213133337  0.1254872967543176  0.3752000901221990
  0.2500171334509689  0.4998892230624767  0.5001107106190460
  0.2517519522952836  0.4997712235232404  0.7499085431761207
 -0.0002661812006175  0.4996055379371672  0.2502244035057870
  0.7499678863831455  0.7501108823357442  0.7505716036343577
  0.3745909903771357  0.1248714040288876  0.6248298392616848
  0.4997565773235224  0.4998502147794728  0.7492982138406870
  0.6273293285203694  0.1272636628339197  0.8744573393138438
  0.2491952596891641  0.7497950754719996 -0.0000473808446752
  0.8731021696201742  0.1248953869334343  0.8747785880633110
  0.3750802255677049  0.8750844201702646  0.1258641124127992
  0.6258037634287177  0.3732540420193900  0.8753844106978815
 
  0.00000000E+00  0.00000000E+00  0.00000000E+00
  0.00000000E+00  0.00000000E+00  0.00000000E+00
  0.00000000E+00  0.00000000E+00  0.00000000E+00
  0.00000000E+00  0.00000000E+00  0.00000000E+00
  0.00000000E+00  0.00000000E+00  0.00000000E+00
  0.00000000E+00  0.00000000E+00  0.00000000E+00
  0.00000000E+00  0.00000000E+00  0.00000000E+00
  0.00000000E+00  0.00000000E+00  0.00000000E+00
  0.00000000E+00  0.00000000E+00  0.00000000E+00
  0.00000000E+00  0.00000000E+00  0.00000000E+00
  0.00000000E+00  0.00000000E+00  0.00000000E+00
  0.00000000E+00  0.00000000E+00  0.00000000E+00
  0.00000000E+00  0.00000000E+00  0.00000000E+00
  0.00000000E+00  0.00000000E+00  0.00000000E+00
  0.00000000E+00  0.00000000E+00  0.00000000E+00
  0.00000000E+00  0.00000000E+00  0.00000000E+00
  0.00000000E+00  0.00000000E+00  0.00000000E+00
  0.00000000E+00  0.00000000E+00  0.00000000E+00
  0.00000000E+00  0.00000000E+00  0.00000000E+00
  0.00000000E+00  0.00000000E+00  0.00000000E+00
  0.00000000E+00  0.00000000E+00  0.00000000E+00
  0.00000000E+00  0.00000000E+00  0.00000000E+00
  0.00000000E+00  0.00000000E+00  0.00000000E+00
  0.00000000E+00  0.00000000E+00  0.00000000E+00
  0.00000000E+00  0.00000000E+00  0.00000000E+00
  0.00000000E+00  0.00000000E+00  0.00000000E+00
  0.00000000E+00  0.00000000E+00  0.00000000E+00
  0.00000000E+00  0.00000000E+00  0.00000000E+00
  0.00000000E+00  0.00000000E+00  0.00000000E+00
  0.00000000E+00  0.00000000E+00  0.00000000E+00
  0.00000000E+00  0.00000000E+00  0.00000000E+00
  0.00000000E+00  0.00000000E+00  0.00000000E+00
  0.00000000E+00  0.00000000E+00  0.00000000E+00
  0.00000000E+00  0.00000000E+00  0.00000000E+00
  0.00000000E+00  0.00000000E+00  0.00000000E+00
  0.00000000E+00  0.00000000E+00  0.00000000E+00
  0.00000000E+00  0.00000000E+00  0.00000000E+00
  0.00000000E+00  0.00000000E+00  0.00000000E+00
  0.00000000E+00  0.00000000E+00  0.00000000E+00
  0.00000000E+00  0.00000000E+00  0.00000000E+00
  0.00000000E+00  0.00000000E+00  0.00000000E+00
  0.00000000E+00  0.00000000E+00  0.00000000E+00
  0.00000000E+00  0.00000000E+00  0.00000000E+00
  0.00000000E+00  0.00000000E+00  0.00000000E+00
  0.00000000E+00  0.00000000E+00  0.00000000E+00
  0.00000000E+00  0.00000000E+00  0.00000000E+00
  0.00000000E+00  0.00000000E+00  0.00000000E+00
  0.00000000E+00  0.00000000E+00  0.00000000E+00
  0.00000000E+00  0.00000000E+00  0.00000000E+00
  0.00000000E+00  0.00000000E+00  0.00000000E+00
  0.00000000E+00  0.00000000E+00  0.00000000E+00
  0.00000000E+00  0.00000000E+00  0.00000000E+00
  0.00000000E+00  0.00000000E+00  0.00000000E+00
  0.00000000E+00  0.00000000E+00  0.00000000E+00
  0.00000000E+00  0.00000000E+00  0.00000000E+00
  0.00000000E+00  0.00000000E+00  0.00000000E+00
  0.00000000E+00  0.00000000E+00  0.00000000E+00
  0.00000000E+00  0.00000000E+00  0.00000000E+00
  0.00000000E+00  0.00000000E+00  0.00000000E+00
  0.00000000E+00  0.00000000E+00  0.00000000E+00
  0.00000000E+00  0.00000000E+00  0.00000000E+00
  0.00000000E+00  0.00000000E+00  0.00000000E+00
  0.00000000E+00  0.00000000E+00  0.00000000E+00
  0.00000000E+00  0.00000000E+00  0.00000000E+00
  0.00000000E+00  0.00000000E+00  0.00000000E+00
  0.00000000E+00  0.00000000E+00  0.00000000E+00
  0.00000000E+00  0.00000000E+00  0.00000000E+00
  0.00000000E+00  0.00000000E+00  0.00000000E+00
  0.00000000E+00  0.00000000E+00  0.00000000E+00
  0.00000000E+00  0.00000000E+00  0.00000000E+00
  0.00000000E+00  0.00000000E+00  0.00000000E+00
  0.00000000E+00  0.00000000E+00  0.00000000E+00
  0.00000000E+00  0.00000000E+00  0.00000000E+00
  0.00000000E+00  0.00000000E+00  0.00000000E+00
  0.00000000E+00  0.00000000E+00  0.00000000E+00
  0.00000000E+00  0.00000000E+00  0.00000000E+00
  0.00000000E+00  0.00000000E+00  0.00000000E+00
  0.00000000E+00  0.00000000E+00  0.00000000E+00
  0.00000000E+00  0.00000000E+00  0.00000000E+00
  0.00000000E+00  0.00000000E+00  0.00000000E+00
  0.00000000E+00  0.00000000E+00  0.00000000E+00
  0.00000000E+00  0.00000000E+00  0.00000000E+00
  0.00000000E+00  0.00000000E+00  0.00000000E+00
  0.00000000E+00  0.00000000E+00  0.00000000E+00
  0.00000000E+00  0.00000000E+00  0.00000000E+00
  0.00000000E+00  0.00000000E+00  0.00000000E+00
  0.00000000E+00  0.00000000E+00  0.00000000E+00
  0.00000000E+00  0.00000000E+00  0.00000000E+00
  0.00000000E+00  0.00000000E+00  0.00000000E+00
  0.00000000E+00  0.00000000E+00  0.00000000E+00
  0.00000000E+00  0.00000000E+00  0.00000000E+00
  0.00000000E+00  0.00000000E+00  0.00000000E+00
  0.00000000E+00  0.00000000E+00  0.00000000E+00
  0.00000000E+00  0.00000000E+00  0.00000000E+00
  0.00000000E+00  0.00000000E+00  0.00000000E+00
  0.00000000E+00  0.00000000E+00  0.00000000E+00
  0.00000000E+00  0.00000000E+00  0.00000000E+00
  0.00000000E+00  0.00000000E+00  0.00000000E+00
  0.00000000E+00  0.00000000E+00  0.00000000E+00
  0.00000000E+00  0.00000000E+00  0.00000000E+00
  0.00000000E+00  0.00000000E+00  0.00000000E+00
  0.00000000E+00  0.00000000E+00  0.00000000E+00
  0.00000000E+00  0.00000000E+00  0.00000000E+00
  0.00000000E+00  0.00000000E+00  0.00000000E+00
  0.00000000E+00  0.00000000E+00  0.00000000E+00
  0.00000000E+00  0.00000000E+00  0.00000000E+00
  0.00000000E+00  0.00000000E+00  0.00000000E+00
  0.00000000E+00  0.00000000E+00  0.00000000E+00
  0.00000000E+00  0.00000000E+00  0.00000000E+00
  0.00000000E+00  0.00000000E+00  0.00000000E+00
  0.00000000E+00  0.00000000E+00  0.00000000E+00
  0.00000000E+00  0.00000000E+00  0.00000000E+00
  0.00000000E+00  0.00000000E+00  0.00000000E+00
  0.00000000E+00  0.00000000E+00  0.00000000E+00
  0.00000000E+00  0.00000000E+00  0.00000000E+00
  0.00000000E+00  0.00000000E+00  0.00000000E+00
  0.00000000E+00  0.00000000E+00  0.00000000E+00
  0.00000000E+00  0.00000000E+00  0.00000000E+00
  0.00000000E+00  0.00000000E+00  0.00000000E+00
  0.00000000E+00  0.00000000E+00  0.00000000E+00
  0.00000000E+00  0.00000000E+00  0.00000000E+00
  0.00000000E+00  0.00000000E+00  0.00000000E+00
  0.00000000E+00  0.00000000E+00  0.00000000E+00
  0.00000000E+00  0.00000000E+00  0.00000000E+00
  0.00000000E+00  0.00000000E+00  0.00000000E+00
  0.00000000E+00  0.00000000E+00  0.00000000E+00
  0.00000000E+00  0.00000000E+00  0.00000000E+00
  0.00000000E+00  0.00000000E+00  0.00000000E+00
