Hf Nb                                   
    1.000000000000000     
    13.9989796847292425   -0.0778172195080457   -0.0425955852475598
    -7.0777919831955858    9.7962870846797365   -0.0105515892938538
    -0.0617136299801847   -0.0630938198134195   19.5067736318203977
  Hf             Nb           
              84              44
Direct
  0.3198604499795271  0.1338978457696098  0.5658700997354701
  0.5518906515916997  0.1180790622308321  0.5658002084964138
  0.4359040606513965  0.3705779481355461  0.4388936539562330
  0.0562161762736254  0.8684050391033062  0.5623235516169072
  0.1813522471298709  0.3894710944623069  0.9487977357057840
  0.1618675202966155  0.6047078531456054  0.6943899113619308
  0.4480254138821387  0.1225906201556538  0.9383084166636066
  0.0429589117013038  0.8468139078354386  0.8057267576648262
  0.9337223579285449  0.8717516005157564  0.1843696332861461
  0.8121545246797464  0.1446615355919682  0.3186483862325589
  0.6870276807741623  0.8777564961427679  0.4371852815899250
  0.6804981090334929  0.3813480012978147  0.1884340957777568
  0.3085582230685768  0.8752454000522333  0.0602890002727073
  0.1812884909769808  0.9002224494030535  0.9364305701441737
  0.3003469144998741  0.3661331704954048  0.3121182315677437
  0.0754692815345255  0.3707968335800370  0.3160191286566957
  0.4393660383292850  0.8690180593013890  0.1879555585555289
  0.5591641829087003  0.6239413065401025  0.3227733910200789
  0.3166944171218170  0.1282677147823531  0.0633848642548504
  0.6959815743735188  0.6109616695086276  0.4432887275279592
  0.0619297140002118  0.5950757593679192  0.0600533302256583
  0.6993043583797440  0.6451565982141838  0.6866497300325314
  0.2093136062672212  0.3848802610383245  0.6901357069622389
  0.5717467386534427  0.6226466005796447  0.0533312632823389
  0.1926035058895667  0.4111979618495711  0.1864984707125943
  0.1953961254311224  0.6551206188326674  0.9334602597373074
  0.9368799511580499  0.6204730622503535  0.9354902624675613
  0.9415445305026050  0.3788963211922480  0.1907664509948940
  0.9365429717029667  0.6209003530721680  0.6911534118267665
  0.3009098130832910  0.1205357546963731  0.8123656097778084
  0.2981131323243357  0.8739185465098950  0.5423194106907780
  0.5614334579716860  0.6128534128179064  0.8141078855494260
  0.6880832184286998  0.1223885126735496  0.6860607698168719
  0.9325988459362403  0.1196844018746890  0.6812335324289996
  0.3986927824169978  0.5901498460748907  0.4393227890933198
  0.3342399982113179  0.6448648094598038  0.3039638128511772
  0.4347794949595117  0.3704685822966994  0.6856489567308116
  0.0664039800798185  0.6146502645691977  0.5594469816044696
  0.8136347722561436  0.6313094385205384  0.3056624858465305
  0.8086170153705622  0.1264452169089847  0.0568684857300460
  0.8111928668674061  0.8794212313137191  0.8110974502099232
  0.9349247135012770  0.1113718329433757  0.9357290542496577
  0.4555912046754160  0.8738709704462880  0.9388673631053654
  0.0702861510356201  0.1146054433670363  0.8067293721001746
  0.3084903959250425  0.8817547400060041  0.3145688669280204
  0.0778403510822339  0.3902307570850240  0.8112591639942958
  0.6768431375259373  0.3755432360495176  0.6794761837084471
  0.4554528881487809  0.3672471019792732  0.1822511990813222
  0.8145143582954290  0.3937168528592055  0.8152267955636243
  0.9366457105276629  0.3754735720242126  0.4363398005849600
  0.9219713924381727  0.6212467050082059  0.4466791933004288
  0.3024897473151006  0.3660834009980824  0.0690452823820003
  0.8253831643733071  0.1549232089612801  0.8134204160468640
  0.2962144468306631  0.3731232753853281  0.5560544091393690
  0.1894044424782390  0.1383172479264102  0.1896005917778736
  0.4612048425613124  0.8743049374030769  0.4362670297630505
  0.5569059037543085  0.6244391380697867  0.5589490055869353
  0.2038808999044485  0.8861585999593963  0.6853188625964985
  0.9415608487895004  0.8711213350231741  0.9414326457606607
  0.5868295393684043  0.8836621974874292  0.8111454987752316
  0.8072625932308666  0.6362412718174366  0.0625195049858254
  0.0520015596537124  0.3548632739716623  0.5684581173304442
  0.4343992515301868  0.8741915048830097  0.6871715623195602
  0.6844208924813940  0.1249413458662467  0.1848436948066044
  0.3294886674308745  0.6472766794466418  0.8086330121071641
  0.3125590904922375  0.6251526885737450  0.0628195844949489
  0.9389350411617332  0.3688981530074114  0.9425584416505719
  0.9535877613378509  0.6372476329989021  0.1795737064189618
  0.8113142597268088  0.3648095455924986  0.5655664057522877
  0.9444402469558999  0.1296108607996664  0.1875977164629895
  0.7999141119171482  0.3730723572050748  0.0629305713051035
  0.4580351331078217  0.6220506650397324  0.1829840797547462
  0.1973447544731581  0.6366623798699405  0.4322574976372864
  0.3170465750431669  0.6401509331510146  0.5723907367891250
  0.5629853724154555  0.3568636895704810  0.8153356582396394
  0.3064187906381895  0.3843392214981596  0.8262788848614246
  0.0364349130044280  0.6073516430315736  0.3179738012487625
  0.8170959700519641  0.8751378195696771  0.5651863376903927
  0.5618793776429054  0.3576370014313893  0.3197665835222011
  0.1826671095223182  0.6557173075802444  0.1931999121290957
  0.4316210352506438  0.1115931406572627  0.4323378610220282
  0.9435688109491480  0.8847288050858468  0.4283894466784899
  0.8027507111281019  0.8852934417559146  0.3027113168190474
  0.4412694080562622  0.3740175705214150  0.9429139007307451
  0.0574117935773512  0.3463454528545729  0.0688542062472892
  0.6853460185904574  0.1324325959716778  0.9348051471305895
  0.1586235877570921  0.3444648693521222  0.4390752251882968
  0.6878002737898999  0.3766430377290474  0.9401492822311209
  0.0570029668458034  0.1103170054085074  0.0601037160748199
  0.8144245673839173  0.8883161904013664  0.0577069659070784
  0.4362164278631462  0.6175439760985314  0.9340463194831735
  0.7955397969651045  0.6244503546009516  0.8185387718699172
  0.5733079510994800  0.3628265369956184  0.0552088275291711
  0.1800950294402817  0.1437547180958154  0.9431492834539948
  0.5781847922175363  0.8862085600996752  0.5687985722669939
  0.6792701460828107  0.8652463951291294  0.9440779439773793
  0.6771572394171005  0.8672827265037096  0.6811272841731749
  0.5660912575197364  0.1158116223517403  0.3110467243505831
  0.5680563460490566  0.8762317378042147  0.0660312037013050
  0.9381272543193310  0.1236481586666295  0.4389205599294647
  0.5847387037414395  0.8897817207351401  0.3034648902002801
  0.8016307757942336  0.1134223874943694  0.5535220095665551
  0.1658323090146169  0.8768777218080670  0.4278476074323601
  0.4574770405348870  0.6360771659619021  0.6862512389742225
  0.7985943735289778  0.6048253391623371  0.5708958182866690
  0.1978543796885745  0.9033754448525428  0.1840196104634246
  0.0648210134317052  0.1163759031765806  0.5561444436367016
  0.5618762325525918  0.1079108463838019  0.8162354508516503
  0.6922759168741139  0.8805754649301047  0.1758626486605140
  0.4382139339641682  0.1153213796955525  0.1902216747220137
  0.9272568149580024  0.3568248346354027  0.6992567525565204
  0.6938951539515017  0.6172795256797302  0.9326376100774869
  0.0670351456583647  0.8740393692820507  0.0675334431824421
  0.0588425858453560  0.1086241585880770  0.3189693106094552
  0.7859875305259338  0.3669270986062281  0.3155441184001531
  0.6802498322027352  0.6396917102039460  0.1886283197710991
  0.6887715620274540  0.1342873929572342  0.4425000225094861
  0.5732105637541810  0.3841491876314309  0.5545432175189566
  0.1849602552308879  0.1224045343118392  0.4352543890584551
  0.3066154119401500  0.1259213313321173  0.3152222869293616
  0.0788869964277661  0.6407167972134995  0.8144732970882307
  0.1787023374332155  0.1153770657529355  0.6762537727721911
  0.3132591468722767  0.8803899504130542  0.8179079433816036
  0.4488589173428103  0.1284721826637526  0.7047248055246679
  0.6829046466213741  0.3589574124749333  0.4424166702858668
  0.0753520783066233  0.8872336864061240  0.3081126339172096
  0.5605786684790772  0.1163174241053186  0.0616178602990803
  0.9524793900195702  0.8955912254085295  0.6888947899474877
 
  0.00000000E+00  0.00000000E+00  0.00000000E+00
  0.00000000E+00  0.00000000E+00  0.00000000E+00
  0.00000000E+00  0.00000000E+00  0.00000000E+00
  0.00000000E+00  0.00000000E+00  0.00000000E+00
  0.00000000E+00  0.00000000E+00  0.00000000E+00
  0.00000000E+00  0.00000000E+00  0.00000000E+00
  0.00000000E+00  0.00000000E+00  0.00000000E+00
  0.00000000E+00  0.00000000E+00  0.00000000E+00
  0.00000000E+00  0.00000000E+00  0.00000000E+00
  0.00000000E+00  0.00000000E+00  0.00000000E+00
  0.00000000E+00  0.00000000E+00  0.00000000E+00
  0.00000000E+00  0.00000000E+00  0.00000000E+00
  0.00000000E+00  0.00000000E+00  0.00000000E+00
  0.00000000E+00  0.00000000E+00  0.00000000E+00
  0.00000000E+00  0.00000000E+00  0.00000000E+00
  0.00000000E+00  0.00000000E+00  0.00000000E+00
  0.00000000E+00  0.00000000E+00  0.00000000E+00
  0.00000000E+00  0.00000000E+00  0.00000000E+00
  0.00000000E+00  0.00000000E+00  0.00000000E+00
  0.00000000E+00  0.00000000E+00  0.00000000E+00
  0.00000000E+00  0.00000000E+00  0.00000000E+00
  0.00000000E+00  0.00000000E+00  0.00000000E+00
  0.00000000E+00  0.00000000E+00  0.00000000E+00
  0.00000000E+00  0.00000000E+00  0.00000000E+00
  0.00000000E+00  0.00000000E+00  0.00000000E+00
  0.00000000E+00  0.00000000E+00  0.00000000E+00
  0.00000000E+00  0.00000000E+00  0.00000000E+00
  0.00000000E+00  0.00000000E+00  0.00000000E+00
  0.00000000E+00  0.00000000E+00  0.00000000E+00
  0.00000000E+00  0.00000000E+00  0.00000000E+00
  0.00000000E+00  0.00000000E+00  0.00000000E+00
  0.00000000E+00  0.00000000E+00  0.00000000E+00
  0.00000000E+00  0.00000000E+00  0.00000000E+00
  0.00000000E+00  0.00000000E+00  0.00000000E+00
  0.00000000E+00  0.00000000E+00  0.00000000E+00
  0.00000000E+00  0.00000000E+00  0.00000000E+00
  0.00000000E+00  0.00000000E+00  0.00000000E+00
  0.00000000E+00  0.00000000E+00  0.00000000E+00
  0.00000000E+00  0.00000000E+00  0.00000000E+00
  0.00000000E+00  0.00000000E+00  0.00000000E+00
  0.00000000E+00  0.00000000E+00  0.00000000E+00
  0.00000000E+00  0.00000000E+00  0.00000000E+00
  0.00000000E+00  0.00000000E+00  0.00000000E+00
  0.00000000E+00  0.00000000E+00  0.00000000E+00
  0.00000000E+00  0.00000000E+00  0.00000000E+00
  0.00000000E+00  0.00000000E+00  0.00000000E+00
  0.00000000E+00  0.00000000E+00  0.00000000E+00
  0.00000000E+00  0.00000000E+00  0.00000000E+00
  0.00000000E+00  0.00000000E+00  0.00000000E+00
  0.00000000E+00  0.00000000E+00  0.00000000E+00
  0.00000000E+00  0.00000000E+00  0.00000000E+00
  0.00000000E+00  0.00000000E+00  0.00000000E+00
  0.00000000E+00  0.00000000E+00  0.00000000E+00
  0.00000000E+00  0.00000000E+00  0.00000000E+00
  0.00000000E+00  0.00000000E+00  0.00000000E+00
  0.00000000E+00  0.00000000E+00  0.00000000E+00
  0.00000000E+00  0.00000000E+00  0.00000000E+00
  0.00000000E+00  0.00000000E+00  0.00000000E+00
  0.00000000E+00  0.00000000E+00  0.00000000E+00
  0.00000000E+00  0.00000000E+00  0.00000000E+00
  0.00000000E+00  0.00000000E+00  0.00000000E+00
  0.00000000E+00  0.00000000E+00  0.00000000E+00
  0.00000000E+00  0.00000000E+00  0.00000000E+00
  0.00000000E+00  0.00000000E+00  0.00000000E+00
  0.00000000E+00  0.00000000E+00  0.00000000E+00
  0.00000000E+00  0.00000000E+00  0.00000000E+00
  0.00000000E+00  0.00000000E+00  0.00000000E+00
  0.00000000E+00  0.00000000E+00  0.00000000E+00
  0.00000000E+00  0.00000000E+00  0.00000000E+00
  0.00000000E+00  0.00000000E+00  0.00000000E+00
  0.00000000E+00  0.00000000E+00  0.00000000E+00
  0.00000000E+00  0.00000000E+00  0.00000000E+00
  0.00000000E+00  0.00000000E+00  0.00000000E+00
  0.00000000E+00  0.00000000E+00  0.00000000E+00
  0.00000000E+00  0.00000000E+00  0.00000000E+00
  0.00000000E+00  0.00000000E+00  0.00000000E+00
  0.00000000E+00  0.00000000E+00  0.00000000E+00
  0.00000000E+00  0.00000000E+00  0.00000000E+00
  0.00000000E+00  0.00000000E+00  0.00000000E+00
  0.00000000E+00  0.00000000E+00  0.00000000E+00
  0.00000000E+00  0.00000000E+00  0.00000000E+00
  0.00000000E+00  0.00000000E+00  0.00000000E+00
  0.00000000E+00  0.00000000E+00  0.00000000E+00
  0.00000000E+00  0.00000000E+00  0.00000000E+00
  0.00000000E+00  0.00000000E+00  0.00000000E+00
  0.00000000E+00  0.00000000E+00  0.00000000E+00
  0.00000000E+00  0.00000000E+00  0.00000000E+00
  0.00000000E+00  0.00000000E+00  0.00000000E+00
  0.00000000E+00  0.00000000E+00  0.00000000E+00
  0.00000000E+00  0.00000000E+00  0.00000000E+00
  0.00000000E+00  0.00000000E+00  0.00000000E+00
  0.00000000E+00  0.00000000E+00  0.00000000E+00
  0.00000000E+00  0.00000000E+00  0.00000000E+00
  0.00000000E+00  0.00000000E+00  0.00000000E+00
  0.00000000E+00  0.00000000E+00  0.00000000E+00
  0.00000000E+00  0.00000000E+00  0.00000000E+00
  0.00000000E+00  0.00000000E+00  0.00000000E+00
  0.00000000E+00  0.00000000E+00  0.00000000E+00
  0.00000000E+00  0.00000000E+00  0.00000000E+00
  0.00000000E+00  0.00000000E+00  0.00000000E+00
  0.00000000E+00  0.00000000E+00  0.00000000E+00
  0.00000000E+00  0.00000000E+00  0.00000000E+00
  0.00000000E+00  0.00000000E+00  0.00000000E+00
  0.00000000E+00  0.00000000E+00  0.00000000E+00
  0.00000000E+00  0.00000000E+00  0.00000000E+00
  0.00000000E+00  0.00000000E+00  0.00000000E+00
  0.00000000E+00  0.00000000E+00  0.00000000E+00
  0.00000000E+00  0.00000000E+00  0.00000000E+00
  0.00000000E+00  0.00000000E+00  0.00000000E+00
  0.00000000E+00  0.00000000E+00  0.00000000E+00
  0.00000000E+00  0.00000000E+00  0.00000000E+00
  0.00000000E+00  0.00000000E+00  0.00000000E+00
  0.00000000E+00  0.00000000E+00  0.00000000E+00
  0.00000000E+00  0.00000000E+00  0.00000000E+00
  0.00000000E+00  0.00000000E+00  0.00000000E+00
  0.00000000E+00  0.00000000E+00  0.00000000E+00
  0.00000000E+00  0.00000000E+00  0.00000000E+00
  0.00000000E+00  0.00000000E+00  0.00000000E+00
  0.00000000E+00  0.00000000E+00  0.00000000E+00
  0.00000000E+00  0.00000000E+00  0.00000000E+00
  0.00000000E+00  0.00000000E+00  0.00000000E+00
  0.00000000E+00  0.00000000E+00  0.00000000E+00
  0.00000000E+00  0.00000000E+00  0.00000000E+00
  0.00000000E+00  0.00000000E+00  0.00000000E+00
  0.00000000E+00  0.00000000E+00  0.00000000E+00
  0.00000000E+00  0.00000000E+00  0.00000000E+00
  0.00000000E+00  0.00000000E+00  0.00000000E+00
  0.00000000E+00  0.00000000E+00  0.00000000E+00
