Hf Ti                                   
    1.000000000000000     
    12.4844068158953689   -0.0070887441420260   -0.0015323797298895
    -6.2483435210986862   10.8085995222972979    0.0017714398592598
    -0.0024720730724738    0.0018333475670031   19.6953052457001583
  Hf              Ti            
    84    44
Direct
     0.3302391289049351    0.1653125613293397    0.5649787391667280
     0.5836790201041931    0.1670550214624654    0.5594931505005014
     0.4144836114270529    0.3278966036766945    0.4382684895286580
     0.0822988914787917    0.9203363147761306    0.5627179463910025
     0.1648837643989909    0.3304379882805302    0.9410194882138673
     0.1634907475580817    0.5817153643552704    0.6872469509037873
     0.4231246416025072    0.0849506730910623    0.9365783717803132
     0.0801599919969871    0.9140323103824786    0.8124341838310183
     0.9165368995865104    0.8327581553563315    0.1858464324410408
     0.8278721405071399    0.1623106790810332    0.3151163205211141
     0.6686296439072924    0.8427087733671396    0.4361141206833296
     0.6643829079852576    0.3307201461008930    0.1871241846688300
     0.3366526642822893    0.9219379805204221    0.0656253001205652
     0.1695577240483311    0.8378529935753762    0.9378422856711091
     0.3270329778616023    0.4078766878546190    0.3136812862462625
     0.0805742367826108    0.4126964828623338    0.3145812585996506
     0.4214631058754147    0.8333762157457334    0.1866598326593663
     0.5860834932018583    0.6686630764279032    0.3107288700836403
     0.3331381559910546    0.1657734556823673    0.0617630129235324
     0.6679886618828927    0.5830379816785808    0.4400469306304908
     0.0805767470705301    0.6694846677074776    0.0627924873270129
     0.6714740688916863    0.5887137976248887    0.6878039830448912
     0.1678535758229396    0.3311252078530930    0.6860950017455033
     0.5872470372866011    0.6699128953807406    0.0597361017711964
     0.1631392156596195    0.3281918253683839    0.1856193849664946
     0.1650424072869615    0.5811495458023332    0.9382130077623881
     0.9119825128056233    0.5837981456939962    0.9336375111547334
     0.9150527965838939    0.3336796775735065    0.1881022194132321
     0.9192842023526542    0.5908284677729155    0.6899160159482699
     0.3318826588693002    0.1601616057450938    0.8106435569159214
     0.3353225775700558    0.9196767638011863    0.5625227659788758
     0.5841753306339708    0.6689923479266696    0.8157478492490987
     0.6694945334306550    0.0841201006812108    0.6850986358004302
     0.9201966014077079    0.0856695837426950    0.6840267782282050
     0.4145823404840054    0.5816973941663872    0.4371216482506695
     0.3352420639652605    0.6692138383536332    0.3124812689213867
     0.4204095389126858    0.3376670970924173    0.6877875357181941
     0.0820736584342507    0.6710456236816885    0.5615960981258646
     0.8311713927237754    0.6651498168088074    0.3122177843160482
     0.8324025083265228    0.1642431746427083    0.0624625836545499
     0.8298965593180617    0.9115108556261993    0.8097068767105996
     0.9124855258527257    0.0770615672887668    0.9388571917389884
     0.4227272012454546    0.8357888065319643    0.9393987083705968
     0.0859096054949923    0.1644752148122118    0.8129062832126608
     0.3320756095781247    0.9223644567704712    0.3085636322244613
     0.0795018095311718    0.4159570604629603    0.8116727331860045
     0.6615154049737872    0.3287058215546222    0.6877412644475074
     0.4191590465578065    0.3321158731164562    0.1874115362586385
     0.8320993059457165    0.4131999957504863    0.8110568614136484
     0.9076197695939182    0.3263001550756227    0.4385939074215989
     0.9130472809777613    0.5809852376104320    0.4374378167638522
     0.3360699251134810    0.4178835339869664    0.0614491590712614
     0.8316093148540360    0.1678028264595680    0.8114315937429004
     0.3344907652083940    0.4177448142880469    0.5622650647077559
     0.1689703276519915    0.0788823429294914    0.1897555235053661
     0.4202633034955890    0.8398986734792095    0.4368831501802998
     0.5831807800566269    0.6695550272472247    0.5645673482131662
     0.1720932517977262    0.8392409957217534    0.6896449345426646
     0.9098986166861753    0.8316629186451509    0.9390913352187271
     0.5859506569050167    0.9216165039641560    0.8148398258505050
     0.8277578059135048    0.6627561276820889    0.0619198281771703
     0.0779792822987744    0.4072701954222885    0.5607762959676255
     0.4226484515528811    0.8369987066097713    0.6874057139681886
     0.6593740466612485    0.0788653067103831    0.1869459195282552
     0.3333967585591918    0.6690721744304975    0.8126636824399094
     0.3352107426135230    0.6646501121116455    0.0609522477082011
     0.9139051934964321    0.3310469886267213    0.9383569419879499
     0.9118492037087378    0.5800848768657323    0.1885461050828293
     0.8293115509723534    0.4166625504835634    0.5635114118029204
     0.9163875446668510    0.0803904497866380    0.1867967156109883
     0.8297034688271084    0.4143168077605694    0.0610486499464055
     0.4201074287820215    0.5834199347568737    0.1869797262441794
     0.1679099923882726    0.5848741237364309    0.4382338737785784
     0.3370169360138873    0.6676727984858487    0.5642035140829322
     0.5899867467659886    0.4179106307913922    0.8150910251787249
     0.3355458606560920    0.4217253363722618    0.8134605268998877
     0.0836724352843244    0.6715918018990479    0.3125447972993765
     0.8313899193012312    0.9165026468725999    0.5632995552966321
     0.5844243499273437    0.4129357539776015    0.3134203435230510
     0.1672946929069003    0.5842379279457138    0.1861661351917211
     0.4134842720066625    0.0848251986244016    0.4346989403332017
     0.9222312344673257    0.8367740799956901    0.4372612918710887
     0.8388578197701778    0.9226011211642785    0.3130269841265101
     0.4212921623475351    0.3369447370323801    0.9375662781437012
     0.0795930891583002    0.4126504908304823    0.0631105630313782
     0.6657861847852835    0.0868325618980691    0.9402792704978409
     0.1610287318785598    0.3215995605637658    0.4372999362640570
     0.6644985618147441    0.3282087664174937    0.9391376243731121
     0.0802326990880178    0.1566773085706290    0.0626170663854637
     0.8297861566822342    0.9166829572457126    0.0629247794508084
     0.4192398645173684    0.5852280764334316    0.9372979675962897
     0.8350987121057093    0.6713185258695463    0.8118846416984905
     0.5847394659952978    0.4168400810096945    0.0609813874014146
     0.1650348594679991    0.0820714353763326    0.9394807456085341
     0.5896869736098106    0.9211994370034242    0.5617506471164714
     0.6692433546904535    0.8383921891245678    0.9401380694832623
     0.6630279847022350    0.8326891743993931    0.6873302482477480
     0.5836303531481142    0.1662295411442741    0.3134141190842909
     0.5901280928348780    0.9181225670682422    0.0620312887827706
     0.9253491429916865    0.0892201079991803    0.4392092528214113
     0.5829684300399914    0.9207085043600808    0.3117252789571316
     0.8319601039105456    0.1632313844266563    0.5600912333041443
     0.1681421322757593    0.8399573930821748    0.4350531030848728
     0.4188434451736462    0.5854972341183750    0.6890406512880760
     0.8345571740162049    0.6690842693988966    0.5641672682550195
     0.1622857449163473    0.8357106225647952    0.1870888335190431
     0.0848080630703535    0.1657001940396090    0.5590616171403742
     0.5825015382485507    0.1643086670045122    0.8137060917690455
     0.6695381231745060    0.8356142735678458    0.1856285068895691
     0.4199416965018766    0.0894534828306887    0.1889233571318461
     0.9153260071333734    0.3296492826853844    0.6848734898896663
     0.6676301191324229    0.5805328073812115    0.9379320416175547
     0.0827590769110114    0.9210364218513687    0.0625965932718663
     0.0830086264659431    0.1645928782077856    0.3155824923947889
     0.8287807499224866    0.4110402847404055    0.3143730284784554
     0.6650081656082248    0.5826328987331130    0.1857225493582119
     0.6657480800701612    0.0804460610092905    0.4371643761147803
     0.5857728447780707    0.4159333415905300    0.5616934845910995
     0.1648928150552547    0.0852864370891768    0.4348251688696032
     0.3329199419900010    0.1653814570060402    0.3128195894308067
     0.0878431975381977    0.6705145479348489    0.8130386104709165
     0.1618081229665882    0.0812362320725701    0.6867777054506612
     0.3381656052518602    0.9182404259835374    0.8126506852822667
     0.4182581585512669    0.0804089333043139    0.6894276060074860
     0.6675330929794896    0.3313025652187173    0.4358528481367513
     0.0873624916662634    0.9187156755571986    0.3131287899725222
     0.5810432854043575    0.1661032629836693    0.0618570130700005
     0.9143096491472311    0.8308644158103523    0.6866697535810530
 
  0.00000000E+00  0.00000000E+00  0.00000000E+00
  0.00000000E+00  0.00000000E+00  0.00000000E+00
  0.00000000E+00  0.00000000E+00  0.00000000E+00
  0.00000000E+00  0.00000000E+00  0.00000000E+00
  0.00000000E+00  0.00000000E+00  0.00000000E+00
  0.00000000E+00  0.00000000E+00  0.00000000E+00
  0.00000000E+00  0.00000000E+00  0.00000000E+00
  0.00000000E+00  0.00000000E+00  0.00000000E+00
  0.00000000E+00  0.00000000E+00  0.00000000E+00
  0.00000000E+00  0.00000000E+00  0.00000000E+00
  0.00000000E+00  0.00000000E+00  0.00000000E+00
  0.00000000E+00  0.00000000E+00  0.00000000E+00
  0.00000000E+00  0.00000000E+00  0.00000000E+00
  0.00000000E+00  0.00000000E+00  0.00000000E+00
  0.00000000E+00  0.00000000E+00  0.00000000E+00
  0.00000000E+00  0.00000000E+00  0.00000000E+00
  0.00000000E+00  0.00000000E+00  0.00000000E+00
  0.00000000E+00  0.00000000E+00  0.00000000E+00
  0.00000000E+00  0.00000000E+00  0.00000000E+00
  0.00000000E+00  0.00000000E+00  0.00000000E+00
  0.00000000E+00  0.00000000E+00  0.00000000E+00
  0.00000000E+00  0.00000000E+00  0.00000000E+00
  0.00000000E+00  0.00000000E+00  0.00000000E+00
  0.00000000E+00  0.00000000E+00  0.00000000E+00
  0.00000000E+00  0.00000000E+00  0.00000000E+00
  0.00000000E+00  0.00000000E+00  0.00000000E+00
  0.00000000E+00  0.00000000E+00  0.00000000E+00
  0.00000000E+00  0.00000000E+00  0.00000000E+00
  0.00000000E+00  0.00000000E+00  0.00000000E+00
  0.00000000E+00  0.00000000E+00  0.00000000E+00
  0.00000000E+00  0.00000000E+00  0.00000000E+00
  0.00000000E+00  0.00000000E+00  0.00000000E+00
  0.00000000E+00  0.00000000E+00  0.00000000E+00
  0.00000000E+00  0.00000000E+00  0.00000000E+00
  0.00000000E+00  0.00000000E+00  0.00000000E+00
  0.00000000E+00  0.00000000E+00  0.00000000E+00
  0.00000000E+00  0.00000000E+00  0.00000000E+00
  0.00000000E+00  0.00000000E+00  0.00000000E+00
  0.00000000E+00  0.00000000E+00  0.00000000E+00
  0.00000000E+00  0.00000000E+00  0.00000000E+00
  0.00000000E+00  0.00000000E+00  0.00000000E+00
  0.00000000E+00  0.00000000E+00  0.00000000E+00
  0.00000000E+00  0.00000000E+00  0.00000000E+00
  0.00000000E+00  0.00000000E+00  0.00000000E+00
  0.00000000E+00  0.00000000E+00  0.00000000E+00
  0.00000000E+00  0.00000000E+00  0.00000000E+00
  0.00000000E+00  0.00000000E+00  0.00000000E+00
  0.00000000E+00  0.00000000E+00  0.00000000E+00
  0.00000000E+00  0.00000000E+00  0.00000000E+00
  0.00000000E+00  0.00000000E+00  0.00000000E+00
  0.00000000E+00  0.00000000E+00  0.00000000E+00
  0.00000000E+00  0.00000000E+00  0.00000000E+00
  0.00000000E+00  0.00000000E+00  0.00000000E+00
  0.00000000E+00  0.00000000E+00  0.00000000E+00
  0.00000000E+00  0.00000000E+00  0.00000000E+00
  0.00000000E+00  0.00000000E+00  0.00000000E+00
  0.00000000E+00  0.00000000E+00  0.00000000E+00
  0.00000000E+00  0.00000000E+00  0.00000000E+00
  0.00000000E+00  0.00000000E+00  0.00000000E+00
  0.00000000E+00  0.00000000E+00  0.00000000E+00
  0.00000000E+00  0.00000000E+00  0.00000000E+00
  0.00000000E+00  0.00000000E+00  0.00000000E+00
  0.00000000E+00  0.00000000E+00  0.00000000E+00
  0.00000000E+00  0.00000000E+00  0.00000000E+00
  0.00000000E+00  0.00000000E+00  0.00000000E+00
  0.00000000E+00  0.00000000E+00  0.00000000E+00
  0.00000000E+00  0.00000000E+00  0.00000000E+00
  0.00000000E+00  0.00000000E+00  0.00000000E+00
  0.00000000E+00  0.00000000E+00  0.00000000E+00
  0.00000000E+00  0.00000000E+00  0.00000000E+00
  0.00000000E+00  0.00000000E+00  0.00000000E+00
  0.00000000E+00  0.00000000E+00  0.00000000E+00
  0.00000000E+00  0.00000000E+00  0.00000000E+00
  0.00000000E+00  0.00000000E+00  0.00000000E+00
  0.00000000E+00  0.00000000E+00  0.00000000E+00
  0.00000000E+00  0.00000000E+00  0.00000000E+00
  0.00000000E+00  0.00000000E+00  0.00000000E+00
  0.00000000E+00  0.00000000E+00  0.00000000E+00
  0.00000000E+00  0.00000000E+00  0.00000000E+00
  0.00000000E+00  0.00000000E+00  0.00000000E+00
  0.00000000E+00  0.00000000E+00  0.00000000E+00
  0.00000000E+00  0.00000000E+00  0.00000000E+00
  0.00000000E+00  0.00000000E+00  0.00000000E+00
  0.00000000E+00  0.00000000E+00  0.00000000E+00
  0.00000000E+00  0.00000000E+00  0.00000000E+00
  0.00000000E+00  0.00000000E+00  0.00000000E+00
  0.00000000E+00  0.00000000E+00  0.00000000E+00
  0.00000000E+00  0.00000000E+00  0.00000000E+00
  0.00000000E+00  0.00000000E+00  0.00000000E+00
  0.00000000E+00  0.00000000E+00  0.00000000E+00
  0.00000000E+00  0.00000000E+00  0.00000000E+00
  0.00000000E+00  0.00000000E+00  0.00000000E+00
  0.00000000E+00  0.00000000E+00  0.00000000E+00
  0.00000000E+00  0.00000000E+00  0.00000000E+00
  0.00000000E+00  0.00000000E+00  0.00000000E+00
  0.00000000E+00  0.00000000E+00  0.00000000E+00
  0.00000000E+00  0.00000000E+00  0.00000000E+00
  0.00000000E+00  0.00000000E+00  0.00000000E+00
  0.00000000E+00  0.00000000E+00  0.00000000E+00
  0.00000000E+00  0.00000000E+00  0.00000000E+00
  0.00000000E+00  0.00000000E+00  0.00000000E+00
  0.00000000E+00  0.00000000E+00  0.00000000E+00
  0.00000000E+00  0.00000000E+00  0.00000000E+00
  0.00000000E+00  0.00000000E+00  0.00000000E+00
  0.00000000E+00  0.00000000E+00  0.00000000E+00
  0.00000000E+00  0.00000000E+00  0.00000000E+00
  0.00000000E+00  0.00000000E+00  0.00000000E+00
  0.00000000E+00  0.00000000E+00  0.00000000E+00
  0.00000000E+00  0.00000000E+00  0.00000000E+00
  0.00000000E+00  0.00000000E+00  0.00000000E+00
  0.00000000E+00  0.00000000E+00  0.00000000E+00
  0.00000000E+00  0.00000000E+00  0.00000000E+00
  0.00000000E+00  0.00000000E+00  0.00000000E+00
  0.00000000E+00  0.00000000E+00  0.00000000E+00
  0.00000000E+00  0.00000000E+00  0.00000000E+00
  0.00000000E+00  0.00000000E+00  0.00000000E+00
  0.00000000E+00  0.00000000E+00  0.00000000E+00
  0.00000000E+00  0.00000000E+00  0.00000000E+00
  0.00000000E+00  0.00000000E+00  0.00000000E+00
  0.00000000E+00  0.00000000E+00  0.00000000E+00
  0.00000000E+00  0.00000000E+00  0.00000000E+00
  0.00000000E+00  0.00000000E+00  0.00000000E+00
  0.00000000E+00  0.00000000E+00  0.00000000E+00
  0.00000000E+00  0.00000000E+00  0.00000000E+00
  0.00000000E+00  0.00000000E+00  0.00000000E+00
  0.00000000E+00  0.00000000E+00  0.00000000E+00
  0.00000000E+00  0.00000000E+00  0.00000000E+00
  0.00000000E+00  0.00000000E+00  0.00000000E+00
