Nb Ti                                   
    1.000000000000000     
    11.5858216982317561   -0.3056133583319181    0.0075536943697676
    -6.0542662244384919   10.5693041213268923   -0.0081062764415084
     0.0115222719904899   -0.0066062840757151   18.4718118592480067
  Nb              Ti            
    16   112
Direct
     0.4064852171459727    0.8173366065717143    0.1883787851472242
     0.5952446699510416    0.6864215354208210    0.5619438684490144
     0.8925110936429196    0.3255878343828634    0.9361332236537806
     0.1538591289971585    0.0657565739480916    0.4375743106572140
     0.8558895572201851    0.1705976492809450    0.0622353622971356
     0.8976871883926839    0.3206937580521905    0.6895322297856379
     0.6428059269489173    0.5747540768660552    0.1881620318067932
     0.6395916759466231    0.5696814933112242    0.9382623666339919
     0.1194094339424239    0.1894435736214174    0.3112788289828619
     0.3910124565316223    0.3198259158963788    0.9363831697587305
     0.6093005342987380    0.4297691889787575    0.3127687930193935
     0.3595193383088664    0.4320783487881483    0.5632494708915262
     0.1441990701774222    0.8090011174952585    0.1883775537267374
     0.3660729796395371    0.4372821187086814    0.3126533298474735
     0.4017385408248057    0.0636514513319501    0.1850310387788482
     0.8538838977906610    0.4276119392177092    0.5627290486085188
     0.3423355643819014    0.4263527871747400    0.8133488561754413
     0.1507139931585072    0.5803561498300414    0.4399630909870139
     0.4100605752688979    0.8274112072647510    0.9365913726311493
     0.3444733560585370    0.4298497866858108    0.0612283469502659
     0.6567693898622772    0.3227601498643905    0.4373495574226505
     0.0830904322748366    0.6738229937728661    0.8120324764371230
     0.1650824539037541    0.0704136458608534    0.9373090695943570
     0.3995782456163325    0.3270135708312056    0.1846798848273043
     0.8475575368623703    0.1675583159021443    0.5634122269713044
     0.5845423186573283    0.4170209549343430    0.8105983847765185
     0.1499199947098064    0.5790242438694989    0.9362425417254682
     0.6447196804120050    0.5741128007218671    0.4370289198991085
     0.3292437309895618    0.6693491151148394    0.8116687774054713
     0.9038213793789384    0.5867586104109183    0.6876150025659792
     0.3334714434192220    0.6755527154241411    0.5630210820037973
     0.5900432066752228    0.9204955350686910    0.0604828495804004
     0.8284474943524667    0.6703494710871800    0.8116264229893028
     0.3509264654764962    0.1697611648955540    0.0602575246691820
     0.9004223838148633    0.5827066179653994    0.9373465766431328
     0.6005552003125719    0.1714117535813728    0.5648360905234393
     0.1627437873922330    0.8320797688869426    0.6875939871685124
     0.5901223186749929    0.1604213543760810    0.3138912813041468
     0.8383995313244320    0.4090719994769949    0.3136362215940330
     0.3395061874862071    0.9204142488192063    0.5639129270003536
     0.8421970627922472    0.9215912697490214    0.8121232911729614
     0.6614657295034465    0.0758725927187264    0.1872911788548573
     0.0955088931879159    0.9210855967520742    0.3114728118760625
     0.8344702857845043    0.6720982837294606    0.0649018997545673
     0.3454173293151641    0.1633884939209989    0.8126935053349830
     0.6605296640404459    0.3324325938362696    0.6884211893893863
     0.1506325939417336    0.5744704916342920    0.1867736428384255
     0.8542308647613245    0.9327449471965913    0.3141269567704541
     0.1026345351813120    0.1719092661540172    0.8140506848006377
     0.6650672341519517    0.8348820396944554    0.6874757195699287
     0.0827537986944606    0.6755426521408153    0.5625996620307074
     0.3998681863497482    0.3191456533246165    0.4388721210116313
     0.4044204391433487    0.5846749913568927    0.6881688890060261
     0.5895687695574865    0.9242540145049704    0.5628358058934407
     0.8346132348078174    0.4234008576276089    0.0613489650230248
     0.8914587144092450    0.5654140850024518    0.1902724745675981
     0.9133369944061709    0.3285412886781964    0.4391975378886531
     0.6653150363217362    0.0729256764806129    0.6890889188652436
     0.0845745785820243    0.4236590510284252    0.0611775837771601
     0.5889691717353870    0.4216121891510999    0.0644671060651489
     0.8482809313098266    0.1654147827000967    0.8135160474384107
     0.4024041030070635    0.5830961832805585    0.1876375463283160
     0.9027603984659210    0.3282457062147986    0.1855360477613133
     0.1633666800183393    0.0773663677610645    0.1882519557064590
     0.0960706491249586    0.4198361793544501    0.5630544004223980
     0.5938903227589232    0.6862474749343163    0.3128577743350652
     0.9184684511802813    0.0742661014746099    0.9367828926601093
     0.0846489665432201    0.9151498558141665    0.8125545806937824
     0.5907744101267000    0.4133694254209241    0.5613746085190959
     0.1536598398349644    0.3323364333671150    0.9378894295727177
     0.6012273038290299    0.1707400444801989    0.8116642838190192
     0.6671953115665705    0.0746909821441451    0.9359499882196034
     0.3579956775383417    0.1761141119121199    0.3090497752417184
     0.1581352826063000    0.8247876578722246    0.4375352667974178
     0.0827394882139055    0.6636993401668789    0.3136791533019987
     0.6442496630784635    0.3146681360463667    0.1885253447936385
     0.3351039049948366    0.6732225515301059    0.3158685662438847
     0.3326714307518719    0.6712446393331594    0.0610475710417829
     0.1702946578160847    0.3439659430621522    0.4374795491002918
     0.3429730524616333    0.1625920518188741    0.5640042276627902
     0.5867658217872269    0.9159654423321973    0.8131229358449867
     0.5999781505697279    0.1691993504571400    0.0593140452333694
     0.1094812980890077    0.1804973881299619    0.5612036066751699
     0.6687572854208652    0.0824607826484072    0.4379346788350094
     0.4122934044787390    0.0749989628502142    0.4387022070193654
     0.5935451368480424    0.9243629333156413    0.3145331783643343
     0.5890015947768860    0.6795082251905185    0.0640947896524638
     0.8397700105804228    0.4268889343424566    0.8118021518461310
     0.4029768670621859    0.3224652880812251    0.6880827700420699
     0.5850995646609629    0.6747053600730109    0.8112584724452653
     0.6460399940140505    0.5758399412405748    0.6866512419755740
     0.8298779563369449    0.6688640341736384    0.5621631922773442
     0.0864194903694866    0.9168655648270055    0.5640757768713254
     0.0843482248438565    0.4191304024128646    0.8122171513472874
     0.9216000770793783    0.0793183641052446    0.6875842385832807
     0.4099119681243186    0.8286581760599899    0.6881042188379587
     0.0806584743892147    0.6690855163940790    0.0627070768133662
     0.3391588021481672    0.9166997546454898    0.0599035947272293
     0.4114726125456705    0.5905130246409392    0.4386424685132939
     0.4135194948638758    0.8349615182521204    0.4380659858224598
     0.9244415446772969    0.0900738546238430    0.4378700558999715
     0.9053477703627710    0.8219651740972626    0.4383967114721309
     0.1475735612022814    0.5784354698250030    0.6867035820616374
     0.6693907904655211    0.8410924752475085    0.4373783068067597
     0.1558079654127354    0.3337119719159052    0.1828384439201900
     0.8379370281844000    0.6779988744635276    0.3120308704841172
     0.1602118422447556    0.8278533164941756    0.9372860545739375
     0.8493672410191255    0.9315154826896737    0.5610645992376700
     0.8495218006804335    0.1729982877042611    0.3117285242922680
     0.8971218694417106    0.5773987421744566    0.4357973606501538
     0.3382519691429355    0.9174396971993843    0.3146645110845958
     0.3393772786901863    0.9197177568930290    0.8118212872383173
     0.9077605023550195    0.8250954097568015    0.9383321151592200
     0.6640807954465754    0.8291773577130386    0.9368554825821834
     0.1634655612426228    0.0740761512230888    0.6880941840605088
     0.6485447823832751    0.3281141954553248    0.9366965054550084
     0.0954294658869188    0.4235527529710768    0.3118116924033311
     0.6665813445411993    0.8386399402554187    0.1886187679079169
     0.1604561517972934    0.3317435283692268    0.6892090679856850
     0.0939366533666701    0.9210932103176804    0.0632773255789616
     0.9081972990165887    0.8295841839646227    0.1876380447185130
     0.9205468644227462    0.0819465479117357    0.1877470283282381
     0.4187020579314147    0.0793307939321588    0.6877794546443630
     0.4177168088915668    0.0736421736745196    0.9364168564084461
     0.9059787665733231    0.8268437328412042    0.6866104778531528
     0.8441905207635315    0.9237225627326918    0.0628321973440037
     0.4056259882323215    0.5865439678731320    0.9372150008441523
     0.1040593725178794    0.1714421244457073    0.0611358712361492
 
  0.00000000E+00  0.00000000E+00  0.00000000E+00
  0.00000000E+00  0.00000000E+00  0.00000000E+00
  0.00000000E+00  0.00000000E+00  0.00000000E+00
  0.00000000E+00  0.00000000E+00  0.00000000E+00
  0.00000000E+00  0.00000000E+00  0.00000000E+00
  0.00000000E+00  0.00000000E+00  0.00000000E+00
  0.00000000E+00  0.00000000E+00  0.00000000E+00
  0.00000000E+00  0.00000000E+00  0.00000000E+00
  0.00000000E+00  0.00000000E+00  0.00000000E+00
  0.00000000E+00  0.00000000E+00  0.00000000E+00
  0.00000000E+00  0.00000000E+00  0.00000000E+00
  0.00000000E+00  0.00000000E+00  0.00000000E+00
  0.00000000E+00  0.00000000E+00  0.00000000E+00
  0.00000000E+00  0.00000000E+00  0.00000000E+00
  0.00000000E+00  0.00000000E+00  0.00000000E+00
  0.00000000E+00  0.00000000E+00  0.00000000E+00
  0.00000000E+00  0.00000000E+00  0.00000000E+00
  0.00000000E+00  0.00000000E+00  0.00000000E+00
  0.00000000E+00  0.00000000E+00  0.00000000E+00
  0.00000000E+00  0.00000000E+00  0.00000000E+00
  0.00000000E+00  0.00000000E+00  0.00000000E+00
  0.00000000E+00  0.00000000E+00  0.00000000E+00
  0.00000000E+00  0.00000000E+00  0.00000000E+00
  0.00000000E+00  0.00000000E+00  0.00000000E+00
  0.00000000E+00  0.00000000E+00  0.00000000E+00
  0.00000000E+00  0.00000000E+00  0.00000000E+00
  0.00000000E+00  0.00000000E+00  0.00000000E+00
  0.00000000E+00  0.00000000E+00  0.00000000E+00
  0.00000000E+00  0.00000000E+00  0.00000000E+00
  0.00000000E+00  0.00000000E+00  0.00000000E+00
  0.00000000E+00  0.00000000E+00  0.00000000E+00
  0.00000000E+00  0.00000000E+00  0.00000000E+00
  0.00000000E+00  0.00000000E+00  0.00000000E+00
  0.00000000E+00  0.00000000E+00  0.00000000E+00
  0.00000000E+00  0.00000000E+00  0.00000000E+00
  0.00000000E+00  0.00000000E+00  0.00000000E+00
  0.00000000E+00  0.00000000E+00  0.00000000E+00
  0.00000000E+00  0.00000000E+00  0.00000000E+00
  0.00000000E+00  0.00000000E+00  0.00000000E+00
  0.00000000E+00  0.00000000E+00  0.00000000E+00
  0.00000000E+00  0.00000000E+00  0.00000000E+00
  0.00000000E+00  0.00000000E+00  0.00000000E+00
  0.00000000E+00  0.00000000E+00  0.00000000E+00
  0.00000000E+00  0.00000000E+00  0.00000000E+00
  0.00000000E+00  0.00000000E+00  0.00000000E+00
  0.00000000E+00  0.00000000E+00  0.00000000E+00
  0.00000000E+00  0.00000000E+00  0.00000000E+00
  0.00000000E+00  0.00000000E+00  0.00000000E+00
  0.00000000E+00  0.00000000E+00  0.00000000E+00
  0.00000000E+00  0.00000000E+00  0.00000000E+00
  0.00000000E+00  0.00000000E+00  0.00000000E+00
  0.00000000E+00  0.00000000E+00  0.00000000E+00
  0.00000000E+00  0.00000000E+00  0.00000000E+00
  0.00000000E+00  0.00000000E+00  0.00000000E+00
  0.00000000E+00  0.00000000E+00  0.00000000E+00
  0.00000000E+00  0.00000000E+00  0.00000000E+00
  0.00000000E+00  0.00000000E+00  0.00000000E+00
  0.00000000E+00  0.00000000E+00  0.00000000E+00
  0.00000000E+00  0.00000000E+00  0.00000000E+00
  0.00000000E+00  0.00000000E+00  0.00000000E+00
  0.00000000E+00  0.00000000E+00  0.00000000E+00
  0.00000000E+00  0.00000000E+00  0.00000000E+00
  0.00000000E+00  0.00000000E+00  0.00000000E+00
  0.00000000E+00  0.00000000E+00  0.00000000E+00
  0.00000000E+00  0.00000000E+00  0.00000000E+00
  0.00000000E+00  0.00000000E+00  0.00000000E+00
  0.00000000E+00  0.00000000E+00  0.00000000E+00
  0.00000000E+00  0.00000000E+00  0.00000000E+00
  0.00000000E+00  0.00000000E+00  0.00000000E+00
  0.00000000E+00  0.00000000E+00  0.00000000E+00
  0.00000000E+00  0.00000000E+00  0.00000000E+00
  0.00000000E+00  0.00000000E+00  0.00000000E+00
  0.00000000E+00  0.00000000E+00  0.00000000E+00
  0.00000000E+00  0.00000000E+00  0.00000000E+00
  0.00000000E+00  0.00000000E+00  0.00000000E+00
  0.00000000E+00  0.00000000E+00  0.00000000E+00
  0.00000000E+00  0.00000000E+00  0.00000000E+00
  0.00000000E+00  0.00000000E+00  0.00000000E+00
  0.00000000E+00  0.00000000E+00  0.00000000E+00
  0.00000000E+00  0.00000000E+00  0.00000000E+00
  0.00000000E+00  0.00000000E+00  0.00000000E+00
  0.00000000E+00  0.00000000E+00  0.00000000E+00
  0.00000000E+00  0.00000000E+00  0.00000000E+00
  0.00000000E+00  0.00000000E+00  0.00000000E+00
  0.00000000E+00  0.00000000E+00  0.00000000E+00
  0.00000000E+00  0.00000000E+00  0.00000000E+00
  0.00000000E+00  0.00000000E+00  0.00000000E+00
  0.00000000E+00  0.00000000E+00  0.00000000E+00
  0.00000000E+00  0.00000000E+00  0.00000000E+00
  0.00000000E+00  0.00000000E+00  0.00000000E+00
  0.00000000E+00  0.00000000E+00  0.00000000E+00
  0.00000000E+00  0.00000000E+00  0.00000000E+00
  0.00000000E+00  0.00000000E+00  0.00000000E+00
  0.00000000E+00  0.00000000E+00  0.00000000E+00
  0.00000000E+00  0.00000000E+00  0.00000000E+00
  0.00000000E+00  0.00000000E+00  0.00000000E+00
  0.00000000E+00  0.00000000E+00  0.00000000E+00
  0.00000000E+00  0.00000000E+00  0.00000000E+00
  0.00000000E+00  0.00000000E+00  0.00000000E+00
  0.00000000E+00  0.00000000E+00  0.00000000E+00
  0.00000000E+00  0.00000000E+00  0.00000000E+00
  0.00000000E+00  0.00000000E+00  0.00000000E+00
  0.00000000E+00  0.00000000E+00  0.00000000E+00
  0.00000000E+00  0.00000000E+00  0.00000000E+00
  0.00000000E+00  0.00000000E+00  0.00000000E+00
  0.00000000E+00  0.00000000E+00  0.00000000E+00
  0.00000000E+00  0.00000000E+00  0.00000000E+00
  0.00000000E+00  0.00000000E+00  0.00000000E+00
  0.00000000E+00  0.00000000E+00  0.00000000E+00
  0.00000000E+00  0.00000000E+00  0.00000000E+00
  0.00000000E+00  0.00000000E+00  0.00000000E+00
  0.00000000E+00  0.00000000E+00  0.00000000E+00
  0.00000000E+00  0.00000000E+00  0.00000000E+00
  0.00000000E+00  0.00000000E+00  0.00000000E+00
  0.00000000E+00  0.00000000E+00  0.00000000E+00
  0.00000000E+00  0.00000000E+00  0.00000000E+00
  0.00000000E+00  0.00000000E+00  0.00000000E+00
  0.00000000E+00  0.00000000E+00  0.00000000E+00
  0.00000000E+00  0.00000000E+00  0.00000000E+00
  0.00000000E+00  0.00000000E+00  0.00000000E+00
  0.00000000E+00  0.00000000E+00  0.00000000E+00
  0.00000000E+00  0.00000000E+00  0.00000000E+00
  0.00000000E+00  0.00000000E+00  0.00000000E+00
  0.00000000E+00  0.00000000E+00  0.00000000E+00
  0.00000000E+00  0.00000000E+00  0.00000000E+00
  0.00000000E+00  0.00000000E+00  0.00000000E+00
  0.00000000E+00  0.00000000E+00  0.00000000E+00
  0.00000000E+00  0.00000000E+00  0.00000000E+00
