Nb Ti                                   
    1.000000000000000     
    13.1080604596323305    0.0869866344742099   -0.0227435389409027
    -6.5923260154952477    9.2298365182231539    0.0178002835709462
     0.0977786627520692   -0.0013238844465415   18.5810157686595936
  Nb              Ti            
    80    48
Direct
     0.3119672576603498    0.3860056201511895    0.5624634392431489
     0.4357146778231606    0.8734528484387999    0.9386883327369963
     0.5695256993521288    0.6315941953660129    0.8134271807902355
     0.0626030700531714    0.3801344250661603    0.3175766686678524
     0.8142485104869293    0.8760926015445694    0.8114095402349355
     0.5588263645586616    0.8714727782256959    0.3134231313899200
     0.9382102653326728    0.6234141716573544    0.1892180783465580
     0.6864700298871168    0.8719474938597358    0.6862710478279510
     0.1881270173346394    0.1270456382421245    0.9362457235289025
     0.3088622178837976    0.1199243705332183    0.3109525805979749
     0.0673874757137876    0.1283846775861457    0.0624464248494644
     0.0630939520306770    0.1329640772892411    0.3121680609243854
     0.5636976368507178    0.8794758586441770    0.8119344915791729
     0.4378229452018742    0.1280214362178090    0.1894418476342187
     0.8091888309113259    0.3762501425564613    0.3127135519520816
     0.0620471526619704    0.8735869951971204    0.3124974098749155
     0.4409609683960189    0.6259810795444514    0.1860081526814156
     0.9381852929789534    0.8746037817092321    0.9337475676623821
     0.4396093464991609    0.6250762697471384    0.9350596573248150
     0.1853628167833433    0.6208159545599612    0.6860318491102448
     0.0656550652205557    0.3755028013845310    0.8130281971400560
     0.1819506757541241    0.6194032436329270    0.1841293183039866
     0.8143333757050704    0.8767740399326280    0.3137159001439597
     0.9380965508082380    0.8776413167339399    0.1881927720844356
     0.8107794982120826    0.6234428923551875    0.3120209751117592
     0.5663149979929717    0.8790243218389091    0.0596385063916997
     0.6858125639693775    0.3733175648194587    0.4403665563691185
     0.3185009330501714    0.3765316750807126    0.3115584220980350
     0.6869036425781090    0.3736617010016883    0.9349960209092331
     0.9359975675104238    0.1270819200653402    0.6862759380442930
     0.9368052688228409    0.1252532638086234    0.9403683966760993
     0.9386619173137656    0.6294469660686363    0.4384433220590185
     0.9336511399566263    0.3688462132106894    0.1891045014019496
     0.4310887478773787    0.3707395927104750    0.9399882100085896
     0.9381391241190395    0.8743057676989059    0.6887865212841358
     0.0644773367904291    0.6244794949226928    0.3129358866130506
     0.5629198963048109    0.6332442396231885    0.0622185246487753
     0.0660300214285233    0.1303380520516381    0.8121636666433982
     0.3123429756949401    0.6237340641006324    0.8105418193128798
     0.5634090174393235    0.6305503364992764    0.3117343561752869
     0.1829584752320496    0.6230369708298706    0.9386549800985603
     0.9398980877004859    0.3717512093659460    0.9375137473307809
     0.9403649362093366    0.1290726006185456    0.1859103311536528
     0.8100632886796949    0.6202729742322912    0.0659945663320007
     0.4379239924117959    0.3759128536258580    0.6841476367404593
     0.0631547007772536    0.6273400701402532    0.8129652737587294
     0.5615068158562089    0.8728628958826944    0.5635132830035597
     0.8159940935857882    0.8741793133635373    0.5617624978444623
     0.6827575199120675    0.6206917896110309    0.4355022299907363
     0.1873336031135601    0.1245734718525610    0.1874496030847435
     0.6883614839337575    0.6279720833591370    0.1879843964844694
     0.8120278169343718    0.6200862405710003    0.5637508809038938
     0.9339604186659032    0.8725820286481936    0.4387321150280122
     0.5622822444973243    0.3801573609529280    0.0599667146188741
     0.3144482863235378    0.8760608474441267    0.0614934234102249
     0.5611790774163822    0.3738368352104932    0.5621829999292582
     0.4386884486163652    0.6250120756087998    0.6881423251908987
     0.4446313824450269    0.1281352619808092    0.9356054179633356
     0.4360769527341258    0.3737720361408665    0.1851807988897901
     0.8147827865403479    0.3737312356994802    0.8134034075968476
     0.1814735991911947    0.1147823767943647    0.4347585084766473
     0.0556132510782053    0.8721553849810846    0.0626529510872644
     0.3106726539679215    0.3754126475054554    0.0629934196717932
     0.6855407960651544    0.1238973305867034    0.1903602511770928
     0.3123443357153049    0.1148309346922928    0.8132576949400240
     0.9425480659911987    0.3746086397136209    0.6882060691978741
     0.3122779070002164    0.8751402132698360    0.3165004225727983
     0.5637916687546277    0.6262613267577565    0.5595957190057353
     0.6846195192197576    0.1278035117202113    0.4368523770266500
     0.8183363480104441    0.3796294290881644    0.0603367266336414
     0.8106377763863041    0.1223162894330872    0.8142949431423048
     0.0614166297952668    0.8740422848406217    0.8118190594329215
     0.5625922387805046    0.1199293446455198    0.3116231030683768
     0.0678527141278545    0.6311357233784312    0.0634769499137344
     0.3147225311029604    0.8735430946695897    0.8144155344121518
     0.6894206114562438    0.6234490776074714    0.6872077968815778
     0.3114728312362110    0.6299556454525841    0.5639455524626302
     0.8149317604227309    0.3743666853480973    0.5684701950065222
     0.8105526914294429    0.1217381962112821    0.5586370315426074
     0.1896976606807786    0.8716724595640482    0.4411996793453578
     0.6881562824918710    0.6213607254362543    0.9405053139849758
     0.6950191545516037    0.1225138692029973    0.6856324260240662
     0.1910333478614475    0.3796370735422970    0.1906554455047884
     0.9318341292190291    0.3797570194258781    0.4403582400913909
     0.4411689803824472    0.8813150127853742    0.4424677417246001
     0.6807448604651564    0.3666567522083313    0.6898627547211094
     0.4332717996859303    0.8710674884828351    0.1864568607751017
     0.1884554561916759    0.8808566600567524    0.9384515090665602
     0.0641295858173360    0.3737115038356966    0.5602014656429161
     0.1817627679031051    0.8592685010882808    0.6931493945330199
     0.1902791749815438    0.6184426910479828    0.4351402722435220
     0.4292614231534996    0.3717136637951164    0.4398525448908937
     0.3150679771999846    0.6275443210166266    0.0616846736082480
     0.6895517442877401    0.8741251898939477    0.9348335438197142
     0.5526058593465186    0.3748394093659460    0.8155858368627439
     0.8106061624942508    0.6214763307369209    0.8132079019941075
     0.6859386821783247    0.3730351423838357    0.1847063382664833
     0.9330885069831153    0.6169755720324887    0.6870106036677714
     0.4370977083303565    0.1254191807045819    0.4348015400543886
     0.1938587939409667    0.3657002731603592    0.4369787949293562
     0.1873754045984256    0.3713902314675075    0.6879654359121615
     0.8111649009527676    0.1244246018309496    0.3139743395686423
     0.3122751167780252    0.1203071828311188    0.0607388912800900
     0.1891060683314092    0.3744319089467131    0.9370821274961860
     0.6857422920472483    0.8781081341016231    0.4378370883605175
     0.3201454538379836    0.3745558574672163    0.8115352308252738
     0.4220836236452346    0.1195906240251778    0.6810769156256434
     0.8071605904381886    0.1257717912004296    0.0645313919068175
     0.5588057137146463    0.3707148650194268    0.3125400709779411
     0.3081261801377645    0.1404601636540080    0.5557640452203614
     0.5653751066040057    0.1301147945598139    0.0664846067173487
     0.3102637323195821    0.6230151698856107    0.3045970687553322
     0.1935396200651626    0.1186808531926443    0.6881717675849663
     0.5646267077231774    0.1242264685839629    0.5633403311089236
     0.9354265137107962    0.6217084514715666    0.9408115315161731
     0.4341900826775115    0.6280379788528065    0.4347459318281582
     0.0640632616456523    0.8743648212497939    0.5650440201994998
     0.8165164257041740    0.8763933705871806    0.0611710017868668
     0.4385179160479914    0.8803097238895019    0.6884689877113829
     0.5639970284198966    0.1301102933212240    0.8055082172625981
     0.0686154905353027    0.1283645646860074    0.5634606526473434
     0.1917057281165646    0.8764821491184983    0.1861076356119141
     0.3103522330200806    0.8882771795054996    0.5674154967834567
     0.9405627341803808    0.1287144002365291    0.4392355395767637
     0.0636634841845007    0.3755547503179307    0.0634383931175831
     0.6837297748518644    0.1233195627438262    0.9367256517568404
     0.6916689379216157    0.8834289684342412    0.1881789128377448
     0.0655764813772646    0.6264509715414907    0.5601123508894349
 
  0.00000000E+00  0.00000000E+00  0.00000000E+00
  0.00000000E+00  0.00000000E+00  0.00000000E+00
  0.00000000E+00  0.00000000E+00  0.00000000E+00
  0.00000000E+00  0.00000000E+00  0.00000000E+00
  0.00000000E+00  0.00000000E+00  0.00000000E+00
  0.00000000E+00  0.00000000E+00  0.00000000E+00
  0.00000000E+00  0.00000000E+00  0.00000000E+00
  0.00000000E+00  0.00000000E+00  0.00000000E+00
  0.00000000E+00  0.00000000E+00  0.00000000E+00
  0.00000000E+00  0.00000000E+00  0.00000000E+00
  0.00000000E+00  0.00000000E+00  0.00000000E+00
  0.00000000E+00  0.00000000E+00  0.00000000E+00
  0.00000000E+00  0.00000000E+00  0.00000000E+00
  0.00000000E+00  0.00000000E+00  0.00000000E+00
  0.00000000E+00  0.00000000E+00  0.00000000E+00
  0.00000000E+00  0.00000000E+00  0.00000000E+00
  0.00000000E+00  0.00000000E+00  0.00000000E+00
  0.00000000E+00  0.00000000E+00  0.00000000E+00
  0.00000000E+00  0.00000000E+00  0.00000000E+00
  0.00000000E+00  0.00000000E+00  0.00000000E+00
  0.00000000E+00  0.00000000E+00  0.00000000E+00
  0.00000000E+00  0.00000000E+00  0.00000000E+00
  0.00000000E+00  0.00000000E+00  0.00000000E+00
  0.00000000E+00  0.00000000E+00  0.00000000E+00
  0.00000000E+00  0.00000000E+00  0.00000000E+00
  0.00000000E+00  0.00000000E+00  0.00000000E+00
  0.00000000E+00  0.00000000E+00  0.00000000E+00
  0.00000000E+00  0.00000000E+00  0.00000000E+00
  0.00000000E+00  0.00000000E+00  0.00000000E+00
  0.00000000E+00  0.00000000E+00  0.00000000E+00
  0.00000000E+00  0.00000000E+00  0.00000000E+00
  0.00000000E+00  0.00000000E+00  0.00000000E+00
  0.00000000E+00  0.00000000E+00  0.00000000E+00
  0.00000000E+00  0.00000000E+00  0.00000000E+00
  0.00000000E+00  0.00000000E+00  0.00000000E+00
  0.00000000E+00  0.00000000E+00  0.00000000E+00
  0.00000000E+00  0.00000000E+00  0.00000000E+00
  0.00000000E+00  0.00000000E+00  0.00000000E+00
  0.00000000E+00  0.00000000E+00  0.00000000E+00
  0.00000000E+00  0.00000000E+00  0.00000000E+00
  0.00000000E+00  0.00000000E+00  0.00000000E+00
  0.00000000E+00  0.00000000E+00  0.00000000E+00
  0.00000000E+00  0.00000000E+00  0.00000000E+00
  0.00000000E+00  0.00000000E+00  0.00000000E+00
  0.00000000E+00  0.00000000E+00  0.00000000E+00
  0.00000000E+00  0.00000000E+00  0.00000000E+00
  0.00000000E+00  0.00000000E+00  0.00000000E+00
  0.00000000E+00  0.00000000E+00  0.00000000E+00
  0.00000000E+00  0.00000000E+00  0.00000000E+00
  0.00000000E+00  0.00000000E+00  0.00000000E+00
  0.00000000E+00  0.00000000E+00  0.00000000E+00
  0.00000000E+00  0.00000000E+00  0.00000000E+00
  0.00000000E+00  0.00000000E+00  0.00000000E+00
  0.00000000E+00  0.00000000E+00  0.00000000E+00
  0.00000000E+00  0.00000000E+00  0.00000000E+00
  0.00000000E+00  0.00000000E+00  0.00000000E+00
  0.00000000E+00  0.00000000E+00  0.00000000E+00
  0.00000000E+00  0.00000000E+00  0.00000000E+00
  0.00000000E+00  0.00000000E+00  0.00000000E+00
  0.00000000E+00  0.00000000E+00  0.00000000E+00
  0.00000000E+00  0.00000000E+00  0.00000000E+00
  0.00000000E+00  0.00000000E+00  0.00000000E+00
  0.00000000E+00  0.00000000E+00  0.00000000E+00
  0.00000000E+00  0.00000000E+00  0.00000000E+00
  0.00000000E+00  0.00000000E+00  0.00000000E+00
  0.00000000E+00  0.00000000E+00  0.00000000E+00
  0.00000000E+00  0.00000000E+00  0.00000000E+00
  0.00000000E+00  0.00000000E+00  0.00000000E+00
  0.00000000E+00  0.00000000E+00  0.00000000E+00
  0.00000000E+00  0.00000000E+00  0.00000000E+00
  0.00000000E+00  0.00000000E+00  0.00000000E+00
  0.00000000E+00  0.00000000E+00  0.00000000E+00
  0.00000000E+00  0.00000000E+00  0.00000000E+00
  0.00000000E+00  0.00000000E+00  0.00000000E+00
  0.00000000E+00  0.00000000E+00  0.00000000E+00
  0.00000000E+00  0.00000000E+00  0.00000000E+00
  0.00000000E+00  0.00000000E+00  0.00000000E+00
  0.00000000E+00  0.00000000E+00  0.00000000E+00
  0.00000000E+00  0.00000000E+00  0.00000000E+00
  0.00000000E+00  0.00000000E+00  0.00000000E+00
  0.00000000E+00  0.00000000E+00  0.00000000E+00
  0.00000000E+00  0.00000000E+00  0.00000000E+00
  0.00000000E+00  0.00000000E+00  0.00000000E+00
  0.00000000E+00  0.00000000E+00  0.00000000E+00
  0.00000000E+00  0.00000000E+00  0.00000000E+00
  0.00000000E+00  0.00000000E+00  0.00000000E+00
  0.00000000E+00  0.00000000E+00  0.00000000E+00
  0.00000000E+00  0.00000000E+00  0.00000000E+00
  0.00000000E+00  0.00000000E+00  0.00000000E+00
  0.00000000E+00  0.00000000E+00  0.00000000E+00
  0.00000000E+00  0.00000000E+00  0.00000000E+00
  0.00000000E+00  0.00000000E+00  0.00000000E+00
  0.00000000E+00  0.00000000E+00  0.00000000E+00
  0.00000000E+00  0.00000000E+00  0.00000000E+00
  0.00000000E+00  0.00000000E+00  0.00000000E+00
  0.00000000E+00  0.00000000E+00  0.00000000E+00
  0.00000000E+00  0.00000000E+00  0.00000000E+00
  0.00000000E+00  0.00000000E+00  0.00000000E+00
  0.00000000E+00  0.00000000E+00  0.00000000E+00
  0.00000000E+00  0.00000000E+00  0.00000000E+00
  0.00000000E+00  0.00000000E+00  0.00000000E+00
  0.00000000E+00  0.00000000E+00  0.00000000E+00
  0.00000000E+00  0.00000000E+00  0.00000000E+00
  0.00000000E+00  0.00000000E+00  0.00000000E+00
  0.00000000E+00  0.00000000E+00  0.00000000E+00
  0.00000000E+00  0.00000000E+00  0.00000000E+00
  0.00000000E+00  0.00000000E+00  0.00000000E+00
  0.00000000E+00  0.00000000E+00  0.00000000E+00
  0.00000000E+00  0.00000000E+00  0.00000000E+00
  0.00000000E+00  0.00000000E+00  0.00000000E+00
  0.00000000E+00  0.00000000E+00  0.00000000E+00
  0.00000000E+00  0.00000000E+00  0.00000000E+00
  0.00000000E+00  0.00000000E+00  0.00000000E+00
  0.00000000E+00  0.00000000E+00  0.00000000E+00
  0.00000000E+00  0.00000000E+00  0.00000000E+00
  0.00000000E+00  0.00000000E+00  0.00000000E+00
  0.00000000E+00  0.00000000E+00  0.00000000E+00
  0.00000000E+00  0.00000000E+00  0.00000000E+00
  0.00000000E+00  0.00000000E+00  0.00000000E+00
  0.00000000E+00  0.00000000E+00  0.00000000E+00
  0.00000000E+00  0.00000000E+00  0.00000000E+00
  0.00000000E+00  0.00000000E+00  0.00000000E+00
  0.00000000E+00  0.00000000E+00  0.00000000E+00
  0.00000000E+00  0.00000000E+00  0.00000000E+00
  0.00000000E+00  0.00000000E+00  0.00000000E+00
  0.00000000E+00  0.00000000E+00  0.00000000E+00
  0.00000000E+00  0.00000000E+00  0.00000000E+00
  0.00000000E+00  0.00000000E+00  0.00000000E+00
