Nb  V                                   
    1.000000000000000     
    13.0227128867439212    0.0078873193773945    0.0128780894175190
     0.0079057830211654   13.0188953031537178    0.0026636931756321
     0.0128819817088073    0.0026501977088667   13.0275837533531682
   Nb   V 
   104    24
Direct
  0.3718853269473315  0.3773130402477642  0.6245499304639450
  0.2467494817461364  0.4992026584959353  0.0000166226991089
  0.7464547270438929 -0.0002001521284195  0.4930107622348870
  0.4998470094570948  0.5013596457341415  0.7481036137150302
  0.3744977573385868  0.8753098418470120  0.8756434379522662
  0.1254345732552356  0.8748555476237446  0.1265798190545414
  0.8721447222075490  0.8750623712559876  0.1285777433756926
  0.3765183317384868  0.6278341862541489  0.1275404426885460
  0.8806826312889969  0.6218802023577752  0.6222762637301565
  0.3749885193156521  0.3731276215925867  0.1261783747759750
  0.2401371472926237  0.5023108040200969  0.5013563091412757
  0.2500149818422324  0.7503871669523258  0.0003184640867567
  0.3727055638609940  0.1247814650441702  0.6232952358994942
  0.3800372949981130  0.8770901559041050  0.1320315987568219
  0.8757061508699647  0.8741280777618766  0.8742093163783100
  0.2520977886473927  0.7499469338521199  0.2547688344541963
  0.2451188800240575  0.5000780554484501  0.2559987313885320
  0.5016714923600201  0.2427787917067109  0.2505771452064435
  0.4988502823161292  0.0017953259505213  0.0073824499848517
  0.2461322335609977  0.5024422317046973  0.7425304404730850
  0.5012730203564681  0.7507940089221012  0.0037699342774677
  0.5014236091352604 -0.0026094805883421  0.4910108145541786
  0.6270337415995549  0.1274163613980801  0.8754472468458380
  0.8797258425647017  0.8717198617748454  0.6212748922672273
  0.2567268888419861  0.0001832777367160  0.2517857063897153
  0.4968635683235932  0.7486082542913555  0.7463977659589734
  0.8772782364530320  0.3748903192139607  0.3718874156814755
 -0.0027899069362388  0.0014274778697917  0.2521555868469429
  0.1257264496811830  0.8711733774082702  0.3786475463175558
  0.0001743129500172  0.4987694753830261  0.7456757604556498
  0.7574623836272468  0.4986076946480426  0.0004584350540558
  0.2490498862938307 -0.0026185496042468  0.4996692728498431
 -0.0008471477814231  0.2530354029179170  0.7471412469227083
  0.2464395335067823  0.7461551101690611  0.5009926851146974
  0.5022759744991412  0.4998689437409530  0.0000554085795429
  0.6248773618558785  0.8749559767222835  0.8771617720935568
  0.6264773743346461  0.1263833623682511  0.6231510865857781
 -0.0021492087431975  0.7440426973971287  0.0012469117969058
  0.7529158824009431  0.7463988473989546  0.0032373111565273
  0.5009498277763690  0.2483910515303653  0.0030427164144671
  0.6300294037791433  0.3720487616203867  0.3715910435220266
  0.3778537353090968  0.1211064458955928  0.3717747835599767
  0.5016403024377433  0.5019691883454254  0.2512119596733836
  0.2509165202665574  0.2483055507824060  0.0019379365932056
  0.3723724438229216  0.8726431585682812  0.6202396692806599
  0.7539938803789499  0.4998664497371944  0.4986072381873919
  0.2522444750431669  0.0015058487733206  0.0022198834029566
  0.1212631817926008  0.6223295849823107  0.1261055510791662
  0.2479049234956004  0.2501028413696159  0.2519917812595926
  0.5005842314458779  0.2475050941171826  0.4967622345674152
  0.1243699697027915  0.1273978344562156  0.1274954210898914
  0.2469962737102279  0.7469895616283112  0.7419403041697725
  0.8754155551696361  0.1282806146156751  0.6239641162769497
 -0.0024950491011861  0.2560401647714898 -0.0001061785531097
 -0.0006110341296353  0.5002908278066283  0.2535699470252005
  0.8790725147502040  0.6229804793116357  0.3756088042488774
  0.0041230139218780  0.7480359130996791  0.7430867037665617
  0.4973682880938344  0.7528082445020812  0.4947333340705708
  0.7498900513582493  0.7515330367146611  0.4974073741746297
  0.4965688609051722  0.5026198095463543  0.5008262067386657
  0.0031469370847685  0.0005898125338920  0.7449605306092661
  0.8759794170510575  0.3778194338086391  0.6268735441024047
  0.1221691191518396  0.6227362607403347  0.8730996455985934
  0.7520557214599156  0.2523226521904631 -0.0001896360437015
  0.1250216014875331  0.8737687708301369  0.8718202016917269
  0.6245920054191768  0.8753564591174948  0.6216107092274952
  0.7511712056645681  0.0027844293340269  0.7493234102389655
  0.5017911075216561  0.2504800951071996  0.7498902458857649
 -0.0003318861558683  0.0011077361003460 -0.0002720205533226
  0.6261230194187948  0.6280591341544770  0.3726454976941906
  0.2460615780636532 -0.0007381446532910  0.7448120205789183
  0.8727500404014318  0.8749827939436988  0.3753219298065662
  0.7495222129125104  0.0006678543619708  0.0038785455650317
  0.7502324515518097  0.2481950141786836  0.4974192849415270
  0.6283310492225167  0.6217036801183531  0.8743043105352871
  0.3742478727665587  0.6251768467899947  0.8734223589731234
  0.3747711274267868  0.3751702291001024  0.8743121519345184
  0.7489556135816696  0.7504565578394509  0.2509545538556583
  0.8737022519579337  0.1305692844329368  0.8743860869533859
  0.8701914164830435  0.1281476544624690  0.3705371868355617
  0.3737985494055748  0.6287876546712324  0.3760657692275819
  0.6333156131451865  0.3752581554261166  0.8720111870325751
  0.4988880872708736 -0.0003393895981891  0.7490885157690018
  0.6286575324728845  0.6254599501007255  0.1286062069610866
  0.6306383546947000  0.3739403147670002  0.1283124057327388
  0.6234519610143532  0.8768452661512790  0.1344291606689460
  0.6260726163252956  0.1222183972044336  0.1333507703999232
  0.1194590480625029  0.3778410859977770  0.8743594802544697
  0.0033696320643619  0.2566720597965174  0.5004008603980089
  0.7517892007910466  0.7463832307886339  0.7495951412684544
  0.2436255506679008  0.2531248083687208  0.5012621628743483
  0.8767654576599523  0.6176477205012284  0.8747365772355845
  0.6302426100079114  0.3747718881961505  0.6271118986541155
  0.3724865761055691  0.3745236453603104  0.3755826766637665
  0.6260821300539069  0.6229781775100628  0.6245665495079701
  0.3750827576353334  0.1249561859530396  0.8765426830009369
 -0.0005363130999699  0.7464394967110077  0.2536356105642757
  0.1198754592887574  0.3754053823727674  0.1284329378348754
  0.1225106019525990  0.1285811108161201  0.3761373274008585
  0.0035490639963049 -0.0011018536786609  0.5022910530563229
  0.1242715082685096  0.1268867032412337  0.8732442915240992
  0.2445967162654517  0.2520598627222516  0.7460164821258163
  0.8717008520794955  0.1291086422959517  0.1306841247074186
  0.8752232566985244  0.3766038771885947  0.1284796211982378
  0.0086074367055609  0.7431767260723385  0.5011203209429140
  0.7546984701034546  0.4938379688982313  0.7534093609302898
  0.3701340612300167  0.6254784091062698  0.6225540292254444
  0.3832540762864443  0.8749208424254126  0.3709860984885908
  0.1191996393439235  0.6226468245392328  0.3833790195688769
  0.5034523710300265 -0.0028091682029786  0.2553397954625698
  0.7544523960386909  0.4993745707523953  0.2470261385243921
  0.7400752534402731  0.0015733161945310  0.2551887309155401
  0.8727363803365255  0.3769740675046852  0.8730002827116274
  0.5009729228200597  0.7597759442749420  0.2563533144519431
  0.3786561630951600  0.1213511897303312  0.1291820996697119
  0.7492628514559684  0.2467137996735624  0.2506547337744193
  0.0092545100448921  0.5024389689491005  0.4995569540695263
  0.8754363535163556  0.6182096090739269  0.1265784388710551
  0.1205100469580364  0.6244391498918785  0.6163158806195959
  0.6265854163245813  0.1188809056897176  0.3678317553658437
  0.1177751844505762  0.3793135400623689  0.3781160599465672
 -0.0013549336598806  0.2542859885143782  0.2535803199358547
  0.6203853661584077  0.8801809394624905  0.3679294455045143
 -0.0045223429408138  0.4997978858950848  0.0012775965526122
  0.7544539088102818  0.2550974152544409  0.7521150558998170
  0.1206091109809804  0.3803472192000840  0.6206090859608682
  0.1239677824049617  0.1269907936851417  0.6232860535111940
  0.1239328207630421  0.8691573130280374  0.6204322098470502
 
  0.00000000E+00  0.00000000E+00  0.00000000E+00
  0.00000000E+00  0.00000000E+00  0.00000000E+00
  0.00000000E+00  0.00000000E+00  0.00000000E+00
  0.00000000E+00  0.00000000E+00  0.00000000E+00
  0.00000000E+00  0.00000000E+00  0.00000000E+00
  0.00000000E+00  0.00000000E+00  0.00000000E+00
  0.00000000E+00  0.00000000E+00  0.00000000E+00
  0.00000000E+00  0.00000000E+00  0.00000000E+00
  0.00000000E+00  0.00000000E+00  0.00000000E+00
  0.00000000E+00  0.00000000E+00  0.00000000E+00
  0.00000000E+00  0.00000000E+00  0.00000000E+00
  0.00000000E+00  0.00000000E+00  0.00000000E+00
  0.00000000E+00  0.00000000E+00  0.00000000E+00
  0.00000000E+00  0.00000000E+00  0.00000000E+00
  0.00000000E+00  0.00000000E+00  0.00000000E+00
  0.00000000E+00  0.00000000E+00  0.00000000E+00
  0.00000000E+00  0.00000000E+00  0.00000000E+00
  0.00000000E+00  0.00000000E+00  0.00000000E+00
  0.00000000E+00  0.00000000E+00  0.00000000E+00
  0.00000000E+00  0.00000000E+00  0.00000000E+00
  0.00000000E+00  0.00000000E+00  0.00000000E+00
  0.00000000E+00  0.00000000E+00  0.00000000E+00
  0.00000000E+00  0.00000000E+00  0.00000000E+00
  0.00000000E+00  0.00000000E+00  0.00000000E+00
  0.00000000E+00  0.00000000E+00  0.00000000E+00
  0.00000000E+00  0.00000000E+00  0.00000000E+00
  0.00000000E+00  0.00000000E+00  0.00000000E+00
  0.00000000E+00  0.00000000E+00  0.00000000E+00
  0.00000000E+00  0.00000000E+00  0.00000000E+00
  0.00000000E+00  0.00000000E+00  0.00000000E+00
  0.00000000E+00  0.00000000E+00  0.00000000E+00
  0.00000000E+00  0.00000000E+00  0.00000000E+00
  0.00000000E+00  0.00000000E+00  0.00000000E+00
  0.00000000E+00  0.00000000E+00  0.00000000E+00
  0.00000000E+00  0.00000000E+00  0.00000000E+00
  0.00000000E+00  0.00000000E+00  0.00000000E+00
  0.00000000E+00  0.00000000E+00  0.00000000E+00
  0.00000000E+00  0.00000000E+00  0.00000000E+00
  0.00000000E+00  0.00000000E+00  0.00000000E+00
  0.00000000E+00  0.00000000E+00  0.00000000E+00
  0.00000000E+00  0.00000000E+00  0.00000000E+00
  0.00000000E+00  0.00000000E+00  0.00000000E+00
  0.00000000E+00  0.00000000E+00  0.00000000E+00
  0.00000000E+00  0.00000000E+00  0.00000000E+00
  0.00000000E+00  0.00000000E+00  0.00000000E+00
  0.00000000E+00  0.00000000E+00  0.00000000E+00
  0.00000000E+00  0.00000000E+00  0.00000000E+00
  0.00000000E+00  0.00000000E+00  0.00000000E+00
  0.00000000E+00  0.00000000E+00  0.00000000E+00
  0.00000000E+00  0.00000000E+00  0.00000000E+00
  0.00000000E+00  0.00000000E+00  0.00000000E+00
  0.00000000E+00  0.00000000E+00  0.00000000E+00
  0.00000000E+00  0.00000000E+00  0.00000000E+00
  0.00000000E+00  0.00000000E+00  0.00000000E+00
  0.00000000E+00  0.00000000E+00  0.00000000E+00
  0.00000000E+00  0.00000000E+00  0.00000000E+00
  0.00000000E+00  0.00000000E+00  0.00000000E+00
  0.00000000E+00  0.00000000E+00  0.00000000E+00
  0.00000000E+00  0.00000000E+00  0.00000000E+00
  0.00000000E+00  0.00000000E+00  0.00000000E+00
  0.00000000E+00  0.00000000E+00  0.00000000E+00
  0.00000000E+00  0.00000000E+00  0.00000000E+00
  0.00000000E+00  0.00000000E+00  0.00000000E+00
  0.00000000E+00  0.00000000E+00  0.00000000E+00
  0.00000000E+00  0.00000000E+00  0.00000000E+00
  0.00000000E+00  0.00000000E+00  0.00000000E+00
  0.00000000E+00  0.00000000E+00  0.00000000E+00
  0.00000000E+00  0.00000000E+00  0.00000000E+00
  0.00000000E+00  0.00000000E+00  0.00000000E+00
  0.00000000E+00  0.00000000E+00  0.00000000E+00
  0.00000000E+00  0.00000000E+00  0.00000000E+00
  0.00000000E+00  0.00000000E+00  0.00000000E+00
  0.00000000E+00  0.00000000E+00  0.00000000E+00
  0.00000000E+00  0.00000000E+00  0.00000000E+00
  0.00000000E+00  0.00000000E+00  0.00000000E+00
  0.00000000E+00  0.00000000E+00  0.00000000E+00
  0.00000000E+00  0.00000000E+00  0.00000000E+00
  0.00000000E+00  0.00000000E+00  0.00000000E+00
  0.00000000E+00  0.00000000E+00  0.00000000E+00
  0.00000000E+00  0.00000000E+00  0.00000000E+00
  0.00000000E+00  0.00000000E+00  0.00000000E+00
  0.00000000E+00  0.00000000E+00  0.00000000E+00
  0.00000000E+00  0.00000000E+00  0.00000000E+00
  0.00000000E+00  0.00000000E+00  0.00000000E+00
  0.00000000E+00  0.00000000E+00  0.00000000E+00
  0.00000000E+00  0.00000000E+00  0.00000000E+00
  0.00000000E+00  0.00000000E+00  0.00000000E+00
  0.00000000E+00  0.00000000E+00  0.00000000E+00
  0.00000000E+00  0.00000000E+00  0.00000000E+00
  0.00000000E+00  0.00000000E+00  0.00000000E+00
  0.00000000E+00  0.00000000E+00  0.00000000E+00
  0.00000000E+00  0.00000000E+00  0.00000000E+00
  0.00000000E+00  0.00000000E+00  0.00000000E+00
  0.00000000E+00  0.00000000E+00  0.00000000E+00
  0.00000000E+00  0.00000000E+00  0.00000000E+00
  0.00000000E+00  0.00000000E+00  0.00000000E+00
  0.00000000E+00  0.00000000E+00  0.00000000E+00
  0.00000000E+00  0.00000000E+00  0.00000000E+00
  0.00000000E+00  0.00000000E+00  0.00000000E+00
  0.00000000E+00  0.00000000E+00  0.00000000E+00
  0.00000000E+00  0.00000000E+00  0.00000000E+00
  0.00000000E+00  0.00000000E+00  0.00000000E+00
  0.00000000E+00  0.00000000E+00  0.00000000E+00
  0.00000000E+00  0.00000000E+00  0.00000000E+00
  0.00000000E+00  0.00000000E+00  0.00000000E+00
  0.00000000E+00  0.00000000E+00  0.00000000E+00
  0.00000000E+00  0.00000000E+00  0.00000000E+00
  0.00000000E+00  0.00000000E+00  0.00000000E+00
  0.00000000E+00  0.00000000E+00  0.00000000E+00
  0.00000000E+00  0.00000000E+00  0.00000000E+00
  0.00000000E+00  0.00000000E+00  0.00000000E+00
  0.00000000E+00  0.00000000E+00  0.00000000E+00
  0.00000000E+00  0.00000000E+00  0.00000000E+00
  0.00000000E+00  0.00000000E+00  0.00000000E+00
  0.00000000E+00  0.00000000E+00  0.00000000E+00
  0.00000000E+00  0.00000000E+00  0.00000000E+00
  0.00000000E+00  0.00000000E+00  0.00000000E+00
  0.00000000E+00  0.00000000E+00  0.00000000E+00
  0.00000000E+00  0.00000000E+00  0.00000000E+00
  0.00000000E+00  0.00000000E+00  0.00000000E+00
  0.00000000E+00  0.00000000E+00  0.00000000E+00
  0.00000000E+00  0.00000000E+00  0.00000000E+00
  0.00000000E+00  0.00000000E+00  0.00000000E+00
  0.00000000E+00  0.00000000E+00  0.00000000E+00
  0.00000000E+00  0.00000000E+00  0.00000000E+00
  0.00000000E+00  0.00000000E+00  0.00000000E+00
  0.00000000E+00  0.00000000E+00  0.00000000E+00
  0.00000000E+00  0.00000000E+00  0.00000000E+00
