Hf Ti                                   
    1.000000000000000     
    11.9876977807370135   -0.0168477907936783    0.0024357975273797
    -6.0084150947025794   10.4194993178265030    0.0009367232722821
     0.0038730602195721    0.0039920132708373   18.9477143376317940
  Hf              Ti            
    28   100
Direct
     0.1544800943715283    0.8277740740363243    0.4363320354267742
     0.8393135727708084    0.6709493125875778    0.3136147146397408
     0.3364313073813160    0.6638022099257979    0.0655834051703906
     0.4189846320019985    0.5810948337227583    0.9377727974882601
     0.0801347480878728    0.6622102551513535    0.0626766666338134
     0.4134947241358617    0.0863082772853263    0.6871396544361948
     0.9131485003044111    0.8360018569062339    0.9370480675713539
     0.9122739695505763    0.5774579189528658    0.9353884338703873
     0.4115236144439421    0.5785130681567826    0.6860269498864050
     0.4131764796349856    0.3319168259876329    0.6867917971257597
     0.8368825375409290    0.1682138282770432    0.5603540817737734
     0.4162940138046475    0.5804305534350156    0.4357183031495605
     0.5794056284984476    0.4169846451234098    0.3152746259609331
     0.6680926000161337    0.3324834691989451    0.1864245510369832
     0.3336288992920143    0.9171801252527818    0.8155613002797256
     0.8304635373779889    0.6657666234319332    0.8073527921124066
     0.3432778801385833    0.9220238256809099    0.3148632945731998
     0.0867813164140449    0.4178238660074828    0.3144681411763765
     0.6730068006938160    0.8319565887254866    0.6865236435151253
     0.0842628845316511    0.1668698252302071    0.3123378805002051
     0.0827905589540472    0.1667207101177360    0.8137620351356569
     0.8318884088153593    0.1680981418154812    0.0633440322303893
     0.3400698390646807    0.9228986880491412    0.0625073512113593
     0.4113637523583970    0.8273427972985848    0.6870934877083518
     0.1638149538807498    0.8302521119932655    0.1920560334058788
     0.0833329502451539    0.9218163946651994    0.0633364633487589
     0.3335275602139421    0.9175289541387088    0.5581461838110713
     0.6695120171580723    0.0878420184357256    0.6893039673035565
     0.1635978766768985    0.3288789798081165    0.4415776177520722
     0.8284137524376537    0.9151746952648732    0.0648814589582853
     0.3300264761582520    0.4148520634753999    0.8148960386064021
     0.1607615037286002    0.3321372398922542    0.6853494626892577
     0.3392400084970201    0.1755102230680823    0.0636350177400984
     0.9222635807039156    0.3374201940592270    0.6878748742174883
     0.8258039630039143    0.6612346331450520    0.0665044769555157
     0.9154009014972689    0.0811029204890616    0.1872146964391067
     0.5858206194291966    0.4182185374834976    0.5593425856832446
     0.4208203192957485    0.8338934818078003    0.9377367019200984
     0.8324607950911559    0.4104290838433752    0.8099274484057790
     0.9130703228918594    0.5738033144638769    0.4394898165220589
     0.5834537640143781    0.9133439145577332    0.8153889404696590
     0.9155144984274927    0.5777500906188320    0.1890291553901843
     0.1666488500872319    0.8325689148111167    0.9352423912747996
     0.4095627625090204    0.3276666461869807    0.4389432237058848
     0.4188935032397886    0.0884411993939729    0.1885415742507955
     0.3358906876715470    0.4133500697473897    0.0641030372746239
     0.3306769305574368    0.6636833094534071    0.8143740818892867
     0.9119929547297499    0.8369738690530232    0.1879987704948943
     0.1675644980949242    0.5836711269091098    0.9348425318755470
     0.1619479211920527    0.5800367858259922    0.6868803323967423
     0.4200982848275428    0.0914858618452016    0.9382853400195796
     0.5826577536502174    0.4167559824054263    0.8142964420655967
     0.8356774979582464    0.1683224122722431    0.8145799986832900
     0.4247735928623174    0.8345021705308663    0.1896965749235551
     0.6644647805092005    0.5813469289187292    0.9380176883732191
     0.9216255279632328    0.0839950237326064    0.6862085459895311
     0.1650617440124665    0.3332843892907280    0.9387162839542913
     0.6608393074593764    0.0813981704124877    0.9363608139769564
     0.8282767842126543    0.1650042779233422    0.3126386323337842
     0.5874364529700125    0.6654999723142200    0.5598696542297285
     0.1700835278558784    0.0892154836792632    0.1868928109256795
     0.1673933268807310    0.3354143816414346    0.1839226876041520
     0.6667281379585119    0.5787804625050246    0.6835088781281194
     0.9227584083520722    0.8397546210544529    0.6855007740616130
     0.5883172890363482    0.9142724212846213    0.3130304042938775
     0.8379410466156765    0.9165847374589030    0.5605883389856127
     0.5871804975652154    0.1669145251194404    0.3138343288748494
     0.0805588409507954    0.6579078546080486    0.3137731256465037
     0.5831143705501198    0.9129172445756816    0.5593173555044260
     0.0788051093972492    0.6617908176229705    0.5635281641896033
     0.6711621191492297    0.5877867178394488    0.4399541510239698
     0.6627626698605407    0.5850452017151381    0.1874227709228504
     0.9127789266908394    0.0821671441328420    0.9391074988684101
     0.4195871781901818    0.5801391536544352    0.1908625366155531
     0.9158798551909335    0.3312878966710778    0.9359061058920416
     0.9139164703973227    0.3334981627939468    0.4379546008320862
     0.3341450165068779    0.6701691058660058    0.3109361552851767
     0.6669549715526429    0.8368936966969408    0.9379328610664108
     0.5889911404062600    0.6675944924439253    0.0644716885354212
     0.9157814241811204    0.8405019057557110    0.4382499739084245
     0.3313487594406488    0.4129141145273950    0.3106919255027374
     0.5862864292819643    0.9164001559271027    0.0625216545648162
     0.4142443733103509    0.3292381518791228    0.9378104767761558
     0.5882148883611128    0.6746172718571750    0.3117047249650244
     0.6613687551900973    0.0771029258517166    0.1889671660078856
     0.8294048253888551    0.9180071715171738    0.3117532546419731
     0.8329810350418340    0.4193662188827793    0.5633384750513083
     0.0858407595881722    0.9182751439478000    0.8109917736262913
     0.9141881798140196    0.0806690778282233    0.4365059565373687
     0.5840387310960393    0.6653943995467644    0.8133132063734891
     0.5814318874359534    0.4194196518722286    0.0607139960328728
     0.0845007540007392    0.4198485776590920    0.8129215741891717
     0.1560550200541363    0.8278902611409419    0.6865367722859772
     0.0859477433333939    0.1694438640070089    0.0621061171870568
     0.6599227999165436    0.0794470087296752    0.4364761743153048
     0.6710955281579914    0.3402352979909085    0.6875054713442270
     0.6714216305351604    0.3319275015911601    0.4390230514529231
     0.3300740263174833    0.4131449922160899    0.5600609258330624
     0.1662488332750226    0.5786705300723395    0.1889983687853159
     0.5849361286551475    0.1740506331502185    0.5603818263031396
     0.1668156383827195    0.5861658676353311    0.4395330354340302
     0.1747739875351253    0.0868313057939665    0.9378699351331328
     0.1645579876064844    0.0806529104093197    0.6858779746911423
     0.8322983869007980    0.9228919213957091    0.8126035208102882
     0.4237752227558180    0.0956109302520545    0.4370832761198166
     0.3328557012820499    0.1652304937564169    0.3124565533803864
     0.0800428348743405    0.9235624805587104    0.3121827308939988
     0.5823861223882677    0.1683376712242289    0.0613107869120240
     0.3303383702471373    0.6643711577784719    0.5595872426843252
     0.0848603150565199    0.1642000491304063    0.5616030419848257
     0.0843541588152142    0.6643903751006004    0.8096519299584678
     0.6718182921044539    0.8366683003127429    0.4378730721803716
     0.3342987310012514    0.1688916027831227    0.8158344198925702
     0.6658056295708458    0.3293379348658950    0.9369971280578064
     0.9198222137098634    0.3345921577444694    0.1878937597855604
     0.9187221416332680    0.5808289019911869    0.6853402585224021
     0.3305105364395829    0.1677422230750892    0.5591616455023861
     0.6653250082556547    0.8328849647349374    0.1870748761928120
     0.8344664832782204    0.4137587704527476    0.3142386704181033
     0.4125212348681884    0.3327295437508416    0.1872638729130488
     0.0852000365949132    0.4209362188122190    0.5619612168123881
     0.0832191407442343    0.4151147151550140    0.0608720319314700
     0.0797859899186301    0.9174238498394272    0.5632567108855960
     0.4230732112392898    0.8312706176963066    0.4365746868512952
     0.8379798131590235    0.6701014647607278    0.5621013524038658
     0.5852624080156118    0.1734335469853272    0.8146139072417393
     0.8316230059806614    0.4156558721641256    0.0619047688687622
     0.1670208321163774    0.0816877399327897    0.4390125906527946
 
  0.00000000E+00  0.00000000E+00  0.00000000E+00
  0.00000000E+00  0.00000000E+00  0.00000000E+00
  0.00000000E+00  0.00000000E+00  0.00000000E+00
  0.00000000E+00  0.00000000E+00  0.00000000E+00
  0.00000000E+00  0.00000000E+00  0.00000000E+00
  0.00000000E+00  0.00000000E+00  0.00000000E+00
  0.00000000E+00  0.00000000E+00  0.00000000E+00
  0.00000000E+00  0.00000000E+00  0.00000000E+00
  0.00000000E+00  0.00000000E+00  0.00000000E+00
  0.00000000E+00  0.00000000E+00  0.00000000E+00
  0.00000000E+00  0.00000000E+00  0.00000000E+00
  0.00000000E+00  0.00000000E+00  0.00000000E+00
  0.00000000E+00  0.00000000E+00  0.00000000E+00
  0.00000000E+00  0.00000000E+00  0.00000000E+00
  0.00000000E+00  0.00000000E+00  0.00000000E+00
  0.00000000E+00  0.00000000E+00  0.00000000E+00
  0.00000000E+00  0.00000000E+00  0.00000000E+00
  0.00000000E+00  0.00000000E+00  0.00000000E+00
  0.00000000E+00  0.00000000E+00  0.00000000E+00
  0.00000000E+00  0.00000000E+00  0.00000000E+00
  0.00000000E+00  0.00000000E+00  0.00000000E+00
  0.00000000E+00  0.00000000E+00  0.00000000E+00
  0.00000000E+00  0.00000000E+00  0.00000000E+00
  0.00000000E+00  0.00000000E+00  0.00000000E+00
  0.00000000E+00  0.00000000E+00  0.00000000E+00
  0.00000000E+00  0.00000000E+00  0.00000000E+00
  0.00000000E+00  0.00000000E+00  0.00000000E+00
  0.00000000E+00  0.00000000E+00  0.00000000E+00
  0.00000000E+00  0.00000000E+00  0.00000000E+00
  0.00000000E+00  0.00000000E+00  0.00000000E+00
  0.00000000E+00  0.00000000E+00  0.00000000E+00
  0.00000000E+00  0.00000000E+00  0.00000000E+00
  0.00000000E+00  0.00000000E+00  0.00000000E+00
  0.00000000E+00  0.00000000E+00  0.00000000E+00
  0.00000000E+00  0.00000000E+00  0.00000000E+00
  0.00000000E+00  0.00000000E+00  0.00000000E+00
  0.00000000E+00  0.00000000E+00  0.00000000E+00
  0.00000000E+00  0.00000000E+00  0.00000000E+00
  0.00000000E+00  0.00000000E+00  0.00000000E+00
  0.00000000E+00  0.00000000E+00  0.00000000E+00
  0.00000000E+00  0.00000000E+00  0.00000000E+00
  0.00000000E+00  0.00000000E+00  0.00000000E+00
  0.00000000E+00  0.00000000E+00  0.00000000E+00
  0.00000000E+00  0.00000000E+00  0.00000000E+00
  0.00000000E+00  0.00000000E+00  0.00000000E+00
  0.00000000E+00  0.00000000E+00  0.00000000E+00
  0.00000000E+00  0.00000000E+00  0.00000000E+00
  0.00000000E+00  0.00000000E+00  0.00000000E+00
  0.00000000E+00  0.00000000E+00  0.00000000E+00
  0.00000000E+00  0.00000000E+00  0.00000000E+00
  0.00000000E+00  0.00000000E+00  0.00000000E+00
  0.00000000E+00  0.00000000E+00  0.00000000E+00
  0.00000000E+00  0.00000000E+00  0.00000000E+00
  0.00000000E+00  0.00000000E+00  0.00000000E+00
  0.00000000E+00  0.00000000E+00  0.00000000E+00
  0.00000000E+00  0.00000000E+00  0.00000000E+00
  0.00000000E+00  0.00000000E+00  0.00000000E+00
  0.00000000E+00  0.00000000E+00  0.00000000E+00
  0.00000000E+00  0.00000000E+00  0.00000000E+00
  0.00000000E+00  0.00000000E+00  0.00000000E+00
  0.00000000E+00  0.00000000E+00  0.00000000E+00
  0.00000000E+00  0.00000000E+00  0.00000000E+00
  0.00000000E+00  0.00000000E+00  0.00000000E+00
  0.00000000E+00  0.00000000E+00  0.00000000E+00
  0.00000000E+00  0.00000000E+00  0.00000000E+00
  0.00000000E+00  0.00000000E+00  0.00000000E+00
  0.00000000E+00  0.00000000E+00  0.00000000E+00
  0.00000000E+00  0.00000000E+00  0.00000000E+00
  0.00000000E+00  0.00000000E+00  0.00000000E+00
  0.00000000E+00  0.00000000E+00  0.00000000E+00
  0.00000000E+00  0.00000000E+00  0.00000000E+00
  0.00000000E+00  0.00000000E+00  0.00000000E+00
  0.00000000E+00  0.00000000E+00  0.00000000E+00
  0.00000000E+00  0.00000000E+00  0.00000000E+00
  0.00000000E+00  0.00000000E+00  0.00000000E+00
  0.00000000E+00  0.00000000E+00  0.00000000E+00
  0.00000000E+00  0.00000000E+00  0.00000000E+00
  0.00000000E+00  0.00000000E+00  0.00000000E+00
  0.00000000E+00  0.00000000E+00  0.00000000E+00
  0.00000000E+00  0.00000000E+00  0.00000000E+00
  0.00000000E+00  0.00000000E+00  0.00000000E+00
  0.00000000E+00  0.00000000E+00  0.00000000E+00
  0.00000000E+00  0.00000000E+00  0.00000000E+00
  0.00000000E+00  0.00000000E+00  0.00000000E+00
  0.00000000E+00  0.00000000E+00  0.00000000E+00
  0.00000000E+00  0.00000000E+00  0.00000000E+00
  0.00000000E+00  0.00000000E+00  0.00000000E+00
  0.00000000E+00  0.00000000E+00  0.00000000E+00
  0.00000000E+00  0.00000000E+00  0.00000000E+00
  0.00000000E+00  0.00000000E+00  0.00000000E+00
  0.00000000E+00  0.00000000E+00  0.00000000E+00
  0.00000000E+00  0.00000000E+00  0.00000000E+00
  0.00000000E+00  0.00000000E+00  0.00000000E+00
  0.00000000E+00  0.00000000E+00  0.00000000E+00
  0.00000000E+00  0.00000000E+00  0.00000000E+00
  0.00000000E+00  0.00000000E+00  0.00000000E+00
  0.00000000E+00  0.00000000E+00  0.00000000E+00
  0.00000000E+00  0.00000000E+00  0.00000000E+00
  0.00000000E+00  0.00000000E+00  0.00000000E+00
  0.00000000E+00  0.00000000E+00  0.00000000E+00
  0.00000000E+00  0.00000000E+00  0.00000000E+00
  0.00000000E+00  0.00000000E+00  0.00000000E+00
  0.00000000E+00  0.00000000E+00  0.00000000E+00
  0.00000000E+00  0.00000000E+00  0.00000000E+00
  0.00000000E+00  0.00000000E+00  0.00000000E+00
  0.00000000E+00  0.00000000E+00  0.00000000E+00
  0.00000000E+00  0.00000000E+00  0.00000000E+00
  0.00000000E+00  0.00000000E+00  0.00000000E+00
  0.00000000E+00  0.00000000E+00  0.00000000E+00
  0.00000000E+00  0.00000000E+00  0.00000000E+00
  0.00000000E+00  0.00000000E+00  0.00000000E+00
  0.00000000E+00  0.00000000E+00  0.00000000E+00
  0.00000000E+00  0.00000000E+00  0.00000000E+00
  0.00000000E+00  0.00000000E+00  0.00000000E+00
  0.00000000E+00  0.00000000E+00  0.00000000E+00
  0.00000000E+00  0.00000000E+00  0.00000000E+00
  0.00000000E+00  0.00000000E+00  0.00000000E+00
  0.00000000E+00  0.00000000E+00  0.00000000E+00
  0.00000000E+00  0.00000000E+00  0.00000000E+00
  0.00000000E+00  0.00000000E+00  0.00000000E+00
  0.00000000E+00  0.00000000E+00  0.00000000E+00
  0.00000000E+00  0.00000000E+00  0.00000000E+00
  0.00000000E+00  0.00000000E+00  0.00000000E+00
  0.00000000E+00  0.00000000E+00  0.00000000E+00
  0.00000000E+00  0.00000000E+00  0.00000000E+00
  0.00000000E+00  0.00000000E+00  0.00000000E+00
  0.00000000E+00  0.00000000E+00  0.00000000E+00
  0.00000000E+00  0.00000000E+00  0.00000000E+00
