Ti                                      
    1.000000000000000     
    11.7353373989946537   -0.0008458681539134   -0.0000212121129000
    -5.8684012040394933   10.1626772451470018    0.0000211204489474
    -0.0000336403930960    0.0000193494963905   18.5663375189093109
  Ti            
   128
Direct
     0.9167055157510103    0.0832943336325709    0.9374980335527926
     0.3332942991976746    0.6667049922461019    0.3125008173890479
     0.3332944682908727    0.6667052053278445    0.0624998849723116
     0.3332974027344149    0.4167059062706897    0.8125020713890528
     0.3332973746746626    0.4167058724976515    0.5625022909599271
     0.3332975005217433    0.4167060136025753    0.3125008576886922
     0.3332975782060007    0.4167061173380237    0.0624998932962142
     0.3332945133526206    0.1667053234893327    0.8125021272223458
     0.3332945838968043    0.1667054687093141    0.5625022792523414
     0.3332945935628892    0.1667054743376859    0.3125008695864976
     0.3332946347666219    0.1667053924879628    0.0624998062293174
     0.3332972513673189    0.9167058027756099    0.8125021771289811
     0.3332972178526746    0.9167058278656413    0.5625022941284742
     0.3332971182836539    0.9167056339533919    0.3125008136831117
     0.3332944091191862    0.6667050431814870    0.5625022518352643
     0.3332971584241265    0.9167055905869023    0.0624998337252180
     0.0832942375922390    0.6667025496217007    0.5625022076873307
     0.0832942437226355    0.6667024766524775    0.3125008150651431
     0.0832944165659112    0.6667026801498146    0.0624999293182551
     0.0832945451699685    0.4167058073737553    0.8125020907333438
     0.0832944070491672    0.4167057070613903    0.5625022526679648
     0.0832945094237986    0.4167059894723771    0.3125008802074891
     0.0832945852477351    0.4167060824576181    0.0624998976421709
     0.0832939993442846    0.1667024512549747    0.8125020675694294
     0.0832939637573557    0.1667025458975731    0.5625022922009305
     0.0832940755895532    0.1667025747612338    0.3125009099130565
     0.0832940331609685    0.1667025162861271    0.0624998277233103
     0.0832944060745943    0.9167056411111765    0.8125021672931169
     0.0832943084151135    0.9167056259370320    0.5625022654646273
     0.0832945229923818    0.6667028765413903    0.8125021565159671
     0.0832943038640854    0.9167054783019333    0.3125008402809357
     0.3332945728484857    0.6667053345370093    0.8125021495132125
     0.5832943782216616    0.9167057490703183    0.3125008454337960
     0.8332946852268754    0.6667053611095706    0.3125008456910545
     0.8332946455382023    0.6667054500761951    0.0624999243301980
     0.8332971707690824    0.4167056687094810    0.8125020844522253
     0.8332972312099358    0.4167056942230137    0.5625022202116690
     0.8332974272766519    0.4167059626222905    0.3125008758647291
     0.8332972955200140    0.4167059104874286    0.0624999241666037
     0.8332945071843957    0.1667050511473966    0.8125020750502903
     0.8332947092293762    0.1667052489058880    0.5625022668742864
     0.8332947434704400    0.1667053990874756    0.3125009181778755
     0.8332945085482757    0.1667051969312351    0.0624998048946683
     0.8332975470187757    0.9167060243362958    0.8125021036516117
     0.8332976635095379    0.9167061250169473    0.5625022661194814
     0.8332976796464805    0.9167059509339074    0.3125008859894138
     0.5832943237161429    0.9167056848706501    0.0624998139011008
     0.8332974897788397    0.9167058401479461    0.0624998518477811
     0.5832940364846009    0.6667024804245034    0.5625022707530219
     0.5832939755638398    0.6667023032696537    0.3125008246808683
     0.5832940353493057    0.6667024732080234    0.0624999113519512
     0.5832943396102667    0.4167055545053466    0.8125021003705543
     0.5832943998099882    0.4167055344652418    0.5625022620378163
     0.5832944613411061    0.4167057165174333    0.3125008462247570
     0.5832944924793609    0.4167057264237060    0.0624999058602621
     0.5832942148862201    0.1667025624065537    0.8125021014300473
     0.5832944297479117    0.1667028153841615    0.5625022995674637
     0.5832943755732355    0.1667027981413929    0.3125008676004074
     0.5832943102326861    0.1667026877838032    0.0624998180907096
     0.5832944373642730    0.9167058165537727    0.8125021528072665
     0.5832945959617931    0.9167059018564978    0.5625023102070683
     0.5832940861782409    0.6667026614685000    0.8125020991967077
     0.0832943239795567    0.9167053948336870    0.0624998490842417
     0.6667054833549692    0.8332947752479939    0.6875002862637524
     0.6667055007694356    0.8332946552135772    0.4374989042702714
     0.1667052119479496    0.8332946841422387    0.9374981120384607
     0.1667027983103163    0.5832941102517655    0.6875002253080578
     0.1667026172110418    0.5832941193987369    0.4374988124807573
     0.1667027809705609    0.5832943532482199    0.1874976947848553
     0.1667028654491094    0.5832943684450300    0.9374981718016214
     0.1667053154975889    0.3332945941636403    0.6875002322369455
     0.1667052845325816    0.3332947065957859    0.4374988798368346
     0.1667053935054385    0.3332948693299853    0.1874977198441627
     0.1667053207827006    0.3332946263740027    0.9374980832400042
     0.1667025612099329    0.0832940919143769    0.6875002380916203
     0.1667024690247856    0.0832939944405376    0.4374989217658764
     0.1667025163028154    0.0832938605021551    0.1874976859241878
     0.1667025153764581    0.0832938615871103    0.9374980324284783
     0.1667049822682296    0.8332944099249899    0.1874976741109438
     0.9167060381524675    0.8332975760518531    0.6875002235211998
     0.9167059854168825    0.8332972608989352    0.1874976772511235
     0.9167061045135110    0.8332975520843831    0.9374980976525615
     0.9167057308995695    0.5832944681929036    0.6875001959993713
     0.9167057208555058    0.5832945167145661    0.4374988194666315
     0.9167058389376306    0.5832947032655980    0.1874977007200916
     0.9167058913346985    0.5832947147830656    0.9374981685114393
     0.9167058814141590    0.3332970405389450    0.6875001618448155
     0.9167059245812669    0.3332972480585941    0.4374988807505910
     0.9167060117966221    0.3332974090726462    0.1874977207531212
     0.9167059047893381    0.3332971176344633    0.9374981258680657
     0.9167055782264735    0.0832945202909635    0.6875002188788414
     0.9167055523957318    0.0832944975359759    0.4374989536079978
     0.9167055219970947    0.0832943904135840    0.1874976685290514
     0.9167059608798532    0.8332973766142874    0.4374988989307797
     0.1667049397744571    0.8332944438064687    0.4374988392038547
     0.1667051722983773    0.8332946873680145    0.6875003015732478
     0.4167056535647412    0.0832943536457726    0.9374980570943243
     0.6667053349939676    0.8332945291507738    0.1874976301057677
     0.6667054398692981    0.8332947804243037    0.9374980971779746
     0.6667025236401674    0.5832939088163102    0.6875002068132496
     0.6667026783912002    0.5832939997684154    0.4374988591795077
     0.6667026931068998    0.5832940451183222    0.1874976734990834
     0.6667026299493879    0.5832940492179364    0.9374981480674776
     0.6667050661980144    0.3332945438618417    0.6875002119519269
     0.6667052595626070    0.3332947751207769    0.4374988766726876
     0.6667052269393734    0.3332948366221685    0.1874976895758518
     0.6667050248891546    0.3332944875873041    0.9374981302562380
     0.6667028691562998    0.0832943391460230    0.6875002351500309
     0.6667029289107533    0.0832944184896021    0.4374989271074239
     0.6667027529612765    0.0832942420512800    0.1874976377176681
     0.6667026612972000    0.0832941189494290    0.9374980715119809
     0.4167058847477915    0.8332971322160122    0.6875003048602047
     0.4167057162433727    0.8332970045774541    0.4374988539386431
     0.4167056185325357    0.8332969004442057    0.1874976299157583
     0.4167058088538827    0.8332971680413493    0.9374981202043859
     0.4167054435851494    0.5832943520418008    0.6875002560223739
     0.4167054459198282    0.5832944012458831    0.4374988550314646
     0.4167054765161268    0.5832945679283081    0.1874976521512909
     0.4167054794244743    0.5832945444684157    0.9374981424600872
     0.4167059575973814    0.3332974250671735    0.6875002146745358
     0.4167060364115783    0.3332975299044570    0.4374988989870878
     0.4167061307677882    0.3332975982023804    0.1874976810222773
     0.4167059560087870    0.3332973639467882    0.9374981012456527
     0.4167057781125682    0.0832946210274922    0.6875002912589672
     0.4167057495501315    0.0832946052885324    0.4374988923610493
     0.4167056517550453    0.0832944343920466    0.1874976310792678
     0.8332946653656599    0.6667054459296472    0.5625021717643026
     0.8332946591524911    0.6667056405638413    0.8125021458960547
 
  0.00000000E+00  0.00000000E+00  0.00000000E+00
  0.00000000E+00  0.00000000E+00  0.00000000E+00
  0.00000000E+00  0.00000000E+00  0.00000000E+00
  0.00000000E+00  0.00000000E+00  0.00000000E+00
  0.00000000E+00  0.00000000E+00  0.00000000E+00
  0.00000000E+00  0.00000000E+00  0.00000000E+00
  0.00000000E+00  0.00000000E+00  0.00000000E+00
  0.00000000E+00  0.00000000E+00  0.00000000E+00
  0.00000000E+00  0.00000000E+00  0.00000000E+00
  0.00000000E+00  0.00000000E+00  0.00000000E+00
  0.00000000E+00  0.00000000E+00  0.00000000E+00
  0.00000000E+00  0.00000000E+00  0.00000000E+00
  0.00000000E+00  0.00000000E+00  0.00000000E+00
  0.00000000E+00  0.00000000E+00  0.00000000E+00
  0.00000000E+00  0.00000000E+00  0.00000000E+00
  0.00000000E+00  0.00000000E+00  0.00000000E+00
  0.00000000E+00  0.00000000E+00  0.00000000E+00
  0.00000000E+00  0.00000000E+00  0.00000000E+00
  0.00000000E+00  0.00000000E+00  0.00000000E+00
  0.00000000E+00  0.00000000E+00  0.00000000E+00
  0.00000000E+00  0.00000000E+00  0.00000000E+00
  0.00000000E+00  0.00000000E+00  0.00000000E+00
  0.00000000E+00  0.00000000E+00  0.00000000E+00
  0.00000000E+00  0.00000000E+00  0.00000000E+00
  0.00000000E+00  0.00000000E+00  0.00000000E+00
  0.00000000E+00  0.00000000E+00  0.00000000E+00
  0.00000000E+00  0.00000000E+00  0.00000000E+00
  0.00000000E+00  0.00000000E+00  0.00000000E+00
  0.00000000E+00  0.00000000E+00  0.00000000E+00
  0.00000000E+00  0.00000000E+00  0.00000000E+00
  0.00000000E+00  0.00000000E+00  0.00000000E+00
  0.00000000E+00  0.00000000E+00  0.00000000E+00
  0.00000000E+00  0.00000000E+00  0.00000000E+00
  0.00000000E+00  0.00000000E+00  0.00000000E+00
  0.00000000E+00  0.00000000E+00  0.00000000E+00
  0.00000000E+00  0.00000000E+00  0.00000000E+00
  0.00000000E+00  0.00000000E+00  0.00000000E+00
  0.00000000E+00  0.00000000E+00  0.00000000E+00
  0.00000000E+00  0.00000000E+00  0.00000000E+00
  0.00000000E+00  0.00000000E+00  0.00000000E+00
  0.00000000E+00  0.00000000E+00  0.00000000E+00
  0.00000000E+00  0.00000000E+00  0.00000000E+00
  0.00000000E+00  0.00000000E+00  0.00000000E+00
  0.00000000E+00  0.00000000E+00  0.00000000E+00
  0.00000000E+00  0.00000000E+00  0.00000000E+00
  0.00000000E+00  0.00000000E+00  0.00000000E+00
  0.00000000E+00  0.00000000E+00  0.00000000E+00
  0.00000000E+00  0.00000000E+00  0.00000000E+00
  0.00000000E+00  0.00000000E+00  0.00000000E+00
  0.00000000E+00  0.00000000E+00  0.00000000E+00
  0.00000000E+00  0.00000000E+00  0.00000000E+00
  0.00000000E+00  0.00000000E+00  0.00000000E+00
  0.00000000E+00  0.00000000E+00  0.00000000E+00
  0.00000000E+00  0.00000000E+00  0.00000000E+00
  0.00000000E+00  0.00000000E+00  0.00000000E+00
  0.00000000E+00  0.00000000E+00  0.00000000E+00
  0.00000000E+00  0.00000000E+00  0.00000000E+00
  0.00000000E+00  0.00000000E+00  0.00000000E+00
  0.00000000E+00  0.00000000E+00  0.00000000E+00
  0.00000000E+00  0.00000000E+00  0.00000000E+00
  0.00000000E+00  0.00000000E+00  0.00000000E+00
  0.00000000E+00  0.00000000E+00  0.00000000E+00
  0.00000000E+00  0.00000000E+00  0.00000000E+00
  0.00000000E+00  0.00000000E+00  0.00000000E+00
  0.00000000E+00  0.00000000E+00  0.00000000E+00
  0.00000000E+00  0.00000000E+00  0.00000000E+00
  0.00000000E+00  0.00000000E+00  0.00000000E+00
  0.00000000E+00  0.00000000E+00  0.00000000E+00
  0.00000000E+00  0.00000000E+00  0.00000000E+00
  0.00000000E+00  0.00000000E+00  0.00000000E+00
  0.00000000E+00  0.00000000E+00  0.00000000E+00
  0.00000000E+00  0.00000000E+00  0.00000000E+00
  0.00000000E+00  0.00000000E+00  0.00000000E+00
  0.00000000E+00  0.00000000E+00  0.00000000E+00
  0.00000000E+00  0.00000000E+00  0.00000000E+00
  0.00000000E+00  0.00000000E+00  0.00000000E+00
  0.00000000E+00  0.00000000E+00  0.00000000E+00
  0.00000000E+00  0.00000000E+00  0.00000000E+00
  0.00000000E+00  0.00000000E+00  0.00000000E+00
  0.00000000E+00  0.00000000E+00  0.00000000E+00
  0.00000000E+00  0.00000000E+00  0.00000000E+00
  0.00000000E+00  0.00000000E+00  0.00000000E+00
  0.00000000E+00  0.00000000E+00  0.00000000E+00
  0.00000000E+00  0.00000000E+00  0.00000000E+00
  0.00000000E+00  0.00000000E+00  0.00000000E+00
  0.00000000E+00  0.00000000E+00  0.00000000E+00
  0.00000000E+00  0.00000000E+00  0.00000000E+00
  0.00000000E+00  0.00000000E+00  0.00000000E+00
  0.00000000E+00  0.00000000E+00  0.00000000E+00
  0.00000000E+00  0.00000000E+00  0.00000000E+00
  0.00000000E+00  0.00000000E+00  0.00000000E+00
  0.00000000E+00  0.00000000E+00  0.00000000E+00
  0.00000000E+00  0.00000000E+00  0.00000000E+00
  0.00000000E+00  0.00000000E+00  0.00000000E+00
  0.00000000E+00  0.00000000E+00  0.00000000E+00
  0.00000000E+00  0.00000000E+00  0.00000000E+00
  0.00000000E+00  0.00000000E+00  0.00000000E+00
  0.00000000E+00  0.00000000E+00  0.00000000E+00
  0.00000000E+00  0.00000000E+00  0.00000000E+00
  0.00000000E+00  0.00000000E+00  0.00000000E+00
  0.00000000E+00  0.00000000E+00  0.00000000E+00
  0.00000000E+00  0.00000000E+00  0.00000000E+00
  0.00000000E+00  0.00000000E+00  0.00000000E+00
  0.00000000E+00  0.00000000E+00  0.00000000E+00
  0.00000000E+00  0.00000000E+00  0.00000000E+00
  0.00000000E+00  0.00000000E+00  0.00000000E+00
  0.00000000E+00  0.00000000E+00  0.00000000E+00
  0.00000000E+00  0.00000000E+00  0.00000000E+00
  0.00000000E+00  0.00000000E+00  0.00000000E+00
  0.00000000E+00  0.00000000E+00  0.00000000E+00
  0.00000000E+00  0.00000000E+00  0.00000000E+00
  0.00000000E+00  0.00000000E+00  0.00000000E+00
  0.00000000E+00  0.00000000E+00  0.00000000E+00
  0.00000000E+00  0.00000000E+00  0.00000000E+00
  0.00000000E+00  0.00000000E+00  0.00000000E+00
  0.00000000E+00  0.00000000E+00  0.00000000E+00
  0.00000000E+00  0.00000000E+00  0.00000000E+00
  0.00000000E+00  0.00000000E+00  0.00000000E+00
  0.00000000E+00  0.00000000E+00  0.00000000E+00
  0.00000000E+00  0.00000000E+00  0.00000000E+00
  0.00000000E+00  0.00000000E+00  0.00000000E+00
  0.00000000E+00  0.00000000E+00  0.00000000E+00
  0.00000000E+00  0.00000000E+00  0.00000000E+00
  0.00000000E+00  0.00000000E+00  0.00000000E+00
  0.00000000E+00  0.00000000E+00  0.00000000E+00
  0.00000000E+00  0.00000000E+00  0.00000000E+00
  0.00000000E+00  0.00000000E+00  0.00000000E+00
  0.00000000E+00  0.00000000E+00  0.00000000E+00
