Hf Ta                                   
    1.000000000000000     
    13.4908054613242818   -0.0422834986207111    0.0550699667629669
    -6.8156030777500130    9.5745120656883618   -0.0044258654027525
    -0.0939307714471260    0.0069478019568153   19.1138810066911340
  Hf             Ta           
              32              96
Direct
  0.4388347065871487  0.6340701914651153  0.4354338604669741
  0.1879393376672439  0.8724893220955368  0.1878270688103828
  0.5543623777962583  0.3671694230559617  0.3140194919236258
  0.6932699379636893  0.3669840930178263  0.6787163044300665
  0.6841614459464662  0.6203967140426107  0.6900443758986765
  0.5649912606032786  0.8747206778579079  0.3107945146743086
  0.6896375872602213  0.1150341028818036  0.6901726024167300
  0.5685587162756814  0.3876568261804336  0.0737469707645192
  0.5579291097900638  0.3768131083612195  0.5578060468670069
  0.3131467547868083  0.6306165666853518  0.5761194258463366
  0.5573550643578998  0.1176631665409973  0.0603230795413130
  0.0617808668191113  0.3750765295920656  0.8131078583223396
  0.5606891744350013  0.3784830647832010  0.8060753385082963
  0.3202973696604126  0.8932116748390669  0.5607191857864544
  0.0575217628231075  0.6227211003435854  0.5750901741343641
  0.6841725316020814  0.1188187259348326  0.4383045962519826
  0.8215602843322798  0.3901684427621965  0.0662867396877647
  0.0605134048712796  0.1197656512153682  0.5626932545547100
  0.1840162424224250  0.1294745489661346  0.1848385282662534
  0.6771352611509952  0.3631664560050436  0.9375489192614817
  0.9469092632011118  0.6314548689245048  0.4373919172441573
  0.3122293949390593  0.8761347692601794  0.8140747455970919
  0.0624152105881864  0.3728197138150580  0.5558712731922356
  0.8176392324969669  0.3736527643851380  0.8138269236778373
  0.5674931039664588  0.8822572045360622  0.5596029344246940
  0.1829995942752197  0.6195841259383906  0.4349898404611655
  0.4418236114144682  0.1350261107033491  0.4373232133987686
  0.8131981637923162  0.1243231263965463  0.0616471889130737
  0.8114208180910066  0.6256125550370109  0.3097503603844231
  0.4340548396649486  0.3723951743041692  0.9390314743304690
  0.4469534698828444  0.6235827156241935  0.6949921586684694
  0.3143343469040756  0.1212850696012886  0.0557463819257190
  0.9376495424192058  0.3692794298774734  0.9422273068588529
  0.3144121547376916  0.3781578298027226  0.5623839277945911
  0.3033406009241938  0.1168671976527902  0.3101119982143406
  0.5615855000872446  0.1215331496462191  0.3068266335324433
  0.5732734017074592  0.1424670245330130  0.5706330485429305
  0.9302775024261849  0.3634121881237524  0.4287539951591859
  0.6863743100275596  0.1206934164182324  0.1904352186767128
  0.4251831336910684  0.3800261004448826  0.4368203636693379
  0.3008552040478599  0.1269778904187877  0.5654031673961715
  0.0609076925186937  0.8716827127261032  0.5615243477728896
  0.0611564736875393  0.1260741476936295  0.3131271286938229
  0.8193281666698929  0.6391505973675092  0.0618368118473972
  0.7009706083535848  0.8703045399995037  0.4360762811080965
  0.1873145190825757  0.1210766315320264  0.4339221160746191
  0.3100829844385908  0.8626486117886168  0.0596742139989013
  0.5638317294835311  0.1246556553161509  0.8163990621559895
  0.0609343743279521  0.1199376659806408  0.8129505313314860
  0.1878893698421577  0.3821524243704000  0.1872722607280757
  0.9346560488030228  0.6177065733425576  0.1822207405249135
  0.0587373505639584  0.1271006248411214  0.0593149595629025
  0.5637881613938369  0.6305354779931804  0.8239505019657909
  0.9374230624003950  0.1277558390300819  0.6912825273194528
  0.4306848998304867  0.1176812555137228  0.6875640286830841
  0.8200309827757060  0.1301078628541765  0.3093877590317589
  0.1866264522223864  0.6231997941062660  0.9394898625247463
  0.0609578039975640  0.6314567451942102  0.8177211181646182
  0.9401576876468125  0.3856846319778292  0.6822768115615747
  0.4390561280242121  0.8706966930559128  0.9393447638776820
  0.1825869394637467  0.8735658409205859  0.9407633488444794
  0.6853522344734514  0.6261362213753918  0.1840804058129439
  0.4218815891314264  0.8769128339310249  0.4268764370253975
  0.1874642542230690  0.3610929009441322  0.4312591561118339
  0.8104454896732077  0.8674642202093554  0.5640168897110662
  0.9370974132059372  0.1252272971719575  0.4348157428054548
  0.4272247940156238  0.8623943573308993  0.6862667526720398
  0.0627758839502411  0.8758707218667865  0.8145216452297049
  0.4404394271929467  0.6311583230540855  0.1871572677285827
  0.1847315730631874  0.6223449126899407  0.7012159062677671
  0.6906863724090647  0.6318182873838030  0.9404268672237295
  0.1940755649240271  0.8861482467475823  0.4317347802596826
  0.3106617594204946  0.3781717105033252  0.0663464094112553
  0.9365923800779969  0.8755428134356270  0.9385899718364115
  0.5613917682579783  0.8716379764905461  0.8126985991906908
  0.6845994632650619  0.6216662149440262  0.4379716410794578
  0.6884741428187140  0.8749950310115002  0.9392249975391355
  0.1771563564174722  0.1210395028459741  0.9344004360826496
  0.1798081719064194  0.8718099703234766  0.6873784778086790
  0.0623585105261417  0.6262431079079411  0.3047962596260998
  0.8138684698792712  0.8729495209559933  0.8151112463503936
  0.9375583434313013  0.8792745622972251  0.4376906849844454
  0.8137642153182567  0.8748050146516217  0.0637312225671280
  0.6917932433183126  0.8793914128700999  0.1851300183941191
  0.9412591911597900  0.3719925387317851  0.1892790166593405
  0.9423201323836247  0.1267192854955519  0.9368673858443576
  0.4359049237857569  0.3857796425380334  0.1905528050046974
  0.4159889613366269  0.3528381609996706  0.6851920992641968
  0.8160812088999432  0.6293205794996500  0.5633390377602010
  0.8133746745196136  0.3721239963708257  0.3112053508998464
  0.9379237836544141  0.8765664163283219  0.6882495443351097
  0.0570425094345981  0.8766235415394825  0.0626605803067879
  0.3164895166133627  0.6249432187856229  0.8205234824816600
  0.8103956071826997  0.1088796910893888  0.8166782404714922
  0.3130451353844785  0.8738904035619003  0.3096244775737379
  0.0694614392788694  0.6324127244268561  0.0626046470568138
  0.4447733145927182  0.1379929682200314  0.1897021989288982
  0.0666485232157786  0.3783420711239480  0.3097408801440759
  0.5682162419825889  0.6265856308341700  0.3100837020280082
  0.0617362656668276  0.8785885910387257  0.3138600354941968
  0.5620809518478490  0.6303746567779152  0.0624737390916665
  0.9347418272050971  0.6322940396307978  0.6953791667731841
  0.3059927616240621  0.1268351598108608  0.8111700778229337
  0.9331366924993266  0.8704206862035668  0.1884861026553715
  0.8145234752927828  0.3699542023601742  0.5535253310414175
  0.8193774914038038  0.6348664337141446  0.8194148705214906
  0.6922220033940657  0.3732544631887358  0.1941602790214013
  0.1876798132483643  0.6219667430273327  0.1849802174929076
  0.4364479497842374  0.8778861064565944  0.1845055911147642
  0.7035159075328383  0.8810388324551404  0.6899277619625407
  0.1817119800676026  0.1189663932823194  0.6903597582388018
  0.4256551372496169  0.1037343528158310  0.9273853828023551
  0.3096122647938298  0.3751190492030521  0.8122090885351313
  0.3091315365949278  0.6251237006429751  0.3059663072935998
  0.5672863639882053  0.6281091779405508  0.5580265136615516
  0.0661898057831387  0.3786601616660892  0.0625939618738839
  0.9423439858120676  0.1242600047476456  0.1874916621395686
  0.8128261569832599  0.8795589845586916  0.3096654554236330
  0.3127687634836261  0.3770143413629370  0.3095108557192101
  0.5587861687617168  0.8662214156125024  0.0642375972921973
  0.4374533808998335  0.6282737493925337  0.9410970004769711
  0.9392644890161872  0.6250103071582023  0.9395739737139476
  0.1888795349643121  0.3705288977628173  0.6869784796793234
  0.1914562817937283  0.3770364301656090  0.9401430178170603
  0.6905065672664874  0.1197456386509397  0.9312760111943171
  0.3128542142863914  0.6242702507015216  0.0627406381585281
  0.8212399661697505  0.1182187487300746  0.5634961953597949
  0.7020354942984868  0.3883461607800859  0.4340080789018039
 
  0.00000000E+00  0.00000000E+00  0.00000000E+00
  0.00000000E+00  0.00000000E+00  0.00000000E+00
  0.00000000E+00  0.00000000E+00  0.00000000E+00
  0.00000000E+00  0.00000000E+00  0.00000000E+00
  0.00000000E+00  0.00000000E+00  0.00000000E+00
  0.00000000E+00  0.00000000E+00  0.00000000E+00
  0.00000000E+00  0.00000000E+00  0.00000000E+00
  0.00000000E+00  0.00000000E+00  0.00000000E+00
  0.00000000E+00  0.00000000E+00  0.00000000E+00
  0.00000000E+00  0.00000000E+00  0.00000000E+00
  0.00000000E+00  0.00000000E+00  0.00000000E+00
  0.00000000E+00  0.00000000E+00  0.00000000E+00
  0.00000000E+00  0.00000000E+00  0.00000000E+00
  0.00000000E+00  0.00000000E+00  0.00000000E+00
  0.00000000E+00  0.00000000E+00  0.00000000E+00
  0.00000000E+00  0.00000000E+00  0.00000000E+00
  0.00000000E+00  0.00000000E+00  0.00000000E+00
  0.00000000E+00  0.00000000E+00  0.00000000E+00
  0.00000000E+00  0.00000000E+00  0.00000000E+00
  0.00000000E+00  0.00000000E+00  0.00000000E+00
  0.00000000E+00  0.00000000E+00  0.00000000E+00
  0.00000000E+00  0.00000000E+00  0.00000000E+00
  0.00000000E+00  0.00000000E+00  0.00000000E+00
  0.00000000E+00  0.00000000E+00  0.00000000E+00
  0.00000000E+00  0.00000000E+00  0.00000000E+00
  0.00000000E+00  0.00000000E+00  0.00000000E+00
  0.00000000E+00  0.00000000E+00  0.00000000E+00
  0.00000000E+00  0.00000000E+00  0.00000000E+00
  0.00000000E+00  0.00000000E+00  0.00000000E+00
  0.00000000E+00  0.00000000E+00  0.00000000E+00
  0.00000000E+00  0.00000000E+00  0.00000000E+00
  0.00000000E+00  0.00000000E+00  0.00000000E+00
  0.00000000E+00  0.00000000E+00  0.00000000E+00
  0.00000000E+00  0.00000000E+00  0.00000000E+00
  0.00000000E+00  0.00000000E+00  0.00000000E+00
  0.00000000E+00  0.00000000E+00  0.00000000E+00
  0.00000000E+00  0.00000000E+00  0.00000000E+00
  0.00000000E+00  0.00000000E+00  0.00000000E+00
  0.00000000E+00  0.00000000E+00  0.00000000E+00
  0.00000000E+00  0.00000000E+00  0.00000000E+00
  0.00000000E+00  0.00000000E+00  0.00000000E+00
  0.00000000E+00  0.00000000E+00  0.00000000E+00
  0.00000000E+00  0.00000000E+00  0.00000000E+00
  0.00000000E+00  0.00000000E+00  0.00000000E+00
  0.00000000E+00  0.00000000E+00  0.00000000E+00
  0.00000000E+00  0.00000000E+00  0.00000000E+00
  0.00000000E+00  0.00000000E+00  0.00000000E+00
  0.00000000E+00  0.00000000E+00  0.00000000E+00
  0.00000000E+00  0.00000000E+00  0.00000000E+00
  0.00000000E+00  0.00000000E+00  0.00000000E+00
  0.00000000E+00  0.00000000E+00  0.00000000E+00
  0.00000000E+00  0.00000000E+00  0.00000000E+00
  0.00000000E+00  0.00000000E+00  0.00000000E+00
  0.00000000E+00  0.00000000E+00  0.00000000E+00
  0.00000000E+00  0.00000000E+00  0.00000000E+00
  0.00000000E+00  0.00000000E+00  0.00000000E+00
  0.00000000E+00  0.00000000E+00  0.00000000E+00
  0.00000000E+00  0.00000000E+00  0.00000000E+00
  0.00000000E+00  0.00000000E+00  0.00000000E+00
  0.00000000E+00  0.00000000E+00  0.00000000E+00
  0.00000000E+00  0.00000000E+00  0.00000000E+00
  0.00000000E+00  0.00000000E+00  0.00000000E+00
  0.00000000E+00  0.00000000E+00  0.00000000E+00
  0.00000000E+00  0.00000000E+00  0.00000000E+00
  0.00000000E+00  0.00000000E+00  0.00000000E+00
  0.00000000E+00  0.00000000E+00  0.00000000E+00
  0.00000000E+00  0.00000000E+00  0.00000000E+00
  0.00000000E+00  0.00000000E+00  0.00000000E+00
  0.00000000E+00  0.00000000E+00  0.00000000E+00
  0.00000000E+00  0.00000000E+00  0.00000000E+00
  0.00000000E+00  0.00000000E+00  0.00000000E+00
  0.00000000E+00  0.00000000E+00  0.00000000E+00
  0.00000000E+00  0.00000000E+00  0.00000000E+00
  0.00000000E+00  0.00000000E+00  0.00000000E+00
  0.00000000E+00  0.00000000E+00  0.00000000E+00
  0.00000000E+00  0.00000000E+00  0.00000000E+00
  0.00000000E+00  0.00000000E+00  0.00000000E+00
  0.00000000E+00  0.00000000E+00  0.00000000E+00
  0.00000000E+00  0.00000000E+00  0.00000000E+00
  0.00000000E+00  0.00000000E+00  0.00000000E+00
  0.00000000E+00  0.00000000E+00  0.00000000E+00
  0.00000000E+00  0.00000000E+00  0.00000000E+00
  0.00000000E+00  0.00000000E+00  0.00000000E+00
  0.00000000E+00  0.00000000E+00  0.00000000E+00
  0.00000000E+00  0.00000000E+00  0.00000000E+00
  0.00000000E+00  0.00000000E+00  0.00000000E+00
  0.00000000E+00  0.00000000E+00  0.00000000E+00
  0.00000000E+00  0.00000000E+00  0.00000000E+00
  0.00000000E+00  0.00000000E+00  0.00000000E+00
  0.00000000E+00  0.00000000E+00  0.00000000E+00
  0.00000000E+00  0.00000000E+00  0.00000000E+00
  0.00000000E+00  0.00000000E+00  0.00000000E+00
  0.00000000E+00  0.00000000E+00  0.00000000E+00
  0.00000000E+00  0.00000000E+00  0.00000000E+00
  0.00000000E+00  0.00000000E+00  0.00000000E+00
  0.00000000E+00  0.00000000E+00  0.00000000E+00
  0.00000000E+00  0.00000000E+00  0.00000000E+00
  0.00000000E+00  0.00000000E+00  0.00000000E+00
  0.00000000E+00  0.00000000E+00  0.00000000E+00
  0.00000000E+00  0.00000000E+00  0.00000000E+00
  0.00000000E+00  0.00000000E+00  0.00000000E+00
  0.00000000E+00  0.00000000E+00  0.00000000E+00
  0.00000000E+00  0.00000000E+00  0.00000000E+00
  0.00000000E+00  0.00000000E+00  0.00000000E+00
  0.00000000E+00  0.00000000E+00  0.00000000E+00
  0.00000000E+00  0.00000000E+00  0.00000000E+00
  0.00000000E+00  0.00000000E+00  0.00000000E+00
  0.00000000E+00  0.00000000E+00  0.00000000E+00
  0.00000000E+00  0.00000000E+00  0.00000000E+00
  0.00000000E+00  0.00000000E+00  0.00000000E+00
  0.00000000E+00  0.00000000E+00  0.00000000E+00
  0.00000000E+00  0.00000000E+00  0.00000000E+00
  0.00000000E+00  0.00000000E+00  0.00000000E+00
  0.00000000E+00  0.00000000E+00  0.00000000E+00
  0.00000000E+00  0.00000000E+00  0.00000000E+00
  0.00000000E+00  0.00000000E+00  0.00000000E+00
  0.00000000E+00  0.00000000E+00  0.00000000E+00
  0.00000000E+00  0.00000000E+00  0.00000000E+00
  0.00000000E+00  0.00000000E+00  0.00000000E+00
  0.00000000E+00  0.00000000E+00  0.00000000E+00
  0.00000000E+00  0.00000000E+00  0.00000000E+00
  0.00000000E+00  0.00000000E+00  0.00000000E+00
  0.00000000E+00  0.00000000E+00  0.00000000E+00
  0.00000000E+00  0.00000000E+00  0.00000000E+00
  0.00000000E+00  0.00000000E+00  0.00000000E+00
  0.00000000E+00  0.00000000E+00  0.00000000E+00
  0.00000000E+00  0.00000000E+00  0.00000000E+00
  0.00000000E+00  0.00000000E+00  0.00000000E+00
