Hf Ta                                   
    1.000000000000000     
    13.5259713096489360   -0.1157477327234616    0.0282190714727281
    -6.7677270123502948    9.6281906371141588    0.0218372240028814
    -0.0846168694357590    0.0357400950193932   19.1395410579078060
  Hf             Ta           
              36              92
Direct
  0.6902101488212742  0.6240726093188533  0.4400127986779355
  0.9533304285380918  0.8873191649739969  0.4325177247623876
  0.8095527571757272  0.1176628923817020  0.3101685853382551
  0.9342837276201620  0.3677451536997065  0.6903980418842820
  0.6858625426233536  0.6277710189042379  0.1852000148322705
  0.5642744375584299  0.1259705823440462  0.8124472925729233
  0.0596858702157535  0.8750360422144308  0.0587970674031360
  0.1864925850709738  0.8715620960190414  0.6867980544249866
  0.3238120239164667  0.1336949196700972  0.0648573634465001
  0.3123073123748823  0.3746475943952254  0.8086650069762906
  0.1850953413172984  0.6213028988055674  0.4380207480817666
  0.8022033224671963  0.8663804366335582  0.8051848989110961
  0.8195256895932757  0.3772776870918323  0.3142669410827182
  0.4381274045617555  0.1270791997969211  0.4377346668684151
  0.4478293900714213  0.8894222760854741  0.9408548296523076
  0.5566883447026217  0.6231314511865796  0.5657393532358432
  0.0532707690604461  0.1264948301104015  0.8095861851046916
  0.4440749765578876  0.3874274107126826  0.9413288453827268
  0.1784932081673578  0.8699621082330792  0.4365481386122012
  0.8151803690878089  0.8756826399268619  0.5628549768533182
  0.0682129094750990  0.3948709461338291  0.3108629267214417
  0.1838515848297811  0.1159073275784672  0.9355155610118497
  0.3229499482535551  0.3804696150030566  0.3073578772591793
  0.5592325706929557  0.1239586114413483  0.0610967193662854
  0.0583619684996281  0.1208197893125813  0.3134062461241707
  0.5527207699913079  0.8547559272419951  0.8078278731409919
  0.8218640904473817  0.6317650957066401  0.3108264776194674
  0.9181273178070618  0.1224201966000711  0.4480974484289924
  0.1873275522642789  0.6254572488434946  0.9369841960627671
  0.8124106562871596  0.6210334400479228  0.8144004378709448
  0.1903473820993254  0.3631964544238386  0.4402677674944844
  0.0731800944920403  0.1272251698989325  0.5617626834181062
  0.6882184147563501  0.8794287042025539  0.9429760270776096
  0.8172381478398534  0.1327079261184587  0.8135266864780203
  0.4404623167691276  0.6269004814925483  0.1860245453644741
  0.1946049446675059  0.8745744154709553  0.1854994644469248
  0.8048623134750973  0.1290702335794136  0.5694689199734948
  0.0594173895593113  0.6222802696957253  0.5660080657609549
  0.8083152867738771  0.6145196141894791  0.5676750416728931
  0.4362042157551485  0.3639135914971307  0.1819851631229048
  0.8121398318803533  0.1261866743644210  0.0641777695570466
  0.9245170187606341  0.1037320333380484  0.6830598295914039
  0.2156158968760661  0.1344319337017192  0.4351523367121798
  0.3028624990743459  0.8573380587470891  0.0597182012584865
  0.3148684246457272  0.3722713276708173  0.5678772045295346
  0.8074470752211800  0.3744110367607554  0.5650772623387776
  0.5763838017263103  0.3924873169571433  0.0666163176219822
  0.8020079344429182  0.8647947350326056  0.3074424534884330
  0.0732488920700562  0.8863405140325253  0.3034494319814482
  0.4409924755467282  0.8732637515157819  0.4379520506286439
  0.4296385099972217  0.8710350751453716  0.6846707067597910
  0.9394481611291967  0.3782712965432411  0.9394183536951313
  0.4406270632535931  0.1281889359954676  0.6832475538815266
  0.3106874798500513  0.1135659738209358  0.8061838511717480
  0.6889713040092926  0.1292148816310227  0.1867146135123355
  0.6940426867570119  0.8878743623586881  0.1888210863276650
  0.6943911838753485  0.6306071694380225  0.9401688956959374
  0.9292330240494938  0.8715559064586531  0.9361026297597815
  0.9421221487703467  0.1328566166400695  0.9447801713259129
  0.9305228180357920  0.6145290364703254  0.4420230691581510
  0.3111668321826572  0.3821620702731149  0.0652956699082646
  0.1940670300500945  0.1320201808898936  0.6888774062081384
  0.7088009193517067  0.1536929861745404  0.9413409598890795
  0.4313429718017632  0.6242161012351195  0.9337172622024972
  0.4508285027846084  0.1342678847095541  0.1933456753863653
  0.3132851295990455  0.8688922541441335  0.5612307965083103
  0.0671207884855316  0.6445774184128404  0.3088295019830310
  0.9391990108811608  0.3763219554648354  0.1831778864225548
  0.6876664403535995  0.3795430364290671  0.9381244889608058
  0.5624467183167856  0.8693577804034124  0.0719611887313891
  0.1870377526894045  0.3729162734022227  0.9396517195231731
  0.0493699921220687  0.8589427332490454  0.5649631258850778
  0.9361537128914441  0.6223697061532072  0.1840255870163235
  0.6856263578733501  0.3710373398223395  0.6899195484939408
  0.4391418297508178  0.3832301822424240  0.4413327990720107
  0.4366604099097450  0.6279397231765266  0.4364314562275754
  0.5562313666357802  0.8759206726856454  0.5623884565214673
  0.1790145078239335  0.3692133961915364  0.6855731797184789
  0.9324994474592634  0.6196779826361511  0.6855818916849714
  0.5663496035778520  0.1245962483950287  0.3119568645807744
  0.3091544154692428  0.1198130893128325  0.5656347227856129
  0.1876675390134141  0.1305422913428800  0.1874658410164295
  0.5590191704031952  0.1205190332149830  0.5645738812515911
  0.0634462070821709  0.1328446753144948  0.0642653126456612
  0.5609198470943384  0.6106769670975267  0.8140375365596534
  0.6861839076249105  0.1267988783970969  0.4405460245936833
  0.0591307713770758  0.6258552530464974  0.8089363652042517
  0.4255447371849820  0.1280029229390468  0.9288120181925897
  0.5659177950593491  0.6335584191999827  0.3169281725050714
  0.6906356704203749  0.3761749526217555  0.1871412590213209
  0.3134863150161504  0.6224259409417217  0.5643882509570577
  0.9434076921751957  0.8722757531212547  0.6883921697067641
  0.6760826929008186  0.1128261725716696  0.6839110142964347
  0.8159181556687892  0.3792373653453570  0.0623699870362401
  0.0609473534951546  0.3771649816970852  0.5615837434543457
  0.5596565594409002  0.3716437906653620  0.3117707526223193
  0.1876737977712523  0.6204729811878557  0.6861952757104658
  0.3217571980491643  0.6388379887309943  0.3123209243563369
  0.4287613089019687  0.6181214135990136  0.6904831837053015
  0.1821217525810250  0.3724232964464474  0.1822792230809560
  0.9413212826597992  0.6270585409558999  0.9403244639053051
  0.5547947515129672  0.3679147516983760  0.8101261645933885
  0.4409016646768901  0.3738835611948710  0.6841813023025537
  0.9271960681365450  0.3739248665768803  0.4467524926274110
  0.6859005912785395  0.6204983607901851  0.6895636329538221
  0.3203867402292854  0.8784961723646054  0.3138442321146081
  0.3173024952217601  0.1232548190295289  0.3071534305240544
  0.3049840832185295  0.6209220592152684  0.8088945911510097
  0.0658722729139822  0.8785175353018954  0.8154760830741768
  0.8185907112397165  0.8770204262663870  0.0646240029745258
  0.0614781398242692  0.6218729768783273  0.0656019740023104
  0.8154119132337888  0.3793453404376477  0.8188784405709428
  0.5620205328574113  0.3703884480319156  0.5631576193740470
  0.1910878859882435  0.8737392672050097  0.9347285819062450
  0.5636802138143343  0.6283141676239279  0.0554164165403312
  0.6909264366260268  0.3745602995487851  0.4399563622179107
  0.0626250070647376  0.3764371603511600  0.0615860804144836
  0.6729748489076895  0.8680807886873970  0.4332109465339437
  0.6735974950782639  0.8623535907448393  0.6796370542431344
  0.3068779431060694  0.8666623462897299  0.8135720092865038
  0.8149700003810803  0.6248104037718154  0.0603881396062062
  0.9407438035749259  0.8809289364941431  0.1888117975061520
  0.4371524066504321  0.8787789079232229  0.1875462542847658
  0.1896649361774871  0.6198766449009391  0.1876670603087752
  0.3126843658296876  0.6252934892441359  0.0623850591498079
  0.9375454793779435  0.1266757017241905  0.1825402702026829
  0.5575224846376162  0.8726958735461663  0.3110569966250147
  0.0723653283023115  0.3887086107129616  0.8169519658636754
 
  0.00000000E+00  0.00000000E+00  0.00000000E+00
  0.00000000E+00  0.00000000E+00  0.00000000E+00
  0.00000000E+00  0.00000000E+00  0.00000000E+00
  0.00000000E+00  0.00000000E+00  0.00000000E+00
  0.00000000E+00  0.00000000E+00  0.00000000E+00
  0.00000000E+00  0.00000000E+00  0.00000000E+00
  0.00000000E+00  0.00000000E+00  0.00000000E+00
  0.00000000E+00  0.00000000E+00  0.00000000E+00
  0.00000000E+00  0.00000000E+00  0.00000000E+00
  0.00000000E+00  0.00000000E+00  0.00000000E+00
  0.00000000E+00  0.00000000E+00  0.00000000E+00
  0.00000000E+00  0.00000000E+00  0.00000000E+00
  0.00000000E+00  0.00000000E+00  0.00000000E+00
  0.00000000E+00  0.00000000E+00  0.00000000E+00
  0.00000000E+00  0.00000000E+00  0.00000000E+00
  0.00000000E+00  0.00000000E+00  0.00000000E+00
  0.00000000E+00  0.00000000E+00  0.00000000E+00
  0.00000000E+00  0.00000000E+00  0.00000000E+00
  0.00000000E+00  0.00000000E+00  0.00000000E+00
  0.00000000E+00  0.00000000E+00  0.00000000E+00
  0.00000000E+00  0.00000000E+00  0.00000000E+00
  0.00000000E+00  0.00000000E+00  0.00000000E+00
  0.00000000E+00  0.00000000E+00  0.00000000E+00
  0.00000000E+00  0.00000000E+00  0.00000000E+00
  0.00000000E+00  0.00000000E+00  0.00000000E+00
  0.00000000E+00  0.00000000E+00  0.00000000E+00
  0.00000000E+00  0.00000000E+00  0.00000000E+00
  0.00000000E+00  0.00000000E+00  0.00000000E+00
  0.00000000E+00  0.00000000E+00  0.00000000E+00
  0.00000000E+00  0.00000000E+00  0.00000000E+00
  0.00000000E+00  0.00000000E+00  0.00000000E+00
  0.00000000E+00  0.00000000E+00  0.00000000E+00
  0.00000000E+00  0.00000000E+00  0.00000000E+00
  0.00000000E+00  0.00000000E+00  0.00000000E+00
  0.00000000E+00  0.00000000E+00  0.00000000E+00
  0.00000000E+00  0.00000000E+00  0.00000000E+00
  0.00000000E+00  0.00000000E+00  0.00000000E+00
  0.00000000E+00  0.00000000E+00  0.00000000E+00
  0.00000000E+00  0.00000000E+00  0.00000000E+00
  0.00000000E+00  0.00000000E+00  0.00000000E+00
  0.00000000E+00  0.00000000E+00  0.00000000E+00
  0.00000000E+00  0.00000000E+00  0.00000000E+00
  0.00000000E+00  0.00000000E+00  0.00000000E+00
  0.00000000E+00  0.00000000E+00  0.00000000E+00
  0.00000000E+00  0.00000000E+00  0.00000000E+00
  0.00000000E+00  0.00000000E+00  0.00000000E+00
  0.00000000E+00  0.00000000E+00  0.00000000E+00
  0.00000000E+00  0.00000000E+00  0.00000000E+00
  0.00000000E+00  0.00000000E+00  0.00000000E+00
  0.00000000E+00  0.00000000E+00  0.00000000E+00
  0.00000000E+00  0.00000000E+00  0.00000000E+00
  0.00000000E+00  0.00000000E+00  0.00000000E+00
  0.00000000E+00  0.00000000E+00  0.00000000E+00
  0.00000000E+00  0.00000000E+00  0.00000000E+00
  0.00000000E+00  0.00000000E+00  0.00000000E+00
  0.00000000E+00  0.00000000E+00  0.00000000E+00
  0.00000000E+00  0.00000000E+00  0.00000000E+00
  0.00000000E+00  0.00000000E+00  0.00000000E+00
  0.00000000E+00  0.00000000E+00  0.00000000E+00
  0.00000000E+00  0.00000000E+00  0.00000000E+00
  0.00000000E+00  0.00000000E+00  0.00000000E+00
  0.00000000E+00  0.00000000E+00  0.00000000E+00
  0.00000000E+00  0.00000000E+00  0.00000000E+00
  0.00000000E+00  0.00000000E+00  0.00000000E+00
  0.00000000E+00  0.00000000E+00  0.00000000E+00
  0.00000000E+00  0.00000000E+00  0.00000000E+00
  0.00000000E+00  0.00000000E+00  0.00000000E+00
  0.00000000E+00  0.00000000E+00  0.00000000E+00
  0.00000000E+00  0.00000000E+00  0.00000000E+00
  0.00000000E+00  0.00000000E+00  0.00000000E+00
  0.00000000E+00  0.00000000E+00  0.00000000E+00
  0.00000000E+00  0.00000000E+00  0.00000000E+00
  0.00000000E+00  0.00000000E+00  0.00000000E+00
  0.00000000E+00  0.00000000E+00  0.00000000E+00
  0.00000000E+00  0.00000000E+00  0.00000000E+00
  0.00000000E+00  0.00000000E+00  0.00000000E+00
  0.00000000E+00  0.00000000E+00  0.00000000E+00
  0.00000000E+00  0.00000000E+00  0.00000000E+00
  0.00000000E+00  0.00000000E+00  0.00000000E+00
  0.00000000E+00  0.00000000E+00  0.00000000E+00
  0.00000000E+00  0.00000000E+00  0.00000000E+00
  0.00000000E+00  0.00000000E+00  0.00000000E+00
  0.00000000E+00  0.00000000E+00  0.00000000E+00
  0.00000000E+00  0.00000000E+00  0.00000000E+00
  0.00000000E+00  0.00000000E+00  0.00000000E+00
  0.00000000E+00  0.00000000E+00  0.00000000E+00
  0.00000000E+00  0.00000000E+00  0.00000000E+00
  0.00000000E+00  0.00000000E+00  0.00000000E+00
  0.00000000E+00  0.00000000E+00  0.00000000E+00
  0.00000000E+00  0.00000000E+00  0.00000000E+00
  0.00000000E+00  0.00000000E+00  0.00000000E+00
  0.00000000E+00  0.00000000E+00  0.00000000E+00
  0.00000000E+00  0.00000000E+00  0.00000000E+00
  0.00000000E+00  0.00000000E+00  0.00000000E+00
  0.00000000E+00  0.00000000E+00  0.00000000E+00
  0.00000000E+00  0.00000000E+00  0.00000000E+00
  0.00000000E+00  0.00000000E+00  0.00000000E+00
  0.00000000E+00  0.00000000E+00  0.00000000E+00
  0.00000000E+00  0.00000000E+00  0.00000000E+00
  0.00000000E+00  0.00000000E+00  0.00000000E+00
  0.00000000E+00  0.00000000E+00  0.00000000E+00
  0.00000000E+00  0.00000000E+00  0.00000000E+00
  0.00000000E+00  0.00000000E+00  0.00000000E+00
  0.00000000E+00  0.00000000E+00  0.00000000E+00
  0.00000000E+00  0.00000000E+00  0.00000000E+00
  0.00000000E+00  0.00000000E+00  0.00000000E+00
  0.00000000E+00  0.00000000E+00  0.00000000E+00
  0.00000000E+00  0.00000000E+00  0.00000000E+00
  0.00000000E+00  0.00000000E+00  0.00000000E+00
  0.00000000E+00  0.00000000E+00  0.00000000E+00
  0.00000000E+00  0.00000000E+00  0.00000000E+00
  0.00000000E+00  0.00000000E+00  0.00000000E+00
  0.00000000E+00  0.00000000E+00  0.00000000E+00
  0.00000000E+00  0.00000000E+00  0.00000000E+00
  0.00000000E+00  0.00000000E+00  0.00000000E+00
  0.00000000E+00  0.00000000E+00  0.00000000E+00
  0.00000000E+00  0.00000000E+00  0.00000000E+00
  0.00000000E+00  0.00000000E+00  0.00000000E+00
  0.00000000E+00  0.00000000E+00  0.00000000E+00
  0.00000000E+00  0.00000000E+00  0.00000000E+00
  0.00000000E+00  0.00000000E+00  0.00000000E+00
  0.00000000E+00  0.00000000E+00  0.00000000E+00
  0.00000000E+00  0.00000000E+00  0.00000000E+00
  0.00000000E+00  0.00000000E+00  0.00000000E+00
  0.00000000E+00  0.00000000E+00  0.00000000E+00
  0.00000000E+00  0.00000000E+00  0.00000000E+00
  0.00000000E+00  0.00000000E+00  0.00000000E+00
  0.00000000E+00  0.00000000E+00  0.00000000E+00
