Hf Ti                                   
    1.000000000000000     
    12.0709015307436349   -0.0073165731160041    0.0009159970661655
    -6.0417787832764551   10.4699402749608712   -0.0046698293170558
     0.0015004866161731   -0.0078098007919408   19.0539074284450862
  Hf              Ti            
    36    92
Direct
     0.6628443653356677    0.5762291824604375    0.4359007833908525
     0.9175673008969739    0.8346599337420452    0.4389682950942989
     0.8275497397650491    0.1636517206074702    0.3092802394764372
     0.9168426596313366    0.3352195179137040    0.6863060017860327
     0.6653942533015409    0.5807985400640953    0.1895047975704793
     0.5810018404699655    0.1699019183490578    0.8140017265292833
     0.0763098211621493    0.9118629178305152    0.0627370709265495
     0.1664817995800702    0.8309498044220937    0.6865217111422328
     0.3333142908265946    0.1669744075367147    0.0648618929362501
     0.3333822696979384    0.4220147599414797    0.8123878685104502
     0.1664510508145431    0.5852857288795922    0.4390722442850934
     0.8377878469526431    0.9161433844319805    0.8120871386810272
     0.8306134760698264    0.4166629252617566    0.3102475192484302
     0.4219349148155002    0.0863647209127241    0.4397856802266625
     0.4146736361261000    0.8362305084500899    0.9392143340512497
     0.5780982100289711    0.6664344816683658    0.5626005420461578
     0.0848006179936228    0.1716569188674467    0.8080497443067035
     0.4242363535185951    0.3336202022756361    0.9362780463699548
     0.1680509483576144    0.8330809633804533    0.4377980089210685
     0.8269087597802059    0.9156826639925503    0.5656123754539579
     0.0857438053707920    0.4190713580126585    0.3078613309403156
     0.1633908570704279    0.0824532073868973    0.9351895406759936
     0.3443476005091766    0.4191259027030461    0.3123850741611242
     0.5856593580216269    0.1661953743531996    0.0604312730326753
     0.0852810438372516    0.1611624054323938    0.3095845624443739
     0.5786195933056004    0.9149261129317519    0.8097995706420021
     0.8441753000975279    0.6719188004077503    0.3107138284343241
     0.9122362232390758    0.0834194722519364    0.4379071180495463
     0.1641819662435696    0.5781471496887186    0.9383579990726287
     0.8343875491514224    0.6644527215609031    0.8112313422388296
     0.1704628723423594    0.3352448453043776    0.4396603033543332
     0.0862267512769005    0.1685614140381689    0.5675905298580856
     0.6680084505930020    0.8312410891195446    0.9403590049039675
     0.8328963225937563    0.1696406390236908    0.8150096249575173
     0.4145860455811131    0.5876831704904518    0.1858014039112077
     0.1679888125420430    0.8325622316115592    0.1890705079645847
     0.8282286766308484    0.1691206829198775    0.5623256431816024
     0.0762104304553056    0.6605814325932956    0.5647301795181019
     0.8365378448935636    0.6615920721583957    0.5660606602342531
     0.4178505268288092    0.3293248548468085    0.1874408430140620
     0.8325222536927702    0.1621795659555594    0.0635236263495174
     0.9085334198295228    0.0821890718297904    0.6870282474380284
     0.1725495620871433    0.0849460722569933    0.4394117568730745
     0.3325469829551756    0.9136651105235049    0.0637493112947523
     0.3375170812698758    0.4219100216469003    0.5648146826533574
     0.8305717930653964    0.4194903798009870    0.5627844480969119
     0.5887260030167134    0.4235158361278066    0.0626160499818951
     0.8264845996605320    0.9129725026452411    0.3091412327409343
     0.0892819692156991    0.9241992651235819    0.3119020355765187
     0.4223761179297083    0.8334554326697082    0.4380482381616559
     0.4163787815636116    0.8326988455925506    0.6848279126089876
     0.9134212686993449    0.3326211033728957    0.9424380772589549
     0.4199442543481711    0.0841989275363328    0.6849216084276378
     0.3341288580492781    0.1620287431756285    0.8079217552446035
     0.6635635652918603    0.0802949794457078    0.1866061736477155
     0.6695699876792031    0.8386193540599194    0.1870560214347407
     0.6669431845015367    0.5812474837408488    0.9378650574879975
     0.9156128188986620    0.8272466176613310    0.9387564453933733
     0.9188066374701468    0.0862244661492095    0.9419792919468227
     0.9157527590158866    0.5794589052770752    0.4402802554609855
     0.3308447956228898    0.4176983198357799    0.0614463540146564
     0.1696126728656643    0.0798304137982670    0.6876003762688815
     0.6716447610721562    0.0836967526744455    0.9402471759535936
     0.4174638832314325    0.5845078878252236    0.9394730579688730
     0.4190846231273034    0.0811029816683079    0.1891099341981216
     0.3384516959603601    0.9145310917910271    0.5637115060677287
     0.0853394061649837    0.6662748214483986    0.3105956142704832
     0.9141306596703446    0.3301558445459353    0.1821562553778774
     0.6766054644184194    0.3446682029941466    0.9377695054253091
     0.5850167308612951    0.9150267030669191    0.0659002912337650
     0.1593920152859352    0.3306891817371462    0.9403920123054981
     0.0898511473364135    0.9204596790341117    0.5640674182769042
     0.9213295072191805    0.5832089965385829    0.1832294369963786
     0.6670799438288717    0.3376000885358149    0.6870371085683440
     0.4183416617776319    0.3303642227294512    0.4409738872094933
     0.4176366499385455    0.5897145371781100    0.4368566476626449
     0.5802889506751616    0.9196587922980822    0.5622022222924479
     0.1734326863286864    0.3447762360431188    0.6865068068677926
     0.9144620887193781    0.5794950243696267    0.6872889403449836
     0.5805201803065353    0.1640194853735191    0.3104136399041957
     0.3338489142034511    0.1664282930577466    0.5653917429007645
     0.1659525984169467    0.0835622128507034    0.1869527655939751
     0.5889912968562725    0.1717152416448914    0.5650298962364798
     0.0801330186259841    0.1695465123053394    0.0636621596948187
     0.5801033200627406    0.6620882809396814    0.8119749867433048
     0.6634219813469991    0.0836530483143840    0.4389808629704501
     0.0838029462530340    0.6643653664977390    0.8124757950950456
     0.4081423448463586    0.0766522025429298    0.9363767671976334
     0.5838957904035197    0.6788023354521541    0.3123997857529980
     0.6635134785351079    0.3287240057394178    0.1857406453077664
     0.3306576097146161    0.6675282487361204    0.5645890017747740
     0.9208769525543505    0.8358383085327881    0.6854867151393206
     0.6645134232996842    0.0816355150497789    0.6838084133436695
     0.8359540028131033    0.4205852901852097    0.0626066122318206
     0.0841535703866469    0.4199763957107512    0.5640569590207168
     0.5763608903360049    0.4002715887149930    0.3128022804112711
     0.1687099201957543    0.5831233648653404    0.6874844139007569
     0.3347022220926408    0.6762868329398620    0.3121179845827739
     0.4172561059819070    0.5865873813010056    0.6881411520470055
     0.1662227614797146    0.3289033164451389    0.1830736056541239
     0.9169024230018102    0.5837161076928260    0.9398053014107070
     0.5872917988794025    0.4200358585923626    0.8092400791295828
     0.4153525548314793    0.3315551643914111    0.6861177968149733
     0.9121962568003149    0.3339290041346010    0.4409343441718473
     0.6624844571684314    0.5819674800787622    0.6861824078666457
     0.3414525241678916    0.9182909963278175    0.3125278741834386
     0.3334801703703774    0.1612882666480281    0.3114606025721793
     0.3315393775310679    0.6687002479424318    0.8092806952048345
     0.0839320934987724    0.9116600488715236    0.8116651343798826
     0.8330154301085306    0.9159582539090400    0.0639080440026233
     0.0822848546794090    0.6637795400764789    0.0616544476801476
     0.8385359280381535    0.4221282481633027    0.8151482501459678
     0.5818131152064223    0.4098412969776056    0.5644753176491911
     0.1628556295452675    0.8296735055707495    0.9367462304423159
     0.5838724832895279    0.6644939935134624    0.0621240661097010
     0.6679705761857534    0.3297119084253390    0.4397221431884435
     0.0830600806140348    0.4136737193445980    0.0642508015377396
     0.6622038030173033    0.8369082993877414    0.4349100504527274
     0.6615258248291130    0.8278418411874942    0.6881344837366674
     0.3274102387107213    0.9159859515185748    0.8115776362358766
     0.8296051002438517    0.6656444238895299    0.0616382369987536
     0.9155447312234996    0.8388724135243020    0.1877620497033469
     0.4193919484033090    0.8371552057870010    0.1877034058411654
     0.1651974076229371    0.5848399748289148    0.1834537093241392
     0.3342660167618749    0.6680517317878596    0.0629265566259885
     0.9153025973308448    0.0805050163275675    0.1836715399835832
     0.5796257932460449    0.9157960831612268    0.3120002852945122
     0.0836488759285632    0.4212304382123411    0.8124491828843452
 
  0.00000000E+00  0.00000000E+00  0.00000000E+00
  0.00000000E+00  0.00000000E+00  0.00000000E+00
  0.00000000E+00  0.00000000E+00  0.00000000E+00
  0.00000000E+00  0.00000000E+00  0.00000000E+00
  0.00000000E+00  0.00000000E+00  0.00000000E+00
  0.00000000E+00  0.00000000E+00  0.00000000E+00
  0.00000000E+00  0.00000000E+00  0.00000000E+00
  0.00000000E+00  0.00000000E+00  0.00000000E+00
  0.00000000E+00  0.00000000E+00  0.00000000E+00
  0.00000000E+00  0.00000000E+00  0.00000000E+00
  0.00000000E+00  0.00000000E+00  0.00000000E+00
  0.00000000E+00  0.00000000E+00  0.00000000E+00
  0.00000000E+00  0.00000000E+00  0.00000000E+00
  0.00000000E+00  0.00000000E+00  0.00000000E+00
  0.00000000E+00  0.00000000E+00  0.00000000E+00
  0.00000000E+00  0.00000000E+00  0.00000000E+00
  0.00000000E+00  0.00000000E+00  0.00000000E+00
  0.00000000E+00  0.00000000E+00  0.00000000E+00
  0.00000000E+00  0.00000000E+00  0.00000000E+00
  0.00000000E+00  0.00000000E+00  0.00000000E+00
  0.00000000E+00  0.00000000E+00  0.00000000E+00
  0.00000000E+00  0.00000000E+00  0.00000000E+00
  0.00000000E+00  0.00000000E+00  0.00000000E+00
  0.00000000E+00  0.00000000E+00  0.00000000E+00
  0.00000000E+00  0.00000000E+00  0.00000000E+00
  0.00000000E+00  0.00000000E+00  0.00000000E+00
  0.00000000E+00  0.00000000E+00  0.00000000E+00
  0.00000000E+00  0.00000000E+00  0.00000000E+00
  0.00000000E+00  0.00000000E+00  0.00000000E+00
  0.00000000E+00  0.00000000E+00  0.00000000E+00
  0.00000000E+00  0.00000000E+00  0.00000000E+00
  0.00000000E+00  0.00000000E+00  0.00000000E+00
  0.00000000E+00  0.00000000E+00  0.00000000E+00
  0.00000000E+00  0.00000000E+00  0.00000000E+00
  0.00000000E+00  0.00000000E+00  0.00000000E+00
  0.00000000E+00  0.00000000E+00  0.00000000E+00
  0.00000000E+00  0.00000000E+00  0.00000000E+00
  0.00000000E+00  0.00000000E+00  0.00000000E+00
  0.00000000E+00  0.00000000E+00  0.00000000E+00
  0.00000000E+00  0.00000000E+00  0.00000000E+00
  0.00000000E+00  0.00000000E+00  0.00000000E+00
  0.00000000E+00  0.00000000E+00  0.00000000E+00
  0.00000000E+00  0.00000000E+00  0.00000000E+00
  0.00000000E+00  0.00000000E+00  0.00000000E+00
  0.00000000E+00  0.00000000E+00  0.00000000E+00
  0.00000000E+00  0.00000000E+00  0.00000000E+00
  0.00000000E+00  0.00000000E+00  0.00000000E+00
  0.00000000E+00  0.00000000E+00  0.00000000E+00
  0.00000000E+00  0.00000000E+00  0.00000000E+00
  0.00000000E+00  0.00000000E+00  0.00000000E+00
  0.00000000E+00  0.00000000E+00  0.00000000E+00
  0.00000000E+00  0.00000000E+00  0.00000000E+00
  0.00000000E+00  0.00000000E+00  0.00000000E+00
  0.00000000E+00  0.00000000E+00  0.00000000E+00
  0.00000000E+00  0.00000000E+00  0.00000000E+00
  0.00000000E+00  0.00000000E+00  0.00000000E+00
  0.00000000E+00  0.00000000E+00  0.00000000E+00
  0.00000000E+00  0.00000000E+00  0.00000000E+00
  0.00000000E+00  0.00000000E+00  0.00000000E+00
  0.00000000E+00  0.00000000E+00  0.00000000E+00
  0.00000000E+00  0.00000000E+00  0.00000000E+00
  0.00000000E+00  0.00000000E+00  0.00000000E+00
  0.00000000E+00  0.00000000E+00  0.00000000E+00
  0.00000000E+00  0.00000000E+00  0.00000000E+00
  0.00000000E+00  0.00000000E+00  0.00000000E+00
  0.00000000E+00  0.00000000E+00  0.00000000E+00
  0.00000000E+00  0.00000000E+00  0.00000000E+00
  0.00000000E+00  0.00000000E+00  0.00000000E+00
  0.00000000E+00  0.00000000E+00  0.00000000E+00
  0.00000000E+00  0.00000000E+00  0.00000000E+00
  0.00000000E+00  0.00000000E+00  0.00000000E+00
  0.00000000E+00  0.00000000E+00  0.00000000E+00
  0.00000000E+00  0.00000000E+00  0.00000000E+00
  0.00000000E+00  0.00000000E+00  0.00000000E+00
  0.00000000E+00  0.00000000E+00  0.00000000E+00
  0.00000000E+00  0.00000000E+00  0.00000000E+00
  0.00000000E+00  0.00000000E+00  0.00000000E+00
  0.00000000E+00  0.00000000E+00  0.00000000E+00
  0.00000000E+00  0.00000000E+00  0.00000000E+00
  0.00000000E+00  0.00000000E+00  0.00000000E+00
  0.00000000E+00  0.00000000E+00  0.00000000E+00
  0.00000000E+00  0.00000000E+00  0.00000000E+00
  0.00000000E+00  0.00000000E+00  0.00000000E+00
  0.00000000E+00  0.00000000E+00  0.00000000E+00
  0.00000000E+00  0.00000000E+00  0.00000000E+00
  0.00000000E+00  0.00000000E+00  0.00000000E+00
  0.00000000E+00  0.00000000E+00  0.00000000E+00
  0.00000000E+00  0.00000000E+00  0.00000000E+00
  0.00000000E+00  0.00000000E+00  0.00000000E+00
  0.00000000E+00  0.00000000E+00  0.00000000E+00
  0.00000000E+00  0.00000000E+00  0.00000000E+00
  0.00000000E+00  0.00000000E+00  0.00000000E+00
  0.00000000E+00  0.00000000E+00  0.00000000E+00
  0.00000000E+00  0.00000000E+00  0.00000000E+00
  0.00000000E+00  0.00000000E+00  0.00000000E+00
  0.00000000E+00  0.00000000E+00  0.00000000E+00
  0.00000000E+00  0.00000000E+00  0.00000000E+00
  0.00000000E+00  0.00000000E+00  0.00000000E+00
  0.00000000E+00  0.00000000E+00  0.00000000E+00
  0.00000000E+00  0.00000000E+00  0.00000000E+00
  0.00000000E+00  0.00000000E+00  0.00000000E+00
  0.00000000E+00  0.00000000E+00  0.00000000E+00
  0.00000000E+00  0.00000000E+00  0.00000000E+00
  0.00000000E+00  0.00000000E+00  0.00000000E+00
  0.00000000E+00  0.00000000E+00  0.00000000E+00
  0.00000000E+00  0.00000000E+00  0.00000000E+00
  0.00000000E+00  0.00000000E+00  0.00000000E+00
  0.00000000E+00  0.00000000E+00  0.00000000E+00
  0.00000000E+00  0.00000000E+00  0.00000000E+00
  0.00000000E+00  0.00000000E+00  0.00000000E+00
  0.00000000E+00  0.00000000E+00  0.00000000E+00
  0.00000000E+00  0.00000000E+00  0.00000000E+00
  0.00000000E+00  0.00000000E+00  0.00000000E+00
  0.00000000E+00  0.00000000E+00  0.00000000E+00
  0.00000000E+00  0.00000000E+00  0.00000000E+00
  0.00000000E+00  0.00000000E+00  0.00000000E+00
  0.00000000E+00  0.00000000E+00  0.00000000E+00
  0.00000000E+00  0.00000000E+00  0.00000000E+00
  0.00000000E+00  0.00000000E+00  0.00000000E+00
  0.00000000E+00  0.00000000E+00  0.00000000E+00
  0.00000000E+00  0.00000000E+00  0.00000000E+00
  0.00000000E+00  0.00000000E+00  0.00000000E+00
  0.00000000E+00  0.00000000E+00  0.00000000E+00
  0.00000000E+00  0.00000000E+00  0.00000000E+00
  0.00000000E+00  0.00000000E+00  0.00000000E+00
  0.00000000E+00  0.00000000E+00  0.00000000E+00
  0.00000000E+00  0.00000000E+00  0.00000000E+00
  0.00000000E+00  0.00000000E+00  0.00000000E+00
