Hf Ta                                   
    1.000000000000000     
    13.4787800351847782    0.0033380783907173    0.0052060662502946
    -6.7472194492811726   10.3594713821097990   -0.0167393481687533
     0.0044898016097740   -0.0254016041054771   19.5944412146639344
  Hf             Ta           
              96              32
Direct
  0.4123019573742779  0.0853972169860223  0.4389456977690824
  0.1819868411261776  0.1033700756447661  0.1903907499823048
  0.4216291039301048  0.3527969661420994  0.9353189043748450
  0.8242688721567032  0.1490030598237127  0.5627587017483002
  0.5739939450225795  0.4105734248559751  0.5648604593792189
  0.1765733827118977  0.0969408855998623  0.4334107806763468
  0.9101983619114916  0.5826016404779757  0.1881402640038053
  0.1778886543252657  0.8494445354943414  0.1873275950896744
  0.8157608236018083  0.6312947465422253  0.8116898183874387
  0.1772020382289969  0.5969064081536356  0.9400304713836078
  0.4270913732344109  0.6039433141231889  0.4316842703778856
  0.0724383904034156  0.6567752020860005  0.8106142204244824
  0.3184186109828704  0.8978232979411049  0.5586655978065530
  0.3152872408526628  0.8831281040404522  0.3210349015274002
  0.8367331902681036  0.1465434799502928  0.8131198230077745
  0.5763636565416906  0.6693862095825761  0.5612454365678060
  0.0707690368702484  0.8905133116472269  0.5606149871534667
  0.3167317658368405  0.6650561199756589  0.8121333235551254
  0.4296409910530097  0.6058473310847055  0.6926993791717316
  0.3383262796248145  0.6665049382344566  0.5594184267012803
  0.0825302401823821  0.1569210775069541  0.0630293701282418
  0.0594795517297837  0.6436032506561836  0.3164241786475209
  0.9258193156814006  0.3527495220168091  0.4316795133111440
  0.5609003840977264  0.1396844217899361  0.3114542962262956
  0.9111772438626019  0.0801673065801535  0.9432528017090394
  0.6699469869074529  0.0961907040349421  0.6915479249777312
  0.9192956360422609  0.5846691115241847  0.9392072884901980
  0.4219844234139725  0.3381051926481061  0.4369341053462995
  0.8036564714683233  0.8757152790740443  0.8114793530685028
  0.1671463612556606  0.3371347365732347  0.9377717685724422
  0.5799198785186198  0.4007043096968695  0.3087255169606578
  0.9233223044437432  0.0844405937912177  0.6864877444529660
  0.3185282241001434  0.4061275043622823  0.8132690248582743
  0.8161373199633816  0.8865306833887301  0.0650088674680894
  0.9328929725507709  0.3379133643141952  0.9447815804113614
  0.5862188907717423  0.6604839528082281  0.3088952821390608
  0.0807318795403261  0.9091197382224925  0.0604486937846312
  0.4217726806354989  0.3501835851241979  0.6924193726282473
  0.9151393603470915  0.8368773096525254  0.4350914391219515
  0.1624568717924190  0.0881816627990943  0.6898894730664354
  0.8310758459656622  0.8963985088931088  0.5646885006623502
  0.3218441687116189  0.1576104664354839  0.0580098735657897
  0.5849207508704207  0.4140266000788759  0.0590276008867254
  0.3503782569954785  0.9215146572095377  0.8142785398885046
  0.3308797323177791  0.9097895778385608  0.0594790751223218
  0.0809814471965213  0.9044313112247091  0.3146374410021381
  0.8094671523417453  0.3876036395449102  0.3066562580795651
  0.0834562085589606  0.1694952710815557  0.3099098635388591
  0.9218392415636374  0.0944879686385715  0.1864450721379728
  0.6739299268808928  0.6097871816387950  0.6841436733710882
  0.8313458463501990  0.9073835224765557  0.3080211887203613
  0.1677854964180409  0.3383918664367819  0.6866627782534261
  0.3285203448655750  0.4129353729809293  0.5595295338525342
  0.0845482068624866  0.4056944972106650  0.5560555086412986
  0.9312157866689958  0.1049756338739622  0.4331860830963060
  0.6742444250542768  0.3508660736889627  0.4392764530829971
  0.5742964708742692  0.8792469912802986  0.8113510197721001
  0.4255966401427537  0.3565722032815423  0.1819854498730028
  0.9309593305622262  0.3391969149790214  0.1911566510857037
  0.6762309740526131  0.6108004116691269  0.9411932637050007
  0.4324204737453567  0.1048045483494333  0.6892392005647133
  0.1773279054814971  0.8541285714660717  0.9322182077017336
  0.3175182879184436  0.1477860920618251  0.8144715681168438
  0.4348314084464571  0.1051946276760706  0.9367446564728242
  0.8183273267447613  0.3879021246149178  0.0650175634954483
  0.5670161535999125  0.6600256369612025  0.0683306001326688
  0.0842383990724435  0.1591953013460361  0.5595465937673288
  0.4287342846519113  0.6085900067676414  0.9333095807231696
  0.1711580558584365  0.5943096029564513  0.6821025038356356
  0.0765025740219642  0.4056987493576693  0.8130779443031926
  0.3244267194850914  0.1565912549562892  0.5644036219109919
  0.9294402767313925  0.8375469072064775  0.1874413255718434
  0.4257600261868962  0.8501338493040979  0.6840529236469702
  0.4214628316606971  0.8557233583333643  0.1916889303899673
  0.1771135269610771  0.8488534236881830  0.6919219997911654
  0.1857469514869136  0.6104414842710110  0.4338839712014417
  0.9275486759388758  0.8403267343212217  0.9356618659197508
  0.6821596607732896  0.3593626352115883  0.6904611448668044
  0.9262095838535727  0.8293570553530308  0.6904643074359210
  0.6703989417998831  0.5944434701078644  0.4379673485301001
  0.6820273824293008  0.1057587502343715  0.1893969335358296
  0.3207444090202138  0.4159525241499852  0.0637309598071989
  0.5794162850761858  0.9109831977787333  0.0665725896774839
  0.1695650632828346  0.5924527894579283  0.1935473572238884
  0.5789147453437407  0.1539142031207279  0.5606135996735173
  0.6786342986085435  0.8556194802886760  0.4341473018585469
  0.9267110428153362  0.3456342060883921  0.6848534346255226
  0.8370566700665778  0.4158151920510025  0.5614792700699145
  0.6775344779026107  0.1098585647734482  0.9383701611417701
  0.5713647930192471  0.1606306509905276  0.0675419240414065
  0.6740915247860951  0.0945018077080502  0.4329942037801207
  0.6831728894712150  0.6060208156990332  0.1846425408165151
  0.8288574802332057  0.3908859414136106  0.8192337694795361
  0.3214963758394211  0.6572511306169581  0.0683164286779121
  0.3340405536376606  0.4031234398008787  0.3113784478930418
  0.0755179134910325  0.6502222039257571  0.0646812225605631
  0.9346130234955424  0.6007994352487609  0.6786369303359923
  0.4363050372442554  0.8550223099829055  0.4402047520985752
  0.5633412464093638  0.8857507651563404  0.3131997750181220
  0.8255326863215748  0.6459786517753284  0.5622873452620352
  0.6693669797072389  0.8570498790544063  0.6774835806232040
  0.1863902135390484  0.3679622520645280  0.1919432725724244
  0.5689161391536015  0.3860728051306306  0.8160206112422677
  0.8375436032694948  0.6553126888723516  0.0625888863737391
  0.0791082071668199  0.3989739856396865  0.3138886908672494
  0.6603825636789339  0.8538521731948189  0.9424458602270434
  0.3360343484521516  0.1456430133048927  0.3105937691712790
  0.0568493948712423  0.1310573619845987  0.8166300616574341
  0.0728791323377247  0.9104823030860492  0.8136053990155812
  0.8328664525514141  0.1541201685157574  0.0644847013227845
  0.4161937451909901  0.1096241001878872  0.1875748843588252
  0.5795748810610704  0.9119282366865372  0.5587788965502026
  0.6684385615638057  0.8502828445803123  0.1909502146389647
  0.0781628362653597  0.6527920126526358  0.5593292874411498
  0.1805394537043742  0.3549865267503649  0.4311475907018952
  0.4257080015512539  0.6127102038682172  0.1932010715291012
  0.1648577557267930  0.0927911992570381  0.9342389127484740
  0.0783604572384890  0.3942056811725659  0.0682178785013215
  0.4364261192347921  0.8525410054050329  0.9385827425029263
  0.8258069679277180  0.6449145587407205  0.3150598064178390
  0.6574406106214888  0.3396181799231577  0.1840636302968793
  0.8238012365539535  0.1482839497638755  0.3124737339971331
  0.1591281952888197  0.8333304286556652  0.4386011449002831
  0.6694451509801823  0.3524798559076048  0.9343429515598185
  0.5730704353740392  0.6192679538939324  0.8132256077444299
  0.5854926176972448  0.1702594722637167  0.8131232041963908
  0.3261894217738278  0.6434642938959655  0.3080933453437542
  0.9275696359886199  0.6088399735627162  0.4438802247463731
 
  0.00000000E+00  0.00000000E+00  0.00000000E+00
  0.00000000E+00  0.00000000E+00  0.00000000E+00
  0.00000000E+00  0.00000000E+00  0.00000000E+00
  0.00000000E+00  0.00000000E+00  0.00000000E+00
  0.00000000E+00  0.00000000E+00  0.00000000E+00
  0.00000000E+00  0.00000000E+00  0.00000000E+00
  0.00000000E+00  0.00000000E+00  0.00000000E+00
  0.00000000E+00  0.00000000E+00  0.00000000E+00
  0.00000000E+00  0.00000000E+00  0.00000000E+00
  0.00000000E+00  0.00000000E+00  0.00000000E+00
  0.00000000E+00  0.00000000E+00  0.00000000E+00
  0.00000000E+00  0.00000000E+00  0.00000000E+00
  0.00000000E+00  0.00000000E+00  0.00000000E+00
  0.00000000E+00  0.00000000E+00  0.00000000E+00
  0.00000000E+00  0.00000000E+00  0.00000000E+00
  0.00000000E+00  0.00000000E+00  0.00000000E+00
  0.00000000E+00  0.00000000E+00  0.00000000E+00
  0.00000000E+00  0.00000000E+00  0.00000000E+00
  0.00000000E+00  0.00000000E+00  0.00000000E+00
  0.00000000E+00  0.00000000E+00  0.00000000E+00
  0.00000000E+00  0.00000000E+00  0.00000000E+00
  0.00000000E+00  0.00000000E+00  0.00000000E+00
  0.00000000E+00  0.00000000E+00  0.00000000E+00
  0.00000000E+00  0.00000000E+00  0.00000000E+00
  0.00000000E+00  0.00000000E+00  0.00000000E+00
  0.00000000E+00  0.00000000E+00  0.00000000E+00
  0.00000000E+00  0.00000000E+00  0.00000000E+00
  0.00000000E+00  0.00000000E+00  0.00000000E+00
  0.00000000E+00  0.00000000E+00  0.00000000E+00
  0.00000000E+00  0.00000000E+00  0.00000000E+00
  0.00000000E+00  0.00000000E+00  0.00000000E+00
  0.00000000E+00  0.00000000E+00  0.00000000E+00
  0.00000000E+00  0.00000000E+00  0.00000000E+00
  0.00000000E+00  0.00000000E+00  0.00000000E+00
  0.00000000E+00  0.00000000E+00  0.00000000E+00
  0.00000000E+00  0.00000000E+00  0.00000000E+00
  0.00000000E+00  0.00000000E+00  0.00000000E+00
  0.00000000E+00  0.00000000E+00  0.00000000E+00
  0.00000000E+00  0.00000000E+00  0.00000000E+00
  0.00000000E+00  0.00000000E+00  0.00000000E+00
  0.00000000E+00  0.00000000E+00  0.00000000E+00
  0.00000000E+00  0.00000000E+00  0.00000000E+00
  0.00000000E+00  0.00000000E+00  0.00000000E+00
  0.00000000E+00  0.00000000E+00  0.00000000E+00
  0.00000000E+00  0.00000000E+00  0.00000000E+00
  0.00000000E+00  0.00000000E+00  0.00000000E+00
  0.00000000E+00  0.00000000E+00  0.00000000E+00
  0.00000000E+00  0.00000000E+00  0.00000000E+00
  0.00000000E+00  0.00000000E+00  0.00000000E+00
  0.00000000E+00  0.00000000E+00  0.00000000E+00
  0.00000000E+00  0.00000000E+00  0.00000000E+00
  0.00000000E+00  0.00000000E+00  0.00000000E+00
  0.00000000E+00  0.00000000E+00  0.00000000E+00
  0.00000000E+00  0.00000000E+00  0.00000000E+00
  0.00000000E+00  0.00000000E+00  0.00000000E+00
  0.00000000E+00  0.00000000E+00  0.00000000E+00
  0.00000000E+00  0.00000000E+00  0.00000000E+00
  0.00000000E+00  0.00000000E+00  0.00000000E+00
  0.00000000E+00  0.00000000E+00  0.00000000E+00
  0.00000000E+00  0.00000000E+00  0.00000000E+00
  0.00000000E+00  0.00000000E+00  0.00000000E+00
  0.00000000E+00  0.00000000E+00  0.00000000E+00
  0.00000000E+00  0.00000000E+00  0.00000000E+00
  0.00000000E+00  0.00000000E+00  0.00000000E+00
  0.00000000E+00  0.00000000E+00  0.00000000E+00
  0.00000000E+00  0.00000000E+00  0.00000000E+00
  0.00000000E+00  0.00000000E+00  0.00000000E+00
  0.00000000E+00  0.00000000E+00  0.00000000E+00
  0.00000000E+00  0.00000000E+00  0.00000000E+00
  0.00000000E+00  0.00000000E+00  0.00000000E+00
  0.00000000E+00  0.00000000E+00  0.00000000E+00
  0.00000000E+00  0.00000000E+00  0.00000000E+00
  0.00000000E+00  0.00000000E+00  0.00000000E+00
  0.00000000E+00  0.00000000E+00  0.00000000E+00
  0.00000000E+00  0.00000000E+00  0.00000000E+00
  0.00000000E+00  0.00000000E+00  0.00000000E+00
  0.00000000E+00  0.00000000E+00  0.00000000E+00
  0.00000000E+00  0.00000000E+00  0.00000000E+00
  0.00000000E+00  0.00000000E+00  0.00000000E+00
  0.00000000E+00  0.00000000E+00  0.00000000E+00
  0.00000000E+00  0.00000000E+00  0.00000000E+00
  0.00000000E+00  0.00000000E+00  0.00000000E+00
  0.00000000E+00  0.00000000E+00  0.00000000E+00
  0.00000000E+00  0.00000000E+00  0.00000000E+00
  0.00000000E+00  0.00000000E+00  0.00000000E+00
  0.00000000E+00  0.00000000E+00  0.00000000E+00
  0.00000000E+00  0.00000000E+00  0.00000000E+00
  0.00000000E+00  0.00000000E+00  0.00000000E+00
  0.00000000E+00  0.00000000E+00  0.00000000E+00
  0.00000000E+00  0.00000000E+00  0.00000000E+00
  0.00000000E+00  0.00000000E+00  0.00000000E+00
  0.00000000E+00  0.00000000E+00  0.00000000E+00
  0.00000000E+00  0.00000000E+00  0.00000000E+00
  0.00000000E+00  0.00000000E+00  0.00000000E+00
  0.00000000E+00  0.00000000E+00  0.00000000E+00
  0.00000000E+00  0.00000000E+00  0.00000000E+00
  0.00000000E+00  0.00000000E+00  0.00000000E+00
  0.00000000E+00  0.00000000E+00  0.00000000E+00
  0.00000000E+00  0.00000000E+00  0.00000000E+00
  0.00000000E+00  0.00000000E+00  0.00000000E+00
  0.00000000E+00  0.00000000E+00  0.00000000E+00
  0.00000000E+00  0.00000000E+00  0.00000000E+00
  0.00000000E+00  0.00000000E+00  0.00000000E+00
  0.00000000E+00  0.00000000E+00  0.00000000E+00
  0.00000000E+00  0.00000000E+00  0.00000000E+00
  0.00000000E+00  0.00000000E+00  0.00000000E+00
  0.00000000E+00  0.00000000E+00  0.00000000E+00
  0.00000000E+00  0.00000000E+00  0.00000000E+00
  0.00000000E+00  0.00000000E+00  0.00000000E+00
  0.00000000E+00  0.00000000E+00  0.00000000E+00
  0.00000000E+00  0.00000000E+00  0.00000000E+00
  0.00000000E+00  0.00000000E+00  0.00000000E+00
  0.00000000E+00  0.00000000E+00  0.00000000E+00
  0.00000000E+00  0.00000000E+00  0.00000000E+00
  0.00000000E+00  0.00000000E+00  0.00000000E+00
  0.00000000E+00  0.00000000E+00  0.00000000E+00
  0.00000000E+00  0.00000000E+00  0.00000000E+00
  0.00000000E+00  0.00000000E+00  0.00000000E+00
  0.00000000E+00  0.00000000E+00  0.00000000E+00
  0.00000000E+00  0.00000000E+00  0.00000000E+00
  0.00000000E+00  0.00000000E+00  0.00000000E+00
  0.00000000E+00  0.00000000E+00  0.00000000E+00
  0.00000000E+00  0.00000000E+00  0.00000000E+00
  0.00000000E+00  0.00000000E+00  0.00000000E+00
  0.00000000E+00  0.00000000E+00  0.00000000E+00
  0.00000000E+00  0.00000000E+00  0.00000000E+00
  0.00000000E+00  0.00000000E+00  0.00000000E+00
  0.00000000E+00  0.00000000E+00  0.00000000E+00
