Nb  V                                   
    1.000000000000000     
    13.1539756685792497   -0.2575351019010623   -0.2501210230537313
    -0.2516458751763119   13.1496802516014828   -0.2554914101403278
    -0.2489167495628390   -0.2600262779111279   13.1526202057230872
   Nb   V 
   120     8
Direct
  0.6234875552332573  0.6268652232713974  0.1252202195823179
  0.7473511368538325  0.7478237191813173 -0.0017757081884808
  0.8729826063439787  0.3761395728688892  0.6233756960318235
 -0.0013491144545010  0.2479296140858671  0.0028145943526362
  0.5025414172996870  0.5044384501865461  0.7511659740427364
 -0.0010166720582145  0.5001521227596901  0.7503034592768784
  0.1265652448802355  0.1233373735106566  0.3730600520087907
  0.6261570186619323  0.3773171800357489  0.3768036708680613
  0.4997678322084285  0.4987603499504659  0.4978912801435805
  0.2503263514919783  0.2503460038652213  0.7496093450423986
  0.1250145992967222  0.8747287174509741  0.6243148521667020
  0.1247246770793506  0.3749896678824340  0.6246172426840814
  0.1256014986879457  0.6253260495081013  0.3752474189170266
  0.6244896386451322  0.8751304932670011  0.1280361747373309
  0.7494572157738004  0.2499270135387384  0.7501102750515619
  0.8741105376970154  0.8745853549958649  0.8759207606830373
  0.3774890805436887  0.6263551412523087  0.3733183343263240
  0.7478386089675741  0.7514825888948173  0.2494884325391507
  0.3791564964258156  0.6272565731536260  0.8735759361104388
  0.2507448814832484  0.5004217169915853  0.7494257005845107
  0.6225995423642563  0.8707473908587706  0.8739198568883093
  0.4999790143111930 -0.0013153377761317  0.2495290012634783
  0.3759400425612200  0.3761994719871277  0.6233157523295698
  0.2502108781415459  0.0000776830258024  0.4977369764987457
  0.2518954038902012  0.7503167859725171  0.7498106974307964
  0.6251740534286206  0.3771937580355502  0.8742827844732534
  0.3757224119919267  0.8752569599921799  0.1275637252284094
  0.7513766801365267  0.0008531693814124  0.0042373267131899
  0.6261741108302117  0.3770768551428197  0.6228318539120485
 -0.0009898631806612  0.4993176301402150  0.5001319211785962
 -0.0001539200907699  0.7514896826203300  0.0009189541765497
  0.7495289454564701 -0.0011058873074390  0.7502338245293936
  0.3755379526121973  0.8752756035705123  0.3718866102182397
  0.1248354500174950  0.1250660553242393  0.6243150646212630
  0.6281632605708669  0.1225995077077264  0.1269408446780382
  0.1265660217273262  0.8769364053383160  0.3728717042410640
  0.8725262239630842  0.6236031413582750  0.3766821999985457
  0.6263900395396693  0.1233701730483665  0.3726699056627277
  0.8733705055982518  0.8739880518341980  0.6244733354863866
  0.1260456647618406  0.6257735012890495  0.1252630543772411
  0.3769520828191030  0.8731264242528185  0.8741340595752100
  0.5005285648457891 -0.0007107295383343  0.0006403553065279
 -0.0003402528504817 -0.0000076549566949  0.4991198414665642
 -0.0004366696383342 -0.0005574384815842  0.7506395809592896
 -0.0004665520172790  0.2498707008505923  0.7506799609384638
  0.5008284197366820  0.2501473784622286  0.0008066312782252
  0.2519971309164631  0.7518867594057672  0.2500753146362949
  0.2513868239480405  0.7504650390868000 -0.0001840153675082
  0.4997399495141083 -0.0002848846843668  0.4991526663992887
 -0.0013130363595161  0.7491735762577110  0.7498313470458883
  0.2524081152646037  0.4990911122712274  0.4982542064346059
  0.5021409649682892  0.5023027093778017 -0.0016790286565690
  0.8724484913727694  0.8784771571749895  0.1268774438842371
 -0.0005082203339690  0.7512009276487555  0.2501376490800588
  0.8740879975673441  0.6253877058391791  0.1255181689557804
  0.4993986738944272  0.5005979019907328  0.2512441640754917
  0.8750897028540712  0.3728548234334780  0.1258312964661281
  0.2523145848383019  0.4985639142200797  0.2521546806465605
  0.2505492322155091  0.7500622822563542  0.4994864894024274
  0.7498121609732633  0.2512422127659880  0.4993123781848583
  0.6234617692961716  0.8734160228068281  0.3713601645096661
  0.3741705023995073  0.1230669639081304  0.1271491608547708
  0.8747867462062907  0.3749530880045124  0.8753898759296225
  0.8730970909921673  0.1228375492867484  0.3707373983779828
  0.7485787240411034  0.7478221048835099  0.5002348409036271
  0.5021943149290825  0.7491468649388616 -0.0017131479806566
 -0.0006996930000512  0.7499534357642184  0.4997611682756450
  0.6247085976011448  0.6252486631719469  0.3750775499518596
  0.1261514527728499  0.3744055398055122  0.3753214142852023
  0.1257110808033938  0.3743226373062777  0.1254607523733128
  0.2498276747229145 -0.0001999453301047  0.7497946468229842
  0.0003637088836822  0.4996199273292108  0.2504376928028917
  0.7515634199772820  0.2465313219162013  0.2486460422776129
  0.3759829476862746  0.3751993375375705  0.1268956143014761
  0.3780861019222258  0.6273892336137719  0.6260956152641100
  0.4999607654127932  0.7495342251527357  0.4995076102109460
  0.1245558643344838  0.1250648541279018  0.8763042401655842
  0.8744096912689746  0.1249679261909720  0.6242232320917016
  0.7484831356129353  0.5014309257682786 -0.0011914567120075
  0.1253583061184181  0.8750657717088635  0.8755848549796004
 -0.0013953873857249  0.2476010526197943  0.2483846620751387
  0.4981989589637181  0.2517164433456269  0.4975036099802572
  0.1268457324727160  0.8782145459337729  0.1277658396946465
  0.3757016068844182  0.3763364266103672  0.8750988131431982
  0.4999758154865996 -0.0023691197563738  0.7501877549162160
  0.8728713712080483  0.6248508459212343  0.8750488857639062
  0.1255927658535133  0.6253750202475863  0.8751349724586166
  0.6240059691682716  0.6244333292129317  0.6251665983559755
  0.7517257318633518  0.2483817015058657  0.0020063640101234
  0.7453552934386639  0.7476610170583160  0.7515266324711893
 -0.0020053549476054  0.0019430232526044  0.0028902670853086
  0.1251640815519537  0.3752273741618757  0.8756258063029005
  0.3752272977813327  0.1250507872656102  0.8759177093034413
  0.2525116624647542  0.2503322236128901  0.2519341044537197
  0.3765672837446416  0.8732763311083682  0.6255346165582732
  0.1246093875426401  0.6246585360437616  0.6248517443657946
  0.2499654226791000  0.2502230016104907  0.0011922115574885
  0.7496695901366061  0.4996410403251521  0.2512628893971308
  0.6256976115543172  0.3748333886166919  0.1253891249331936
  0.1253428754460330  0.1238720227250007  0.1273598970008784
  0.6228479408996161  0.8719642138336378  0.6259675218673708
  0.5003498842204462  0.2512669662732449  0.7493064682795997
  0.2496979615125501  0.0003286433199520  0.0023513534010817
  0.8731189754492807  0.8764742285503582  0.3730734710909084
  0.2515682621757214  0.2519300702344441  0.4981322614794775
  0.7475249821595691  0.5015520128488503  0.7498904064471726
  0.7492270441516992 -0.0008650299504266  0.4969645795373934
  0.8745344026464138  0.1246046621680377  0.8777429975701495
  0.6247554383398040  0.1248716045991762  0.6239409444587247
 -0.0019976645083366  0.0016299765341452  0.2484985099801318
  0.3783586984684954  0.6284222865070905  0.1266247103375471
  0.3738490358709821  0.1238160537917580  0.3723669218118779
  0.8734566182695693  0.3757595712642179  0.3767423039217085
  0.2518247452988083  0.5009529753743188  0.0009914261101075
  0.4999803291033365  0.2514646318376354  0.2517672531690267
 -0.0003566549149171  0.4996690974639740  0.0003462817980194
  0.3746686782685765  0.1249249001155865  0.6242192305672956
  0.6252605154694384  0.1243407325389527  0.8757128744364318
  0.8710856462296889  0.6222893317622826  0.6233103180068139
 -0.0001016151075813  0.2493905090210462  0.4989927945109083
  0.5002108137017663  0.7503571832532747  0.2496855497094768
  0.2500320273759846  0.0006572692890801  0.2501373619249233
  0.6225987252085107  0.6273153457552730  0.8723840077057984
  0.5018400161473502  0.7475107839614178  0.7514628965897593
  0.8735862479864465  0.1224986388168058  0.1272849354347882
  0.7489848834817389  0.4994331987829499  0.4999668623994736
  0.3757609212123132  0.3757150660528142  0.3752984889315756
  0.7520020287721667  0.0017661908579751  0.2478051994305542
 
  0.00000000E+00  0.00000000E+00  0.00000000E+00
  0.00000000E+00  0.00000000E+00  0.00000000E+00
  0.00000000E+00  0.00000000E+00  0.00000000E+00
  0.00000000E+00  0.00000000E+00  0.00000000E+00
  0.00000000E+00  0.00000000E+00  0.00000000E+00
  0.00000000E+00  0.00000000E+00  0.00000000E+00
  0.00000000E+00  0.00000000E+00  0.00000000E+00
  0.00000000E+00  0.00000000E+00  0.00000000E+00
  0.00000000E+00  0.00000000E+00  0.00000000E+00
  0.00000000E+00  0.00000000E+00  0.00000000E+00
  0.00000000E+00  0.00000000E+00  0.00000000E+00
  0.00000000E+00  0.00000000E+00  0.00000000E+00
  0.00000000E+00  0.00000000E+00  0.00000000E+00
  0.00000000E+00  0.00000000E+00  0.00000000E+00
  0.00000000E+00  0.00000000E+00  0.00000000E+00
  0.00000000E+00  0.00000000E+00  0.00000000E+00
  0.00000000E+00  0.00000000E+00  0.00000000E+00
  0.00000000E+00  0.00000000E+00  0.00000000E+00
  0.00000000E+00  0.00000000E+00  0.00000000E+00
  0.00000000E+00  0.00000000E+00  0.00000000E+00
  0.00000000E+00  0.00000000E+00  0.00000000E+00
  0.00000000E+00  0.00000000E+00  0.00000000E+00
  0.00000000E+00  0.00000000E+00  0.00000000E+00
  0.00000000E+00  0.00000000E+00  0.00000000E+00
  0.00000000E+00  0.00000000E+00  0.00000000E+00
  0.00000000E+00  0.00000000E+00  0.00000000E+00
  0.00000000E+00  0.00000000E+00  0.00000000E+00
  0.00000000E+00  0.00000000E+00  0.00000000E+00
  0.00000000E+00  0.00000000E+00  0.00000000E+00
  0.00000000E+00  0.00000000E+00  0.00000000E+00
  0.00000000E+00  0.00000000E+00  0.00000000E+00
  0.00000000E+00  0.00000000E+00  0.00000000E+00
  0.00000000E+00  0.00000000E+00  0.00000000E+00
  0.00000000E+00  0.00000000E+00  0.00000000E+00
  0.00000000E+00  0.00000000E+00  0.00000000E+00
  0.00000000E+00  0.00000000E+00  0.00000000E+00
  0.00000000E+00  0.00000000E+00  0.00000000E+00
  0.00000000E+00  0.00000000E+00  0.00000000E+00
  0.00000000E+00  0.00000000E+00  0.00000000E+00
  0.00000000E+00  0.00000000E+00  0.00000000E+00
  0.00000000E+00  0.00000000E+00  0.00000000E+00
  0.00000000E+00  0.00000000E+00  0.00000000E+00
  0.00000000E+00  0.00000000E+00  0.00000000E+00
  0.00000000E+00  0.00000000E+00  0.00000000E+00
  0.00000000E+00  0.00000000E+00  0.00000000E+00
  0.00000000E+00  0.00000000E+00  0.00000000E+00
  0.00000000E+00  0.00000000E+00  0.00000000E+00
  0.00000000E+00  0.00000000E+00  0.00000000E+00
  0.00000000E+00  0.00000000E+00  0.00000000E+00
  0.00000000E+00  0.00000000E+00  0.00000000E+00
  0.00000000E+00  0.00000000E+00  0.00000000E+00
  0.00000000E+00  0.00000000E+00  0.00000000E+00
  0.00000000E+00  0.00000000E+00  0.00000000E+00
  0.00000000E+00  0.00000000E+00  0.00000000E+00
  0.00000000E+00  0.00000000E+00  0.00000000E+00
  0.00000000E+00  0.00000000E+00  0.00000000E+00
  0.00000000E+00  0.00000000E+00  0.00000000E+00
  0.00000000E+00  0.00000000E+00  0.00000000E+00
  0.00000000E+00  0.00000000E+00  0.00000000E+00
  0.00000000E+00  0.00000000E+00  0.00000000E+00
  0.00000000E+00  0.00000000E+00  0.00000000E+00
  0.00000000E+00  0.00000000E+00  0.00000000E+00
  0.00000000E+00  0.00000000E+00  0.00000000E+00
  0.00000000E+00  0.00000000E+00  0.00000000E+00
  0.00000000E+00  0.00000000E+00  0.00000000E+00
  0.00000000E+00  0.00000000E+00  0.00000000E+00
  0.00000000E+00  0.00000000E+00  0.00000000E+00
  0.00000000E+00  0.00000000E+00  0.00000000E+00
  0.00000000E+00  0.00000000E+00  0.00000000E+00
  0.00000000E+00  0.00000000E+00  0.00000000E+00
  0.00000000E+00  0.00000000E+00  0.00000000E+00
  0.00000000E+00  0.00000000E+00  0.00000000E+00
  0.00000000E+00  0.00000000E+00  0.00000000E+00
  0.00000000E+00  0.00000000E+00  0.00000000E+00
  0.00000000E+00  0.00000000E+00  0.00000000E+00
  0.00000000E+00  0.00000000E+00  0.00000000E+00
  0.00000000E+00  0.00000000E+00  0.00000000E+00
  0.00000000E+00  0.00000000E+00  0.00000000E+00
  0.00000000E+00  0.00000000E+00  0.00000000E+00
  0.00000000E+00  0.00000000E+00  0.00000000E+00
  0.00000000E+00  0.00000000E+00  0.00000000E+00
  0.00000000E+00  0.00000000E+00  0.00000000E+00
  0.00000000E+00  0.00000000E+00  0.00000000E+00
  0.00000000E+00  0.00000000E+00  0.00000000E+00
  0.00000000E+00  0.00000000E+00  0.00000000E+00
  0.00000000E+00  0.00000000E+00  0.00000000E+00
  0.00000000E+00  0.00000000E+00  0.00000000E+00
  0.00000000E+00  0.00000000E+00  0.00000000E+00
  0.00000000E+00  0.00000000E+00  0.00000000E+00
  0.00000000E+00  0.00000000E+00  0.00000000E+00
  0.00000000E+00  0.00000000E+00  0.00000000E+00
  0.00000000E+00  0.00000000E+00  0.00000000E+00
  0.00000000E+00  0.00000000E+00  0.00000000E+00
  0.00000000E+00  0.00000000E+00  0.00000000E+00
  0.00000000E+00  0.00000000E+00  0.00000000E+00
  0.00000000E+00  0.00000000E+00  0.00000000E+00
  0.00000000E+00  0.00000000E+00  0.00000000E+00
  0.00000000E+00  0.00000000E+00  0.00000000E+00
  0.00000000E+00  0.00000000E+00  0.00000000E+00
  0.00000000E+00  0.00000000E+00  0.00000000E+00
  0.00000000E+00  0.00000000E+00  0.00000000E+00
  0.00000000E+00  0.00000000E+00  0.00000000E+00
  0.00000000E+00  0.00000000E+00  0.00000000E+00
  0.00000000E+00  0.00000000E+00  0.00000000E+00
  0.00000000E+00  0.00000000E+00  0.00000000E+00
  0.00000000E+00  0.00000000E+00  0.00000000E+00
  0.00000000E+00  0.00000000E+00  0.00000000E+00
  0.00000000E+00  0.00000000E+00  0.00000000E+00
  0.00000000E+00  0.00000000E+00  0.00000000E+00
  0.00000000E+00  0.00000000E+00  0.00000000E+00
  0.00000000E+00  0.00000000E+00  0.00000000E+00
  0.00000000E+00  0.00000000E+00  0.00000000E+00
  0.00000000E+00  0.00000000E+00  0.00000000E+00
  0.00000000E+00  0.00000000E+00  0.00000000E+00
  0.00000000E+00  0.00000000E+00  0.00000000E+00
  0.00000000E+00  0.00000000E+00  0.00000000E+00
  0.00000000E+00  0.00000000E+00  0.00000000E+00
  0.00000000E+00  0.00000000E+00  0.00000000E+00
  0.00000000E+00  0.00000000E+00  0.00000000E+00
  0.00000000E+00  0.00000000E+00  0.00000000E+00
  0.00000000E+00  0.00000000E+00  0.00000000E+00
  0.00000000E+00  0.00000000E+00  0.00000000E+00
  0.00000000E+00  0.00000000E+00  0.00000000E+00
  0.00000000E+00  0.00000000E+00  0.00000000E+00
  0.00000000E+00  0.00000000E+00  0.00000000E+00
  0.00000000E+00  0.00000000E+00  0.00000000E+00
  0.00000000E+00  0.00000000E+00  0.00000000E+00
  0.00000000E+00  0.00000000E+00  0.00000000E+00
