Hf Ti                                   
    1.000000000000000     
    12.6317452567504507   -0.0043883705463621   -0.0012475094646996
    -6.3196806308137710   10.9507665860017109    0.0019578485844711
    -0.0020040399226226    0.0024548040085575   19.9343997759713858
  Hf              Ti            
   104    24
Direct
     0.6687791487101421    0.0840950796209764    0.9393887162452333
     0.6650956766800106    0.8314143623470678    0.6845788236296733
     0.5876163151273197    0.4186811656384423    0.5617189917923436
     0.0861079402694610    0.9153130386960037    0.8133962139168103
     0.5839850464877606    0.4182913673917867    0.3125086213748696
     0.1674973921298143    0.3334899342124529    0.4378017339178370
     0.6632137226891763    0.3327067668245706    0.9372348159147921
     0.6669422000094634    0.5855662997045176    0.4391717599578990
     0.6662687785031607    0.0820664619661777    0.6864677160394661
     0.6694598203036533    0.3352520198615558    0.6864824425720562
     0.5820193113979891    0.6650465959775164    0.3103326543128297
     0.5810914017510642    0.4153472284420222    0.8125449215394400
     0.9156422881728052    0.3344310908332075    0.6852809695645363
     0.9153896914829093    0.3318175529039942    0.4368406450342591
     0.3320462958722608    0.9152569503326092    0.0630635013049247
     0.3314715128851084    0.9132263130550874    0.5613598727098129
     0.0809219471341934    0.1686629924687878    0.3107890226902995
     0.3298735354699260    0.1633443490457992    0.3134012660804121
     0.1662873460287059    0.8296653359825362    0.6880133985749587
     0.9153318261378613    0.8323078181886022    0.6840202039730895
     0.6674887217766964    0.3357427172743561    0.1881167078797860
     0.8334324887337418    0.4150314652786864    0.0630341490033382
     0.5850387520951316    0.1670824850683970    0.3127119973492545
     0.3319844331242321    0.4159390648963566    0.0641232955462816
     0.5824365299563876    0.9151612460573659    0.5603330501350424
     0.0851771618206248    0.9149925001202563    0.0630544884935813
     0.6686163017006871    0.3347097036948412    0.4382241415931750
     0.8371363673123541    0.4193969243515259    0.8123530529203149
     0.3371565608843634    0.6695415888623428    0.5618599714851511
     0.1663692566141700    0.0852941473024952    0.9377128224282282
     0.3307396900820400    0.4184364420840912    0.3112272495646995
     0.4126701105580218    0.0801502858413949    0.9362335893781087
     0.9190406260643339    0.5854156989289694    0.4403964281030237
     0.0851903674699748    0.9177997625668176    0.3134383137953820
     0.4173959665485442    0.8339204216854932    0.6878479936957838
     0.6608392882932216    0.8301593760236444    0.1883174940702605
     0.9180544003497590    0.0818325673335304    0.6853485393330913
     0.6660754843431701    0.0821298925632928    0.4357098288196745
     0.0846351361301660    0.4190679485074764    0.3106502497992152
     0.9162606866859355    0.8350424102395546    0.4388765847715825
     0.6663817482748230    0.8324476129616067    0.9378790384260542
     0.3374367762264843    0.4211953663614461    0.5631121331342569
     0.0853421311486508    0.6676995257861045    0.0632966139287074
     0.0868812582016181    0.1639269948744884    0.5608301383988955
     0.4190779695510132    0.5873005245717778    0.4375572004531165
     0.1660814391383871    0.5840732092545265    0.6862807798828282
     0.0820331215351081    0.4167114140303201    0.8131181598002252
     0.9183370175063992    0.3271035619570490    0.1878160014237305
     0.4169998824931974    0.3321560523001603    0.6853030703295874
     0.4161635780735863    0.3371604553241259    0.1885547448332554
     0.5815650884141677    0.9161437461109931    0.0644577954537562
     0.1678730065321978    0.0846367079277513    0.6867695159496521
     0.8318064751548606    0.1654668469185839    0.5609318218583411
     0.1653693039110660    0.0843811558444680    0.1880641968387547
     0.1679535461116698    0.3305281854506107    0.9367283021156588
     0.1709392613088710    0.8284853446819068    0.1910004789154877
     0.8356196509473000    0.4156652984513965    0.3130236484072962
     0.6651000365650579    0.5824087190417589    0.9374320112883211
     0.4132106425942899    0.3288538274750663    0.4389613753273134
     0.6648787494599357    0.5840447489818928    0.6844879413361011
     0.5817173368998517    0.6668820806173648    0.8105023150807092
     0.4130299104598911    0.0814394936158630    0.6873317859839443
     0.4122180713106859    0.0788402972680780    0.4370033705787180
     0.8322909504458634    0.9216662263666724    0.3111557398245051
     0.5851258960666971    0.1668484746539850    0.0633613311326164
     0.8343701391607773    0.6669957323816259    0.3122520397261971
     0.3337768685281950    0.6669997826756945    0.0677816176217865
     0.4161199705914720    0.5821539583359807    0.9377966392839502
     0.1660543429838979    0.3338795780494542    0.6873031207465958
     0.8363645041445195    0.1679467574060437    0.8124055454411725
     0.3352798520905202    0.1697565867771200    0.0627043089446283
     0.3309573633300208    0.6724077241825679    0.3096956361899618
     0.8367334313987541    0.9179931427998769    0.8116174842428333
     0.0810325070640037    0.4194602842981889    0.5612698318692477
     0.5821733970137787    0.1637365998402979    0.8122877187943491
     0.9175445903988289    0.8323877723408760    0.9383378471951938
     0.3315820547272901    0.6662087348495194    0.8113440045237090
     0.9182634850568696    0.5844195782485394    0.6831165436063601
     0.3317336893377379    0.1684403090190124    0.8130608245530928
     0.5818799540025904    0.4177027518742200    0.0631859886760522
     0.8301581379522178    0.6647668468536492    0.0653259359045406
     0.9211320417097931    0.5819264743478628    0.1894652790786948
     0.1671750914603751    0.5861245612328401    0.9375033937244639
     0.4132607536867676    0.8330278697455599    0.9372812698807557
     0.1670200240292211    0.5874122781579983    0.4369298917450731
     0.5769334416214875    0.9148359303221091    0.3124787509727134
     0.5825404160600691    0.1681422727139795    0.5619012713108765
     0.0795107498719321    0.1693307921501340    0.0663106374959766
     0.5820379160957501    0.6644091901450523    0.0661411003950814
     0.4166187664799659    0.0788075963719216    0.1894842777224697
     0.9187246431212943    0.0850513805837187    0.9382054177889723
     0.8359831970135124    0.6674156181611782    0.8108614842548683
     0.0858992947218066    0.4179437790775990    0.0650326794040010
     0.0843738446458314    0.9153984541516503    0.5606181108595010
     0.9161626124766329    0.3315925158313817    0.9397919282286722
     0.6725646619327211    0.0838867879739391    0.1885210872938671
     0.9160710366997599    0.0805021061222465    0.4378752831663044
     0.9207039483219241    0.5875862701513601    0.9366304628458634
     0.3341660094655216    0.4160365993763031    0.8115339566995182
     0.6656353189202129    0.8311025148892426    0.4387008713600585
     0.9160194460887645    0.8344552418143742    0.1885539245847464
     0.1686489555173410    0.8304567072597469    0.4352586686168551
     0.8340205363078530    0.9218087198326738    0.0652772915839518
     0.5830234450239753    0.9180649467434786    0.8129061998326841
     0.8304205791838776    0.9105607245448958    0.5616997269223817
     0.0872307992750785    0.6708385469865877    0.8126225284643511
     0.0818538067699414    0.6678102844517666    0.5619585715519977
     0.4117295951733853    0.5811147433891956    0.1887467402901661
     0.4154375499286072    0.8345495690215354    0.4355466765925043
     0.1664273578455720    0.5821059453610277    0.1889725861775576
     0.0827861967355432    0.1654893031514259    0.8120058955303798
     0.1702681020788432    0.3410859881195727    0.1880863314650019
     0.9146535111527214    0.0882145489814023    0.1883900469155831
     0.4185250827500434    0.5845763370103321    0.6856737705051262
     0.0837780146719318    0.6640915870195711    0.3125294695449939
     0.1681915845465225    0.8331259326792027    0.9353508909405051
     0.3359271032583776    0.9126557397698589    0.3129079711197874
     0.8323844147723798    0.6688916762636850    0.5615493732597360
     0.8349930365699012    0.1653602350359522    0.3117954989010199
     0.3275864889754562    0.9122062200718973    0.8132437538691435
     0.1690755266020097    0.0838182919015295    0.4379426745051706
     0.3305889665493129    0.1634651809693533    0.5608513373255591
     0.8338752262869231    0.4186512940055683    0.5615933106234622
     0.5855054238834536    0.6674048409679580    0.5627718879014814
     0.6646134738169359    0.5818545448787149    0.1888669998183088
     0.4171269864985549    0.3339428763381219    0.9373195717683451
     0.8341774050118570    0.1646517158575238    0.0648759379125008
     0.4163818004909389    0.8340647311318024    0.1890243719169463
 
  0.00000000E+00  0.00000000E+00  0.00000000E+00
  0.00000000E+00  0.00000000E+00  0.00000000E+00
  0.00000000E+00  0.00000000E+00  0.00000000E+00
  0.00000000E+00  0.00000000E+00  0.00000000E+00
  0.00000000E+00  0.00000000E+00  0.00000000E+00
  0.00000000E+00  0.00000000E+00  0.00000000E+00
  0.00000000E+00  0.00000000E+00  0.00000000E+00
  0.00000000E+00  0.00000000E+00  0.00000000E+00
  0.00000000E+00  0.00000000E+00  0.00000000E+00
  0.00000000E+00  0.00000000E+00  0.00000000E+00
  0.00000000E+00  0.00000000E+00  0.00000000E+00
  0.00000000E+00  0.00000000E+00  0.00000000E+00
  0.00000000E+00  0.00000000E+00  0.00000000E+00
  0.00000000E+00  0.00000000E+00  0.00000000E+00
  0.00000000E+00  0.00000000E+00  0.00000000E+00
  0.00000000E+00  0.00000000E+00  0.00000000E+00
  0.00000000E+00  0.00000000E+00  0.00000000E+00
  0.00000000E+00  0.00000000E+00  0.00000000E+00
  0.00000000E+00  0.00000000E+00  0.00000000E+00
  0.00000000E+00  0.00000000E+00  0.00000000E+00
  0.00000000E+00  0.00000000E+00  0.00000000E+00
  0.00000000E+00  0.00000000E+00  0.00000000E+00
  0.00000000E+00  0.00000000E+00  0.00000000E+00
  0.00000000E+00  0.00000000E+00  0.00000000E+00
  0.00000000E+00  0.00000000E+00  0.00000000E+00
  0.00000000E+00  0.00000000E+00  0.00000000E+00
  0.00000000E+00  0.00000000E+00  0.00000000E+00
  0.00000000E+00  0.00000000E+00  0.00000000E+00
  0.00000000E+00  0.00000000E+00  0.00000000E+00
  0.00000000E+00  0.00000000E+00  0.00000000E+00
  0.00000000E+00  0.00000000E+00  0.00000000E+00
  0.00000000E+00  0.00000000E+00  0.00000000E+00
  0.00000000E+00  0.00000000E+00  0.00000000E+00
  0.00000000E+00  0.00000000E+00  0.00000000E+00
  0.00000000E+00  0.00000000E+00  0.00000000E+00
  0.00000000E+00  0.00000000E+00  0.00000000E+00
  0.00000000E+00  0.00000000E+00  0.00000000E+00
  0.00000000E+00  0.00000000E+00  0.00000000E+00
  0.00000000E+00  0.00000000E+00  0.00000000E+00
  0.00000000E+00  0.00000000E+00  0.00000000E+00
  0.00000000E+00  0.00000000E+00  0.00000000E+00
  0.00000000E+00  0.00000000E+00  0.00000000E+00
  0.00000000E+00  0.00000000E+00  0.00000000E+00
  0.00000000E+00  0.00000000E+00  0.00000000E+00
  0.00000000E+00  0.00000000E+00  0.00000000E+00
  0.00000000E+00  0.00000000E+00  0.00000000E+00
  0.00000000E+00  0.00000000E+00  0.00000000E+00
  0.00000000E+00  0.00000000E+00  0.00000000E+00
  0.00000000E+00  0.00000000E+00  0.00000000E+00
  0.00000000E+00  0.00000000E+00  0.00000000E+00
  0.00000000E+00  0.00000000E+00  0.00000000E+00
  0.00000000E+00  0.00000000E+00  0.00000000E+00
  0.00000000E+00  0.00000000E+00  0.00000000E+00
  0.00000000E+00  0.00000000E+00  0.00000000E+00
  0.00000000E+00  0.00000000E+00  0.00000000E+00
  0.00000000E+00  0.00000000E+00  0.00000000E+00
  0.00000000E+00  0.00000000E+00  0.00000000E+00
  0.00000000E+00  0.00000000E+00  0.00000000E+00
  0.00000000E+00  0.00000000E+00  0.00000000E+00
  0.00000000E+00  0.00000000E+00  0.00000000E+00
  0.00000000E+00  0.00000000E+00  0.00000000E+00
  0.00000000E+00  0.00000000E+00  0.00000000E+00
  0.00000000E+00  0.00000000E+00  0.00000000E+00
  0.00000000E+00  0.00000000E+00  0.00000000E+00
  0.00000000E+00  0.00000000E+00  0.00000000E+00
  0.00000000E+00  0.00000000E+00  0.00000000E+00
  0.00000000E+00  0.00000000E+00  0.00000000E+00
  0.00000000E+00  0.00000000E+00  0.00000000E+00
  0.00000000E+00  0.00000000E+00  0.00000000E+00
  0.00000000E+00  0.00000000E+00  0.00000000E+00
  0.00000000E+00  0.00000000E+00  0.00000000E+00
  0.00000000E+00  0.00000000E+00  0.00000000E+00
  0.00000000E+00  0.00000000E+00  0.00000000E+00
  0.00000000E+00  0.00000000E+00  0.00000000E+00
  0.00000000E+00  0.00000000E+00  0.00000000E+00
  0.00000000E+00  0.00000000E+00  0.00000000E+00
  0.00000000E+00  0.00000000E+00  0.00000000E+00
  0.00000000E+00  0.00000000E+00  0.00000000E+00
  0.00000000E+00  0.00000000E+00  0.00000000E+00
  0.00000000E+00  0.00000000E+00  0.00000000E+00
  0.00000000E+00  0.00000000E+00  0.00000000E+00
  0.00000000E+00  0.00000000E+00  0.00000000E+00
  0.00000000E+00  0.00000000E+00  0.00000000E+00
  0.00000000E+00  0.00000000E+00  0.00000000E+00
  0.00000000E+00  0.00000000E+00  0.00000000E+00
  0.00000000E+00  0.00000000E+00  0.00000000E+00
  0.00000000E+00  0.00000000E+00  0.00000000E+00
  0.00000000E+00  0.00000000E+00  0.00000000E+00
  0.00000000E+00  0.00000000E+00  0.00000000E+00
  0.00000000E+00  0.00000000E+00  0.00000000E+00
  0.00000000E+00  0.00000000E+00  0.00000000E+00
  0.00000000E+00  0.00000000E+00  0.00000000E+00
  0.00000000E+00  0.00000000E+00  0.00000000E+00
  0.00000000E+00  0.00000000E+00  0.00000000E+00
  0.00000000E+00  0.00000000E+00  0.00000000E+00
  0.00000000E+00  0.00000000E+00  0.00000000E+00
  0.00000000E+00  0.00000000E+00  0.00000000E+00
  0.00000000E+00  0.00000000E+00  0.00000000E+00
  0.00000000E+00  0.00000000E+00  0.00000000E+00
  0.00000000E+00  0.00000000E+00  0.00000000E+00
  0.00000000E+00  0.00000000E+00  0.00000000E+00
  0.00000000E+00  0.00000000E+00  0.00000000E+00
  0.00000000E+00  0.00000000E+00  0.00000000E+00
  0.00000000E+00  0.00000000E+00  0.00000000E+00
  0.00000000E+00  0.00000000E+00  0.00000000E+00
  0.00000000E+00  0.00000000E+00  0.00000000E+00
  0.00000000E+00  0.00000000E+00  0.00000000E+00
  0.00000000E+00  0.00000000E+00  0.00000000E+00
  0.00000000E+00  0.00000000E+00  0.00000000E+00
  0.00000000E+00  0.00000000E+00  0.00000000E+00
  0.00000000E+00  0.00000000E+00  0.00000000E+00
  0.00000000E+00  0.00000000E+00  0.00000000E+00
  0.00000000E+00  0.00000000E+00  0.00000000E+00
  0.00000000E+00  0.00000000E+00  0.00000000E+00
  0.00000000E+00  0.00000000E+00  0.00000000E+00
  0.00000000E+00  0.00000000E+00  0.00000000E+00
  0.00000000E+00  0.00000000E+00  0.00000000E+00
  0.00000000E+00  0.00000000E+00  0.00000000E+00
  0.00000000E+00  0.00000000E+00  0.00000000E+00
  0.00000000E+00  0.00000000E+00  0.00000000E+00
  0.00000000E+00  0.00000000E+00  0.00000000E+00
  0.00000000E+00  0.00000000E+00  0.00000000E+00
  0.00000000E+00  0.00000000E+00  0.00000000E+00
  0.00000000E+00  0.00000000E+00  0.00000000E+00
  0.00000000E+00  0.00000000E+00  0.00000000E+00
  0.00000000E+00  0.00000000E+00  0.00000000E+00
  0.00000000E+00  0.00000000E+00  0.00000000E+00
  0.00000000E+00  0.00000000E+00  0.00000000E+00
