Hf Ti                                   
    1.000000000000000     
    12.3164683178065193   -0.0191730914145794    0.0082536135160630
    -6.1748186636950981   10.6896303074171310    0.0009625233239121
     0.0130816866298983    0.0093556327953111   19.4085486696096403
  Hf              Ti            
    64    64
Direct
     0.6724130673530641    0.5846228653489660    0.4364995351825620
     0.6699949894468673    0.3360445336976564    0.9370448271698811
     0.6633135631032532    0.3320456214365592    0.4364651577601336
     0.3385990552849421    0.1664250467423884    0.5640492286917462
     0.0830215331928674    0.9182094136749361    0.8133643359008961
     0.0791926764828619    0.1631366921621011    0.8130763776322945
     0.1718702639649231    0.0813911320358776    0.1879211631893315
     0.3354399366854875    0.4204082734871901    0.0671404073095750
     0.9108132408197334    0.5798115276128881    0.6845251285813109
     0.9160998516539410    0.3393425016707458    0.4389493324609839
     0.0817553787504258    0.4256252076793829    0.5635489188728903
     0.5846693145756763    0.4182883884916783    0.0640813456138266
     0.3417063136344940    0.1625764243981047    0.3108705647241881
     0.4216679678231362    0.5888167406793757    0.9374636496426696
     0.0769006814154553    0.6667595184193972    0.0654820536141951
     0.5908191084006016    0.9149588494034632    0.0654025392972759
     0.9143793708042762    0.0751485173990041    0.4361150280563013
     0.1684492521000690    0.8352838109185067    0.9366551222303020
     0.6677416556176810    0.8306987033324427    0.4381439748375425
     0.3352018991633290    0.6757584786067669    0.8106020775854648
     0.0769168430841656    0.1575946883905665    0.5636499725219702
     0.1673113814306802    0.3338176404011483    0.6868612520682466
     0.5874807994317700    0.1659703439414867    0.8107281068825414
     0.6645997360446332    0.3281595001586941    0.1899245608896234
     0.1680602555574536    0.3347759561434628    0.4381767589601389
     0.4207766219146470    0.3344540797263992    0.4365062895550764
     0.0863463272256933    0.4224579976658702    0.3123153391549128
     0.3432687940180226    0.4205912218521023    0.5640635708796786
     0.4172604864267537    0.5896611679274689    0.4337785326509651
     0.3360071478298888    0.6735750094160353    0.5637123914367245
     0.4249277517266700    0.6004387777941235    0.1893400176074639
     0.1685194469351954    0.3337513343332540    0.9370378560502894
     0.6698209695177636    0.5859855989685189    0.1904478550632107
     0.1682858517531172    0.0810840371090799    0.6876068770169420
     0.9075159971163569    0.0756058236168286    0.1833379091664400
     0.0858501022072040    0.4197011003974588    0.8105499845086442
     0.1659618628706779    0.0716480373949800    0.4371224773311784
     0.0774021797771869    0.6626904012186170    0.8120460546591227
     0.9068627674434359    0.8309711682559774    0.6875836916340651
     0.0883451149836700    0.1670561324457875    0.0632019420414281
     0.3370201494933294    0.4170341447017646    0.3074062352993847
     0.8378375695956146    0.4281550782093005    0.3115930100945933
     0.3351677815286710    0.9182248380543344    0.5601954615761644
     0.9091345522765546    0.0743453600858106    0.9413795100168226
     0.1686243609245472    0.5889607251854314    0.1886722039717278
     0.8270626372670344    0.1659203286881128    0.3097645507757145
     0.5835911195796653    0.4191445730851507    0.8086586271831968
     0.5834102986890035    0.1639289522128779    0.0608671404161432
     0.0770406761775375    0.9152358497759326    0.0627282253756015
     0.9098040459758616    0.3309415567560217    0.9367446184501856
     0.0782361269259543    0.4114724089402240    0.0652553169924078
     0.5773590765052162    0.9094461219297715    0.3082640577891441
     0.6734656194151126    0.5917852722715848    0.9386251603032986
     0.6555960701420184    0.0765306337089287    0.4376475158988865
     0.1701857498344798    0.8311845388071156    0.6857379267924223
     0.9022019353100896    0.3252694442697541    0.6899989007409736
     0.0819841800218849    0.1630699874177167    0.3103531819253242
     0.4228772202388815    0.5856853964939998    0.6881117780094328
     0.4129485440831017    0.3271077084129386    0.9373553166462676
     0.5853443163122072    0.1685257647998891    0.5672629338099597
     0.8280195890364926    0.1576872187413225    0.5643335014135918
     0.5953671362046740    0.6764283769894559    0.8098287946464783
     0.1687034961477981    0.5877033144234632    0.9400092851349390
     0.3327086555819770    0.9157297107645477    0.0639054483767089
     0.9135503554734392    0.5851729921083919    0.9390806138859213
     0.8282991010140350    0.4214093568244112    0.5621771636349491
     0.3405843584699719    0.9226181819377777    0.8120277640713591
     0.6628632184358781    0.0748976558982515    0.9361063002643454
     0.9072748414557957    0.0770982055798932    0.6900518782230498
     0.3282685660433364    0.6760703653825398    0.3130680761561210
     0.1644874487461858    0.8337212430368880    0.1922692064773965
     0.8255242111728448    0.8994528419196084    0.0623753053290488
     0.3353813186474547    0.1632004810516753    0.0620166667324841
     0.5768460050262596    0.1573504186513805    0.3111901346820373
     0.3398113416236145    0.6737651521692827    0.0629981241652712
     0.4183422395819403    0.3277082203142789    0.1869332996162439
     0.8261659430375332    0.1697019246797790    0.0631613840254340
     0.6642191996797552    0.0723379908609946    0.6895436969213687
     0.4176502317015967    0.0843312830840225    0.6907173782121743
     0.9204270302119496    0.8291021333044326    0.4370058964574232
     0.8271629127075800    0.9189698822718000    0.8133177379831447
     0.8325432876732356    0.6633095154497929    0.8131608168185874
     0.9183343891639193    0.8308632040040284    0.1894815765047278
     0.6680218054191553    0.5833412837473325    0.6831734333812933
     0.4195274795066208    0.0784107389386080    0.1877382220210970
     0.8342834556719547    0.6688991314597791    0.5607776297118000
     0.5885923470033210    0.6733834349549058    0.0635268694075810
     0.5906630231633185    0.4226042324925626    0.5657519379908642
     0.5921925732956909    0.6717855241699783    0.3122650521180035
     0.4092542857259892    0.8314812055063303    0.4343990297755909
     0.8347490660470162    0.4210758290370056    0.0647754334923382
     0.3349802313246155    0.4125169212235523    0.8107500185603543
     0.3291854090020503    0.9143067642627032    0.3123941264760747
     0.9234347605937050    0.5913059480952528    0.4382069253774311
     0.6641236760600354    0.0855203041958856    0.1867494328344943
     0.0843834098678048    0.6738045950361641    0.3140730068020648
     0.4127850068382232    0.0810982298570697    0.9350626214297236
     0.4097295235514500    0.8343472531596500    0.1880797738051839
     0.4214829003156659    0.3311574982454586    0.6881032919835689
     0.8266008043981996    0.1562320852969946    0.8139817461706328
     0.1618487882317617    0.3312386658980171    0.1882098539805164
     0.6753257345121237    0.8308064117259274    0.1886371407729864
     0.8290522449800500    0.4197238695099935    0.8124262075490180
     0.9123059668225416    0.8306858778052642    0.9366541574163004
     0.1699961337480920    0.0820923757263127    0.9374059122900957
     0.6656692096027659    0.8357150564850262    0.9369141380426165
     0.0796054603957093    0.9083038604503820    0.3128253569347078
     0.1669997785755513    0.5940932409567219    0.4367484894065942
     0.8311761758750652    0.9109504682504778    0.5631945246120720
     0.8348060318357774    0.6681108503503850    0.0640529826311028
     0.8434477819797256    0.6733593999985404    0.3123021197623208
     0.8358581392016297    0.9077343515134740    0.3107872603706912
     0.1648958249409360    0.5873368608574139    0.6856745103680235
     0.4246259236695692    0.8420024725892272    0.9367728145591975
     0.9189216440780639    0.5892021603994174    0.1891126950057804
     0.9145125080084716    0.3331937086418918    0.1862730398340047
     0.0757241549437954    0.9054133890727768    0.5602718736605219
     0.3334121960307823    0.1649775806240690    0.8127806024754368
     0.5825979612412080    0.4176530841387549    0.3112936023539035
     0.0808287402199304    0.6680076962558814    0.5583116034148450
     0.1627797322227773    0.8288799439943224    0.4354032573651369
     0.4160001666935471    0.0776225359348747    0.4355992781274645
     0.6661456983605436    0.3371511207643960    0.6862631435719393
     0.5861851244590334    0.9184431003618007    0.8123752259193298
     0.5918429072940908    0.6709372153701711    0.5644848362235448
     0.6654735815364703    0.8406274107593146    0.6854989438106033
     0.4274229828315663    0.8464139301100960    0.6886517952478460
     0.5815540332216839    0.9121126121660302    0.5644921527228828
 
  0.00000000E+00  0.00000000E+00  0.00000000E+00
  0.00000000E+00  0.00000000E+00  0.00000000E+00
  0.00000000E+00  0.00000000E+00  0.00000000E+00
  0.00000000E+00  0.00000000E+00  0.00000000E+00
  0.00000000E+00  0.00000000E+00  0.00000000E+00
  0.00000000E+00  0.00000000E+00  0.00000000E+00
  0.00000000E+00  0.00000000E+00  0.00000000E+00
  0.00000000E+00  0.00000000E+00  0.00000000E+00
  0.00000000E+00  0.00000000E+00  0.00000000E+00
  0.00000000E+00  0.00000000E+00  0.00000000E+00
  0.00000000E+00  0.00000000E+00  0.00000000E+00
  0.00000000E+00  0.00000000E+00  0.00000000E+00
  0.00000000E+00  0.00000000E+00  0.00000000E+00
  0.00000000E+00  0.00000000E+00  0.00000000E+00
  0.00000000E+00  0.00000000E+00  0.00000000E+00
  0.00000000E+00  0.00000000E+00  0.00000000E+00
  0.00000000E+00  0.00000000E+00  0.00000000E+00
  0.00000000E+00  0.00000000E+00  0.00000000E+00
  0.00000000E+00  0.00000000E+00  0.00000000E+00
  0.00000000E+00  0.00000000E+00  0.00000000E+00
  0.00000000E+00  0.00000000E+00  0.00000000E+00
  0.00000000E+00  0.00000000E+00  0.00000000E+00
  0.00000000E+00  0.00000000E+00  0.00000000E+00
  0.00000000E+00  0.00000000E+00  0.00000000E+00
  0.00000000E+00  0.00000000E+00  0.00000000E+00
  0.00000000E+00  0.00000000E+00  0.00000000E+00
  0.00000000E+00  0.00000000E+00  0.00000000E+00
  0.00000000E+00  0.00000000E+00  0.00000000E+00
  0.00000000E+00  0.00000000E+00  0.00000000E+00
  0.00000000E+00  0.00000000E+00  0.00000000E+00
  0.00000000E+00  0.00000000E+00  0.00000000E+00
  0.00000000E+00  0.00000000E+00  0.00000000E+00
  0.00000000E+00  0.00000000E+00  0.00000000E+00
  0.00000000E+00  0.00000000E+00  0.00000000E+00
  0.00000000E+00  0.00000000E+00  0.00000000E+00
  0.00000000E+00  0.00000000E+00  0.00000000E+00
  0.00000000E+00  0.00000000E+00  0.00000000E+00
  0.00000000E+00  0.00000000E+00  0.00000000E+00
  0.00000000E+00  0.00000000E+00  0.00000000E+00
  0.00000000E+00  0.00000000E+00  0.00000000E+00
  0.00000000E+00  0.00000000E+00  0.00000000E+00
  0.00000000E+00  0.00000000E+00  0.00000000E+00
  0.00000000E+00  0.00000000E+00  0.00000000E+00
  0.00000000E+00  0.00000000E+00  0.00000000E+00
  0.00000000E+00  0.00000000E+00  0.00000000E+00
  0.00000000E+00  0.00000000E+00  0.00000000E+00
  0.00000000E+00  0.00000000E+00  0.00000000E+00
  0.00000000E+00  0.00000000E+00  0.00000000E+00
  0.00000000E+00  0.00000000E+00  0.00000000E+00
  0.00000000E+00  0.00000000E+00  0.00000000E+00
  0.00000000E+00  0.00000000E+00  0.00000000E+00
  0.00000000E+00  0.00000000E+00  0.00000000E+00
  0.00000000E+00  0.00000000E+00  0.00000000E+00
  0.00000000E+00  0.00000000E+00  0.00000000E+00
  0.00000000E+00  0.00000000E+00  0.00000000E+00
  0.00000000E+00  0.00000000E+00  0.00000000E+00
  0.00000000E+00  0.00000000E+00  0.00000000E+00
  0.00000000E+00  0.00000000E+00  0.00000000E+00
  0.00000000E+00  0.00000000E+00  0.00000000E+00
  0.00000000E+00  0.00000000E+00  0.00000000E+00
  0.00000000E+00  0.00000000E+00  0.00000000E+00
  0.00000000E+00  0.00000000E+00  0.00000000E+00
  0.00000000E+00  0.00000000E+00  0.00000000E+00
  0.00000000E+00  0.00000000E+00  0.00000000E+00
  0.00000000E+00  0.00000000E+00  0.00000000E+00
  0.00000000E+00  0.00000000E+00  0.00000000E+00
  0.00000000E+00  0.00000000E+00  0.00000000E+00
  0.00000000E+00  0.00000000E+00  0.00000000E+00
  0.00000000E+00  0.00000000E+00  0.00000000E+00
  0.00000000E+00  0.00000000E+00  0.00000000E+00
  0.00000000E+00  0.00000000E+00  0.00000000E+00
  0.00000000E+00  0.00000000E+00  0.00000000E+00
  0.00000000E+00  0.00000000E+00  0.00000000E+00
  0.00000000E+00  0.00000000E+00  0.00000000E+00
  0.00000000E+00  0.00000000E+00  0.00000000E+00
  0.00000000E+00  0.00000000E+00  0.00000000E+00
  0.00000000E+00  0.00000000E+00  0.00000000E+00
  0.00000000E+00  0.00000000E+00  0.00000000E+00
  0.00000000E+00  0.00000000E+00  0.00000000E+00
  0.00000000E+00  0.00000000E+00  0.00000000E+00
  0.00000000E+00  0.00000000E+00  0.00000000E+00
  0.00000000E+00  0.00000000E+00  0.00000000E+00
  0.00000000E+00  0.00000000E+00  0.00000000E+00
  0.00000000E+00  0.00000000E+00  0.00000000E+00
  0.00000000E+00  0.00000000E+00  0.00000000E+00
  0.00000000E+00  0.00000000E+00  0.00000000E+00
  0.00000000E+00  0.00000000E+00  0.00000000E+00
  0.00000000E+00  0.00000000E+00  0.00000000E+00
  0.00000000E+00  0.00000000E+00  0.00000000E+00
  0.00000000E+00  0.00000000E+00  0.00000000E+00
  0.00000000E+00  0.00000000E+00  0.00000000E+00
  0.00000000E+00  0.00000000E+00  0.00000000E+00
  0.00000000E+00  0.00000000E+00  0.00000000E+00
  0.00000000E+00  0.00000000E+00  0.00000000E+00
  0.00000000E+00  0.00000000E+00  0.00000000E+00
  0.00000000E+00  0.00000000E+00  0.00000000E+00
  0.00000000E+00  0.00000000E+00  0.00000000E+00
  0.00000000E+00  0.00000000E+00  0.00000000E+00
  0.00000000E+00  0.00000000E+00  0.00000000E+00
  0.00000000E+00  0.00000000E+00  0.00000000E+00
  0.00000000E+00  0.00000000E+00  0.00000000E+00
  0.00000000E+00  0.00000000E+00  0.00000000E+00
  0.00000000E+00  0.00000000E+00  0.00000000E+00
  0.00000000E+00  0.00000000E+00  0.00000000E+00
  0.00000000E+00  0.00000000E+00  0.00000000E+00
  0.00000000E+00  0.00000000E+00  0.00000000E+00
  0.00000000E+00  0.00000000E+00  0.00000000E+00
  0.00000000E+00  0.00000000E+00  0.00000000E+00
  0.00000000E+00  0.00000000E+00  0.00000000E+00
  0.00000000E+00  0.00000000E+00  0.00000000E+00
  0.00000000E+00  0.00000000E+00  0.00000000E+00
  0.00000000E+00  0.00000000E+00  0.00000000E+00
  0.00000000E+00  0.00000000E+00  0.00000000E+00
  0.00000000E+00  0.00000000E+00  0.00000000E+00
  0.00000000E+00  0.00000000E+00  0.00000000E+00
  0.00000000E+00  0.00000000E+00  0.00000000E+00
  0.00000000E+00  0.00000000E+00  0.00000000E+00
  0.00000000E+00  0.00000000E+00  0.00000000E+00
  0.00000000E+00  0.00000000E+00  0.00000000E+00
  0.00000000E+00  0.00000000E+00  0.00000000E+00
  0.00000000E+00  0.00000000E+00  0.00000000E+00
  0.00000000E+00  0.00000000E+00  0.00000000E+00
  0.00000000E+00  0.00000000E+00  0.00000000E+00
  0.00000000E+00  0.00000000E+00  0.00000000E+00
  0.00000000E+00  0.00000000E+00  0.00000000E+00
  0.00000000E+00  0.00000000E+00  0.00000000E+00
  0.00000000E+00  0.00000000E+00  0.00000000E+00
  0.00000000E+00  0.00000000E+00  0.00000000E+00
