Nb Ti                                   
    1.000000000000000     
    11.3206102079884285    1.0000844510178883   -0.0073151147984465
    -4.8024941070336133   10.3166761117985732   -0.0325998129620052
     0.0490780761583302    0.0200119513340950   18.4823603405429076
  Nb              Ti            
    64    64
Direct
     0.6918030411635897    0.5718485096415878    0.4387936228663025
     0.6862738106272390    0.3079057895529921    0.9391768809034273
     0.6868520278879463    0.3159149258576547    0.4379061653922908
     0.3159251833191563    0.1833752528995670    0.5605148689636700
     0.0568236692941387    0.9398001152843736    0.8076547923052508
     0.0636342245059598    0.1875108548786586    0.8159514059805431
     0.1827138741758287    0.0596024736590834    0.1884320250662394
     0.3184875762499628    0.4407652750421864    0.0645272592548420
     0.9337702319733600    0.5666880174085126    0.6888513107170091
     0.9393994946438970    0.3165717692546710    0.4398146933396513
     0.0642516495056290    0.4350073878510259    0.5611903130274356
     0.5625272938838091    0.4395309101688340    0.0631827254989934
     0.3093399583536164    0.1836073815870754    0.3105257739029897
     0.4399181753621952    0.5678431576648252    0.9378966116338104
     0.0567080346214542    0.6872962960048586    0.0605598471418288
     0.5711545340707519    0.9510410113907755    0.0607577699834758
     0.9388473946071619    0.0633176476948324    0.4386866417525618
     0.1885825881756016    0.8084441605502072    0.9396030915109136
     0.6815737336834068    0.8199601453929611    0.4435720445645762
     0.3197801790162995    0.6903298706198729    0.8107016282595924
     0.0618965959896307    0.1851682252426630    0.5617997989310584
     0.1844599020595497    0.3070035562079558    0.6867815963288350
     0.5687311635645660    0.1931976367669448    0.8164039446498422
     0.6904221290668447    0.3198026389843618    0.1893150709009537
     0.1897893752609357    0.3118203367415247    0.4356575696217275
     0.4394603687663564    0.3091238894210371    0.4361147325242496
     0.0643547941254230    0.4416385447680349    0.3109614390586157
     0.3117725149788478    0.4400053631906912    0.5622768488987870
     0.4380846618582901    0.5563326780045086    0.4374750669559692
     0.3156644967503608    0.6912377338033303    0.5606930440041662
     0.4388357504790686    0.5697053585396207    0.1899360822240434
     0.1889021090576895    0.3113597908664810    0.9389757509634852
     0.6875106627747022    0.5667854120768466    0.1851775928064829
     0.1922303890650850    0.0646365230483086    0.6876692182508684
     0.9409095504104124    0.0670481610682893    0.1880506575457753
     0.0603533415878837    0.4370280662344089    0.8143879565836242
     0.1867543326884054    0.0576266182197019    0.4341684369617229
     0.0653154894482373    0.6902353207472655    0.8105617703595546
     0.9344389553284190    0.8146984469520402    0.6847901130840642
     0.0600761534297159    0.1850517651291501    0.0617397686203589
     0.3158006374534614    0.4349601857951446    0.3112177658559971
     0.8160295079827347    0.4335189034372410    0.3123798468865818
     0.3113530666502767    0.9323048146184443    0.5633030828585031
     0.9294538438697429    0.0681777226288334    0.9398996728141876
     0.1860954137048257    0.5635513994119078    0.1877989061166145
     0.8121395364623055    0.1876211748203433    0.3149574927991919
     0.5587126851133594    0.4334527651658717    0.8145807998371712
     0.5662299132294856    0.1941610705178302    0.0653253193235697
     0.0642163105034925    0.9376378483862788    0.0649025717260838
     0.9355403621545647    0.3148022938551894    0.9386691924861970
     0.0665739041955060    0.4396749121497865    0.0636038924136490
     0.5566849373767589    0.9287748090112561    0.3072828968294088
     0.6836739320387909    0.5526045585445926    0.9377095997114457
     0.6889847042033690    0.0628462061825177    0.4340501885131907
     0.1884228948949504    0.8183539314488167    0.6861191055650749
     0.9415505918687662    0.3192715868208779    0.6865709902545624
     0.0578588176200106    0.1872748574872382    0.3118860984907237
     0.4434358247405039    0.5633919387857405    0.6850694788170738
     0.4339443960316136    0.3133061921636097    0.9373876970273217
     0.5674747660335618    0.1970455691648022    0.5667925483910324
     0.8107506097887093    0.1845920079491672    0.5653905365033327
     0.5585372245317330    0.6863841860305605    0.8126246331420546
     0.1920159178913174    0.5626150821764819    0.9345531672325446
     0.3164460914198425    0.9355984738203371    0.0619400506978632
     0.9381676584899264    0.5690542858062725    0.9359824693534564
     0.8137789528154237    0.4362246646804335    0.5640979018509590
     0.2988512532336569    0.9292174994075162    0.8137257347890227
     0.6803131118495763    0.0547654449377918    0.9332500561501388
     0.9416820257143608    0.0683368400569695    0.6904803532345474
     0.3372322144332396    0.6900867406203631    0.3025375221776253
     0.1737287989523784    0.8108212094416366    0.1851801401013272
     0.8106877523977241    0.9309630102371214    0.0677119846979705
     0.3122099683189124    0.1854718039329087    0.0652197549236263
     0.5618557275242111    0.1830170619161289    0.3101970795267687
     0.3051572745422813    0.6823639325669051    0.0585150275939396
     0.4425113587409067    0.3216284517525735    0.1898907823809791
     0.8099431873456073    0.1810842894235944    0.0619698945534615
     0.6857916990384516    0.0361650399513752    0.6839263834965766
     0.4443064315982762    0.0616922555444751    0.6911981877000869
     0.9201362312162439    0.8173582651870286    0.4357399834219316
     0.8042489704642989    0.9393875181930981    0.8159759937394312
     0.8101379680286522    0.6900812145726778    0.8138190370853194
     0.9175489351343804    0.8156513270673434    0.1823260245741844
     0.6852805190254260    0.5381313082672595    0.6904785793718867
     0.4287044329989498    0.0703412051618861    0.1852065077976577
     0.8146067768905595    0.6840662435308488    0.5636420325286199
     0.5659606345194615    0.6964143991481959    0.0652030265868910
     0.5607329451950134    0.4448920270373364    0.5605566798684171
     0.5807113904679360    0.6851027630034131    0.3229379792133081
     0.4256324239908112    0.8051015837138942    0.4323022185451524
     0.8150602966282288    0.4362925834756252    0.0630522150571862
     0.3127205909546801    0.4367066169781546    0.8100322507714584
     0.3091630755220820    0.9325063905818780    0.3148243827839526
     0.9408872063985049    0.5726869537169015    0.4367648057990446
     0.6861393251222665    0.0672605496975684    0.1912514896390661
     0.0913378824352180    0.6912132630184240    0.3158659767264099
     0.4340051542269677    0.0667876654171777    0.9365184986834859
     0.4291460029801478    0.8262788911002672    0.1754140858732288
     0.4390971257669058    0.3114151145956767    0.6879373843599843
     0.8142881866756848    0.1881047755781530    0.8088983056430524
     0.1876171781433419    0.3120202581248034    0.1862462829026088
     0.6631968897777480    0.8095799958876507    0.1964967389008294
     0.8107846513914841    0.4387976810089746    0.8123911191970334
     0.9484413266888867    0.8296081950386699    0.9356995833124162
     0.1801133733095883    0.0573597294318473    0.9373759670627810
     0.6942295863004070    0.8011050911471955    0.9391037716110497
     0.0560728955586570    0.9282255106103294    0.3094252785578227
     0.1925770442252275    0.5702503910568617    0.4342493451989206
     0.8083222148447583    0.9324966719658921    0.5669860108672939
     0.8129116410467550    0.6844665470765985    0.0530815435496057
     0.8316229115302880    0.6835787182598532    0.3094076005304564
     0.8102161288720696    0.9340525884593828    0.3137833151571184
     0.1899898270369092    0.5653356926110233    0.6870769730096542
     0.4443183913088431    0.8182914103350620    0.9370917509646217
     0.9414251244128684    0.5715354654472958    0.1905823303470151
     0.9360614678765444    0.3158780422266801    0.1884222849937579
     0.0628649705623903    0.9335013844117511    0.5604334402629493
     0.3155705481373206    0.1834450872577039    0.8141177596259299
     0.5723837985959919    0.4381288838062940    0.3149782580912225
     0.0650355831335715    0.6773130706879812    0.5697696159856440
     0.1694063940933301    0.8119130938726719    0.4444355289249091
     0.4400926159570204    0.0627100890741751    0.4410995447317234
     0.6922023603255090    0.2921518533721849    0.6916301023662876
     0.5501090004228201    0.9433006052905740    0.8070880595216681
     0.5622253510131362    0.6973581397526587    0.5626311085971649
     0.6889637006011453    0.7860084616983418    0.6930053615340861
     0.4442764782039742    0.8109858694794019    0.6820798007704428
     0.5569506034211058    0.9461396224988271    0.5534293271918956
 
  0.00000000E+00  0.00000000E+00  0.00000000E+00
  0.00000000E+00  0.00000000E+00  0.00000000E+00
  0.00000000E+00  0.00000000E+00  0.00000000E+00
  0.00000000E+00  0.00000000E+00  0.00000000E+00
  0.00000000E+00  0.00000000E+00  0.00000000E+00
  0.00000000E+00  0.00000000E+00  0.00000000E+00
  0.00000000E+00  0.00000000E+00  0.00000000E+00
  0.00000000E+00  0.00000000E+00  0.00000000E+00
  0.00000000E+00  0.00000000E+00  0.00000000E+00
  0.00000000E+00  0.00000000E+00  0.00000000E+00
  0.00000000E+00  0.00000000E+00  0.00000000E+00
  0.00000000E+00  0.00000000E+00  0.00000000E+00
  0.00000000E+00  0.00000000E+00  0.00000000E+00
  0.00000000E+00  0.00000000E+00  0.00000000E+00
  0.00000000E+00  0.00000000E+00  0.00000000E+00
  0.00000000E+00  0.00000000E+00  0.00000000E+00
  0.00000000E+00  0.00000000E+00  0.00000000E+00
  0.00000000E+00  0.00000000E+00  0.00000000E+00
  0.00000000E+00  0.00000000E+00  0.00000000E+00
  0.00000000E+00  0.00000000E+00  0.00000000E+00
  0.00000000E+00  0.00000000E+00  0.00000000E+00
  0.00000000E+00  0.00000000E+00  0.00000000E+00
  0.00000000E+00  0.00000000E+00  0.00000000E+00
  0.00000000E+00  0.00000000E+00  0.00000000E+00
  0.00000000E+00  0.00000000E+00  0.00000000E+00
  0.00000000E+00  0.00000000E+00  0.00000000E+00
  0.00000000E+00  0.00000000E+00  0.00000000E+00
  0.00000000E+00  0.00000000E+00  0.00000000E+00
  0.00000000E+00  0.00000000E+00  0.00000000E+00
  0.00000000E+00  0.00000000E+00  0.00000000E+00
  0.00000000E+00  0.00000000E+00  0.00000000E+00
  0.00000000E+00  0.00000000E+00  0.00000000E+00
  0.00000000E+00  0.00000000E+00  0.00000000E+00
  0.00000000E+00  0.00000000E+00  0.00000000E+00
  0.00000000E+00  0.00000000E+00  0.00000000E+00
  0.00000000E+00  0.00000000E+00  0.00000000E+00
  0.00000000E+00  0.00000000E+00  0.00000000E+00
  0.00000000E+00  0.00000000E+00  0.00000000E+00
  0.00000000E+00  0.00000000E+00  0.00000000E+00
  0.00000000E+00  0.00000000E+00  0.00000000E+00
  0.00000000E+00  0.00000000E+00  0.00000000E+00
  0.00000000E+00  0.00000000E+00  0.00000000E+00
  0.00000000E+00  0.00000000E+00  0.00000000E+00
  0.00000000E+00  0.00000000E+00  0.00000000E+00
  0.00000000E+00  0.00000000E+00  0.00000000E+00
  0.00000000E+00  0.00000000E+00  0.00000000E+00
  0.00000000E+00  0.00000000E+00  0.00000000E+00
  0.00000000E+00  0.00000000E+00  0.00000000E+00
  0.00000000E+00  0.00000000E+00  0.00000000E+00
  0.00000000E+00  0.00000000E+00  0.00000000E+00
  0.00000000E+00  0.00000000E+00  0.00000000E+00
  0.00000000E+00  0.00000000E+00  0.00000000E+00
  0.00000000E+00  0.00000000E+00  0.00000000E+00
  0.00000000E+00  0.00000000E+00  0.00000000E+00
  0.00000000E+00  0.00000000E+00  0.00000000E+00
  0.00000000E+00  0.00000000E+00  0.00000000E+00
  0.00000000E+00  0.00000000E+00  0.00000000E+00
  0.00000000E+00  0.00000000E+00  0.00000000E+00
  0.00000000E+00  0.00000000E+00  0.00000000E+00
  0.00000000E+00  0.00000000E+00  0.00000000E+00
  0.00000000E+00  0.00000000E+00  0.00000000E+00
  0.00000000E+00  0.00000000E+00  0.00000000E+00
  0.00000000E+00  0.00000000E+00  0.00000000E+00
  0.00000000E+00  0.00000000E+00  0.00000000E+00
  0.00000000E+00  0.00000000E+00  0.00000000E+00
  0.00000000E+00  0.00000000E+00  0.00000000E+00
  0.00000000E+00  0.00000000E+00  0.00000000E+00
  0.00000000E+00  0.00000000E+00  0.00000000E+00
  0.00000000E+00  0.00000000E+00  0.00000000E+00
  0.00000000E+00  0.00000000E+00  0.00000000E+00
  0.00000000E+00  0.00000000E+00  0.00000000E+00
  0.00000000E+00  0.00000000E+00  0.00000000E+00
  0.00000000E+00  0.00000000E+00  0.00000000E+00
  0.00000000E+00  0.00000000E+00  0.00000000E+00
  0.00000000E+00  0.00000000E+00  0.00000000E+00
  0.00000000E+00  0.00000000E+00  0.00000000E+00
  0.00000000E+00  0.00000000E+00  0.00000000E+00
  0.00000000E+00  0.00000000E+00  0.00000000E+00
  0.00000000E+00  0.00000000E+00  0.00000000E+00
  0.00000000E+00  0.00000000E+00  0.00000000E+00
  0.00000000E+00  0.00000000E+00  0.00000000E+00
  0.00000000E+00  0.00000000E+00  0.00000000E+00
  0.00000000E+00  0.00000000E+00  0.00000000E+00
  0.00000000E+00  0.00000000E+00  0.00000000E+00
  0.00000000E+00  0.00000000E+00  0.00000000E+00
  0.00000000E+00  0.00000000E+00  0.00000000E+00
  0.00000000E+00  0.00000000E+00  0.00000000E+00
  0.00000000E+00  0.00000000E+00  0.00000000E+00
  0.00000000E+00  0.00000000E+00  0.00000000E+00
  0.00000000E+00  0.00000000E+00  0.00000000E+00
  0.00000000E+00  0.00000000E+00  0.00000000E+00
  0.00000000E+00  0.00000000E+00  0.00000000E+00
  0.00000000E+00  0.00000000E+00  0.00000000E+00
  0.00000000E+00  0.00000000E+00  0.00000000E+00
  0.00000000E+00  0.00000000E+00  0.00000000E+00
  0.00000000E+00  0.00000000E+00  0.00000000E+00
  0.00000000E+00  0.00000000E+00  0.00000000E+00
  0.00000000E+00  0.00000000E+00  0.00000000E+00
  0.00000000E+00  0.00000000E+00  0.00000000E+00
  0.00000000E+00  0.00000000E+00  0.00000000E+00
  0.00000000E+00  0.00000000E+00  0.00000000E+00
  0.00000000E+00  0.00000000E+00  0.00000000E+00
  0.00000000E+00  0.00000000E+00  0.00000000E+00
  0.00000000E+00  0.00000000E+00  0.00000000E+00
  0.00000000E+00  0.00000000E+00  0.00000000E+00
  0.00000000E+00  0.00000000E+00  0.00000000E+00
  0.00000000E+00  0.00000000E+00  0.00000000E+00
  0.00000000E+00  0.00000000E+00  0.00000000E+00
  0.00000000E+00  0.00000000E+00  0.00000000E+00
  0.00000000E+00  0.00000000E+00  0.00000000E+00
  0.00000000E+00  0.00000000E+00  0.00000000E+00
  0.00000000E+00  0.00000000E+00  0.00000000E+00
  0.00000000E+00  0.00000000E+00  0.00000000E+00
  0.00000000E+00  0.00000000E+00  0.00000000E+00
  0.00000000E+00  0.00000000E+00  0.00000000E+00
  0.00000000E+00  0.00000000E+00  0.00000000E+00
  0.00000000E+00  0.00000000E+00  0.00000000E+00
  0.00000000E+00  0.00000000E+00  0.00000000E+00
  0.00000000E+00  0.00000000E+00  0.00000000E+00
  0.00000000E+00  0.00000000E+00  0.00000000E+00
  0.00000000E+00  0.00000000E+00  0.00000000E+00
  0.00000000E+00  0.00000000E+00  0.00000000E+00
  0.00000000E+00  0.00000000E+00  0.00000000E+00
  0.00000000E+00  0.00000000E+00  0.00000000E+00
  0.00000000E+00  0.00000000E+00  0.00000000E+00
  0.00000000E+00  0.00000000E+00  0.00000000E+00
  0.00000000E+00  0.00000000E+00  0.00000000E+00
  0.00000000E+00  0.00000000E+00  0.00000000E+00
