Hf Nb                                   
    1.000000000000000     
    13.2228980725964078    0.2884093078055422   -2.0276347557533891
    -6.3450762555823319    9.0089523049894762    3.2602926802274519
    -3.4471277325888838    4.4647382612225428   21.5023199709643187
  Hf             Nb           
              24             104
Direct
  0.0690260144508806  0.1907685518122514  0.8124356799701780
  0.6838823218653957  0.5643765538950694  0.4389137955285466
  0.4304915570886265  0.0582374875361661  0.6882518495919575
  0.3104533300509637  0.1846596912056019  0.8134581240933437
  0.4349867523963755  0.5581992780499753  0.4381838516501655
  0.6914880107288500  0.3085429956835872  0.6875882649098397
  0.3127432321699661  0.6943576445391872  0.8083249817729062
  0.6849465390261106  0.3126088062468805  0.9373946977204335
  0.3049787376498265  0.9243786774542173  0.3164069908935744
  0.4346173656907039  0.5561158340901874  0.9420100494424476
  0.6905493913740554  0.3119425868939704  0.4351877340351828
  0.8129693635114222  0.9384446591532180  0.8128880760554990
  0.1875463474506110  0.0667336608569857  0.1826937597956361
  0.8123146874284815  0.1806724496451069  0.0675694637242813
  0.5656197858515338  0.1908942632071976  0.3120430594195684
  0.6892011471500238  0.8158936058237424  0.1864283404128761
  0.5555992895679382  0.1876696269800215  0.8163276605894204
  0.9424257692680192  0.5700019300763323  0.6849990321527367
  0.9344273813691996  0.3104039438441265  0.4365063048246498
  0.1960450483475637  0.5705038655991784  0.4369992973360879
  0.5832187338559707  0.9520879041218172  0.8161444133136669
  0.0643777645029222  0.9347172931986436  0.3160725107113016
  0.5554167787474944  0.6850720968744141  0.8079212633539139
  0.9344405825245241  0.3102365042610340  0.1853413346089081
  0.8143713381817795  0.9398802204591810  0.5613283555881037
  0.4396750780931413  0.3276472111252643  0.6823132251375559
  0.8104288472213506  0.6780612389630856  0.3138408492137454
  0.0649000180351891  0.1865871127795695  0.5640101003200119
  0.5680607805164541  0.4502728468821839  0.8074067843829131
  0.4487185671748189  0.8253904782607970  0.4391935894752708
  0.3120980886525864  0.4341135595575344  0.5660902517694032
  0.0619026770514062  0.4385815675977547  0.8159356532405755
  0.1879947983230916  0.0627580256905532  0.4383709711045394
  0.0604639025526126  0.6867141807011878  0.8119546921161900
  0.0620078541195425  0.1903536922167973  0.3143406881491851
  0.3123404010604657  0.6841498940186740  0.3056763875800423
  0.8147023934385271  0.9388517764673908  0.3109910453478780
  0.6900806317285825  0.3132196203008774  0.1853117329550477
  0.8185077142703656  0.4480545773605195  0.3056626513986451
  0.6917618440000962  0.5712584910076083  0.6856102879607682
  0.8138288917789678  0.1832727146645812  0.5659918519132257
  0.0544362040767611  0.6748674126437031  0.3089702677433878
  0.8107418213284644  0.1862368657115069  0.3136304326183019
  0.3111397572808577  0.9372459395479575  0.0636058257086374
  0.9324941318944326  0.8097876976911719  0.1859603336154698
  0.5590220733985712  0.1857553520463812  0.0645587054831698
  0.4400341096731056  0.3099757412783267  0.9361031609591656
  0.4338773415343107  0.8137578742066935  0.9398421706166503
  0.2966446446834262  0.9216763222017250  0.8184166890138020
  0.6919700744541536  0.8221658282393650  0.4363677626007911
  0.9436579051547140  0.5769522641133724  0.4364990160857025
  0.1850745292962423  0.8201505058222611  0.6828556036435746
  0.5651680421127215  0.1907876602586925  0.5627379904471209
  0.5615337903094498  0.6925147722267179  0.3101440843924990
  0.8151924692965681  0.9328060584056210  0.0610933714393895
  0.0655627290395937  0.9388389954390628  0.0635760438232594
  0.8137871986607709  0.6878650548818216  0.0618125444493038
  0.5563529019685710  0.9350523495564751  0.0608917369291623
  0.0615303929379539  0.4368373797144457  0.5629773933659754
  0.0667340096215597  0.6886447885731234  0.5618270516697085
  0.8081546393579482  0.4442894677911425  0.0585886711188082
  0.9374132416129959  0.3174432431624938  0.9375759329490190
  0.3120289863496298  0.6841211062930184  0.5634029685599615
  0.4371108268301661  0.5633761367772210  0.6869969040714634
  0.1878743187199607  0.0627457326397527  0.6880052187310209
  0.8108772788690776  0.6810967160046822  0.8132988498870518
  0.6935134056737048  0.8092882052514626  0.9450058198355752
  0.3122257730290368  0.4368654686184808  0.8141391909167202
  0.4361939039911059  0.0653328123951472  0.1869979449916305
  0.4337529782880716  0.8099705026375955  0.6788019230089216
  0.4384803680140554  0.3180842204136810  0.1861661643759152
  0.9506126537843966  0.0617300088770508  0.1863634022351568
  0.5628232758040724  0.4332329994714988  0.0656233242802543
  0.5599402461002665  0.9303783599901536  0.3129985967389104
  0.9376496106701833  0.8145385857513110  0.4406410033520155
  0.8314669173068537  0.2071442263292851  0.8153275710562422
  0.5564588670562065  0.4287781158630453  0.5670096282059467
  0.5635060129221642  0.4511422979220501  0.3100533387470649
  0.5601503426717485  0.6842622886056907  0.0632697023542500
  0.0624698810890223  0.4349671470219335  0.3092108276460028
  0.0531959244797291  0.9253280295667361  0.8117276853645540
  0.9406718705497639  0.8103991492516804  0.9392146026794966
  0.4390112014319379  0.8131289126448412  0.1862394013676130
  0.3164004085590547  0.1951587596097835  0.0582297309906934
  0.3118474906297073  0.6851506044023526  0.0631667981707388
  0.1873150646505297  0.3172908779698095  0.6824119473765637
  0.9389658583247614  0.5693822335962814  0.1851534605562300
  0.9344300757266820  0.3058792745016301  0.6859175626649859
  0.8168642242934477  0.4461760834928483  0.8114158816896914
  0.1829008481565420  0.3069923464255911  0.9375246506284304
  0.1790177610646043  0.3003598962024494  0.4374964529518844
  0.0620424496120832  0.6867414157591577  0.0620892089748970
  0.3135855384322888  0.9392284164924688  0.5638349657136499
  0.9365410515703645  0.8209269492758298  0.6853748840494274
  0.9394191974035306  0.0620321984672674  0.9393423662438765
  0.6903744903739726  0.8154237957849707  0.6840005642073557
  0.0681522211840102  0.4431209302391865  0.0607358075678311
  0.3104334146210385  0.1923657107339866  0.5604732463161163
  0.1892653696176032  0.8091407689818962  0.1861829435686450
  0.1848941516713536  0.3147956272009704  0.1888040020176607
  0.3195061668181015  0.1999010739367407  0.3118758778523574
  0.0614468509303022  0.9347246454549211  0.5634887230971777
  0.1834780139904395  0.8097453303091041  0.9388294350445333
  0.4321673918956745  0.0576110343911389  0.4393444708007718
  0.8074879225261798  0.6850998888620458  0.5607515682204433
  0.9408681206987450  0.0658122884399303  0.6851437927661534
  0.5627514332557095  0.9403709941835879  0.5602146045239028
  0.5622434493115553  0.6866819504062439  0.5622913086868903
  0.9396912956090542  0.5642939258862022  0.9393171341756832
  0.1882899194714766  0.8140163328697353  0.4444872181340719
  0.1873114811697658  0.0583978564201914  0.9431636030681698
  0.6829080181746111  0.0547864489882972  0.6815869175254030
  0.6869485330894226  0.5687362324268093  0.9384240442869065
  0.6768830159297408  0.0611384069318251  0.1905000063788536
  0.6853179314277026  0.5549398963061152  0.1874331412640570
  0.6892887021173784  0.0532262002028515  0.9419118240634058
  0.8182950148591115  0.4372397036184223  0.5619671914058610
  0.4342262710288058  0.5576160212607602  0.1877168705401536
  0.3114008065084550  0.4356243371113917  0.3134122203281722
  0.4296186806380914  0.0476135696078548  0.9453283627757531
  0.3095025255864624  0.4307898002980223  0.0670226534706946
  0.1896781630968957  0.5663411320344094  0.1856282678311348
  0.1886911912061993  0.5589583867910453  0.9408851133805525
  0.1844727378654760  0.5604227067438250  0.6881399372804393
  0.0594973907171953  0.1918526321609929  0.0592731326008090
  0.9385931402732491  0.0569136827563564  0.4385198684100981
  0.6861773919840645  0.0484162067408942  0.4404737713221367
  0.4366632623378827  0.3023145587831155  0.4380659564378209
 
  0.00000000E+00  0.00000000E+00  0.00000000E+00
  0.00000000E+00  0.00000000E+00  0.00000000E+00
  0.00000000E+00  0.00000000E+00  0.00000000E+00
  0.00000000E+00  0.00000000E+00  0.00000000E+00
  0.00000000E+00  0.00000000E+00  0.00000000E+00
  0.00000000E+00  0.00000000E+00  0.00000000E+00
  0.00000000E+00  0.00000000E+00  0.00000000E+00
  0.00000000E+00  0.00000000E+00  0.00000000E+00
  0.00000000E+00  0.00000000E+00  0.00000000E+00
  0.00000000E+00  0.00000000E+00  0.00000000E+00
  0.00000000E+00  0.00000000E+00  0.00000000E+00
  0.00000000E+00  0.00000000E+00  0.00000000E+00
  0.00000000E+00  0.00000000E+00  0.00000000E+00
  0.00000000E+00  0.00000000E+00  0.00000000E+00
  0.00000000E+00  0.00000000E+00  0.00000000E+00
  0.00000000E+00  0.00000000E+00  0.00000000E+00
  0.00000000E+00  0.00000000E+00  0.00000000E+00
  0.00000000E+00  0.00000000E+00  0.00000000E+00
  0.00000000E+00  0.00000000E+00  0.00000000E+00
  0.00000000E+00  0.00000000E+00  0.00000000E+00
  0.00000000E+00  0.00000000E+00  0.00000000E+00
  0.00000000E+00  0.00000000E+00  0.00000000E+00
  0.00000000E+00  0.00000000E+00  0.00000000E+00
  0.00000000E+00  0.00000000E+00  0.00000000E+00
  0.00000000E+00  0.00000000E+00  0.00000000E+00
  0.00000000E+00  0.00000000E+00  0.00000000E+00
  0.00000000E+00  0.00000000E+00  0.00000000E+00
  0.00000000E+00  0.00000000E+00  0.00000000E+00
  0.00000000E+00  0.00000000E+00  0.00000000E+00
  0.00000000E+00  0.00000000E+00  0.00000000E+00
  0.00000000E+00  0.00000000E+00  0.00000000E+00
  0.00000000E+00  0.00000000E+00  0.00000000E+00
  0.00000000E+00  0.00000000E+00  0.00000000E+00
  0.00000000E+00  0.00000000E+00  0.00000000E+00
  0.00000000E+00  0.00000000E+00  0.00000000E+00
  0.00000000E+00  0.00000000E+00  0.00000000E+00
  0.00000000E+00  0.00000000E+00  0.00000000E+00
  0.00000000E+00  0.00000000E+00  0.00000000E+00
  0.00000000E+00  0.00000000E+00  0.00000000E+00
  0.00000000E+00  0.00000000E+00  0.00000000E+00
  0.00000000E+00  0.00000000E+00  0.00000000E+00
  0.00000000E+00  0.00000000E+00  0.00000000E+00
  0.00000000E+00  0.00000000E+00  0.00000000E+00
  0.00000000E+00  0.00000000E+00  0.00000000E+00
  0.00000000E+00  0.00000000E+00  0.00000000E+00
  0.00000000E+00  0.00000000E+00  0.00000000E+00
  0.00000000E+00  0.00000000E+00  0.00000000E+00
  0.00000000E+00  0.00000000E+00  0.00000000E+00
  0.00000000E+00  0.00000000E+00  0.00000000E+00
  0.00000000E+00  0.00000000E+00  0.00000000E+00
  0.00000000E+00  0.00000000E+00  0.00000000E+00
  0.00000000E+00  0.00000000E+00  0.00000000E+00
  0.00000000E+00  0.00000000E+00  0.00000000E+00
  0.00000000E+00  0.00000000E+00  0.00000000E+00
  0.00000000E+00  0.00000000E+00  0.00000000E+00
  0.00000000E+00  0.00000000E+00  0.00000000E+00
  0.00000000E+00  0.00000000E+00  0.00000000E+00
  0.00000000E+00  0.00000000E+00  0.00000000E+00
  0.00000000E+00  0.00000000E+00  0.00000000E+00
  0.00000000E+00  0.00000000E+00  0.00000000E+00
  0.00000000E+00  0.00000000E+00  0.00000000E+00
  0.00000000E+00  0.00000000E+00  0.00000000E+00
  0.00000000E+00  0.00000000E+00  0.00000000E+00
  0.00000000E+00  0.00000000E+00  0.00000000E+00
  0.00000000E+00  0.00000000E+00  0.00000000E+00
  0.00000000E+00  0.00000000E+00  0.00000000E+00
  0.00000000E+00  0.00000000E+00  0.00000000E+00
  0.00000000E+00  0.00000000E+00  0.00000000E+00
  0.00000000E+00  0.00000000E+00  0.00000000E+00
  0.00000000E+00  0.00000000E+00  0.00000000E+00
  0.00000000E+00  0.00000000E+00  0.00000000E+00
  0.00000000E+00  0.00000000E+00  0.00000000E+00
  0.00000000E+00  0.00000000E+00  0.00000000E+00
  0.00000000E+00  0.00000000E+00  0.00000000E+00
  0.00000000E+00  0.00000000E+00  0.00000000E+00
  0.00000000E+00  0.00000000E+00  0.00000000E+00
  0.00000000E+00  0.00000000E+00  0.00000000E+00
  0.00000000E+00  0.00000000E+00  0.00000000E+00
  0.00000000E+00  0.00000000E+00  0.00000000E+00
  0.00000000E+00  0.00000000E+00  0.00000000E+00
  0.00000000E+00  0.00000000E+00  0.00000000E+00
  0.00000000E+00  0.00000000E+00  0.00000000E+00
  0.00000000E+00  0.00000000E+00  0.00000000E+00
  0.00000000E+00  0.00000000E+00  0.00000000E+00
  0.00000000E+00  0.00000000E+00  0.00000000E+00
  0.00000000E+00  0.00000000E+00  0.00000000E+00
  0.00000000E+00  0.00000000E+00  0.00000000E+00
  0.00000000E+00  0.00000000E+00  0.00000000E+00
  0.00000000E+00  0.00000000E+00  0.00000000E+00
  0.00000000E+00  0.00000000E+00  0.00000000E+00
  0.00000000E+00  0.00000000E+00  0.00000000E+00
  0.00000000E+00  0.00000000E+00  0.00000000E+00
  0.00000000E+00  0.00000000E+00  0.00000000E+00
  0.00000000E+00  0.00000000E+00  0.00000000E+00
  0.00000000E+00  0.00000000E+00  0.00000000E+00
  0.00000000E+00  0.00000000E+00  0.00000000E+00
  0.00000000E+00  0.00000000E+00  0.00000000E+00
  0.00000000E+00  0.00000000E+00  0.00000000E+00
  0.00000000E+00  0.00000000E+00  0.00000000E+00
  0.00000000E+00  0.00000000E+00  0.00000000E+00
  0.00000000E+00  0.00000000E+00  0.00000000E+00
  0.00000000E+00  0.00000000E+00  0.00000000E+00
  0.00000000E+00  0.00000000E+00  0.00000000E+00
  0.00000000E+00  0.00000000E+00  0.00000000E+00
  0.00000000E+00  0.00000000E+00  0.00000000E+00
  0.00000000E+00  0.00000000E+00  0.00000000E+00
  0.00000000E+00  0.00000000E+00  0.00000000E+00
  0.00000000E+00  0.00000000E+00  0.00000000E+00
  0.00000000E+00  0.00000000E+00  0.00000000E+00
  0.00000000E+00  0.00000000E+00  0.00000000E+00
  0.00000000E+00  0.00000000E+00  0.00000000E+00
  0.00000000E+00  0.00000000E+00  0.00000000E+00
  0.00000000E+00  0.00000000E+00  0.00000000E+00
  0.00000000E+00  0.00000000E+00  0.00000000E+00
  0.00000000E+00  0.00000000E+00  0.00000000E+00
  0.00000000E+00  0.00000000E+00  0.00000000E+00
  0.00000000E+00  0.00000000E+00  0.00000000E+00
  0.00000000E+00  0.00000000E+00  0.00000000E+00
  0.00000000E+00  0.00000000E+00  0.00000000E+00
  0.00000000E+00  0.00000000E+00  0.00000000E+00
  0.00000000E+00  0.00000000E+00  0.00000000E+00
  0.00000000E+00  0.00000000E+00  0.00000000E+00
  0.00000000E+00  0.00000000E+00  0.00000000E+00
  0.00000000E+00  0.00000000E+00  0.00000000E+00
  0.00000000E+00  0.00000000E+00  0.00000000E+00
  0.00000000E+00  0.00000000E+00  0.00000000E+00
  0.00000000E+00  0.00000000E+00  0.00000000E+00
  0.00000000E+00  0.00000000E+00  0.00000000E+00
