Hf Ta                                   
    1.000000000000000     
    11.8382764444069650    1.1326496745897190    0.0081246581496768
    -4.9996190576889781   10.7786005205539066   -0.0115850448278468
    -0.0031006457715871   -0.0390572222544054   19.3143382080159540
  Hf             Ta           
              60              68
Direct
  0.9613400618838518  0.5694351362676036  0.6897487809276288
  0.1869514299230277  0.5637409289193912  0.1937903196728801
  0.9243437675481418  0.5437773924116563  0.4314690902043685
  0.1828568751156765  0.0714099499108826  0.1831161846167921
  0.9394055880276967  0.3136670796641424  0.9276156748875148
  0.4395894839769787  0.5546707376066631  0.6879688385309360
  0.0718725346283499  0.7012328267275116  0.8184915440142568
  0.5674711927167546  0.4424966768674963  0.5686384669950131
  0.6973345090942377  0.8305333240020573  0.4223967789188071
  0.1887480168993460  0.8246078215760059  0.1903217714635528
  0.8095778037724641  0.1750873632087898  0.5640970524645249
  0.3084301569304939  0.4293578157787813  0.8172230731332004
  0.3310389098187261  0.6794952249665053  0.8173936560596418
  0.4392604805141317  0.3192892106123092  0.9359384728214283
  0.1878682931158099  0.5671520331052629  0.4278508502986731
  0.0533271861684393  0.6830307359220597  0.0644536282078303
  0.4398938106963667  0.5614701828887592  0.1849735370097310
  0.8128234531303591  0.1862549326452926  0.3139345477579365
  0.9278449155254491  0.5554132295151247  0.1937743264319337
  0.9397050682940826  0.0687383929342620  0.6821810803715621
  0.1787487539599112  0.8166340587674957  0.6788331726203404
  0.0683717006232443  0.4350791944674974  0.0590554580778201
  0.3229545615064248  0.9456608300473383  0.0625970649599568
  0.5573184035227349  0.1787234940236427  0.0639110527423127
  0.6894952299780243  0.8143444369731373  0.9398058856144283
  0.1994582115079719  0.3156833262409627  0.4296278004023028
  0.3093079121424709  0.1754352354348877  0.8139183669737253
  0.0608267679851868  0.1853633252131153  0.3019530188780626
  0.7954017927346156  0.9111414493528334  0.5651187054059036
  0.8140596977804091  0.4368979635654870  0.8160616995189659
  0.0676006839539994  0.9360622773170787  0.5651075482800001
  0.5663716508451835  0.6969227575791807  0.5607554291296875
  0.5651188410885376  0.9362411347782873  0.8149054540436317
  0.2933536063796391  0.6724284566679840  0.5634095630707496
  0.7001994841373935  0.5754939332140269  0.6980019108803966
  0.3148173501370745  0.1842966956698014  0.3125933806389304
  0.4489607069181216  0.3120439338034224  0.4403465510027569
  0.8310669282530436  0.4306301967129308  0.5702124060584610
  0.9302585286238518  0.0591920211862528  0.4325910541074376
  0.0687441930010308  0.1825058209246337  0.0672818987979409
  0.8121254423676181  0.4506584915052693  0.0574684231370807
  0.7040869212552920  0.3187987020348266  0.4335863663838715
  0.6778604767944184  0.3001132275794445  0.6899202709289394
  0.0569709077292061  0.1941569091439129  0.8163844803297425
  0.4321691600341221  0.8138727299893453  0.6830930101750992
  0.8240238004679360  0.9444708660146044  0.8143361905700217
  0.6779430632305554  0.0603559178810366  0.1836273736757096
  0.5568122843029062  0.9275651253992274  0.3085743912982696
  0.4417077624693713  0.0698151478534047  0.6866335043311314
  0.6590238054704972  0.0644727661037198  0.4389067651105867
  0.5584286138524674  0.4415027766037100  0.0658437995220141
  0.0726008089895955  0.6909167216359678  0.3164765605041603
  0.6754216120163418  0.5684746085180952  0.4306967205409369
  0.9392005465138312  0.8037531852128922  0.4364058910388359
  0.8160900498297889  0.1882857135572727  0.0588279577674155
  0.0741287981183393  0.2017416256259726  0.5582832258345484
  0.9232109840732365  0.8086183334009843  0.6935431067067314
  0.4273223757002783  0.8176068515166413  0.9468597920214016
  0.3024641110676886  0.9222364469272460  0.8202533103726867
  0.4365212232498684  0.8102344459318531  0.4408715359262835
  0.1915952529530651  0.8227147644147152  0.4447814181755770
  0.8109841194633899  0.6847379922420792  0.3047742248982682
  0.4205121354592448  0.3034516299837161  0.6873472961513398
  0.6874016579413699  0.5570374875942115  0.9396842223612757
  0.8109979999135620  0.6878521784760564  0.8282944866057854
  0.3200972685375033  0.2045361961116660  0.0620957329660457
  0.8001283876327958  0.1852484698651336  0.8052228111626202
  0.0659958685861928  0.9345649990909909  0.3091266119895807
  0.9258537380810586  0.0580145732413623  0.1850825160336267
  0.9300883593237814  0.8152806792507984  0.1858291032101957
  0.3065429000086695  0.9310363795566744  0.3164708747673611
  0.0573214966428087  0.9303189127022438  0.0585367974252526
  0.8240714283495434  0.9319349816980068  0.2988160911225241
  0.6903556011500092  0.0693042950692138  0.9350699249563370
  0.4283723046209017  0.0575644250140398  0.1960994459739361
  0.3082922249550500  0.4232160529161898  0.5616854120025037
  0.3127490911078083  0.6768301343246677  0.0650209163580935
  0.3211169036358393  0.9423795790783525  0.5598411501788194
  0.6870148118775545  0.0514504589284007  0.6899763484725036
  0.6870257976218119  0.3051238864451492  0.9385286648414287
  0.1870180366097123  0.3195550985477181  0.9465311558126702
  0.1963230005303659  0.5567090233290678  0.6915746419671571
  0.7969617162320518  0.4305673191515491  0.3057540954181991
  0.5757885457868277  0.9324370768834377  0.0601831076857853
  0.4393397262329100  0.5715454974796297  0.9391486115597091
  0.3132719593978418  0.4465315055340920  0.3085817578918604
  0.6747575457478787  0.8132689550749671  0.6975073798409771
  0.5632253645806451  0.4342550736810957  0.8103523152161728
  0.9354048139710375  0.0558234159308601  0.9455474510275605
  0.6830490362284788  0.8056578440841180  0.1859725916448760
  0.8037344481530962  0.6628842832355273  0.5634188659589950
  0.0690344050064214  0.4517003553424904  0.8047220269476744
  0.3330800553245776  0.6983571361096090  0.3076636287240094
  0.4433657146400694  0.0723973202003305  0.9314648416340986
  0.4379668871057562  0.3037104842695471  0.1872592101005105
  0.5562612460045222  0.4328616709569293  0.3049078238774066
  0.5708942271932367  0.1958109669355459  0.8201237512903017
  0.1916746499381696  0.0770697225906277  0.6865721006666903
  0.1865295332016791  0.0672129327504522  0.9430578349097083
  0.0498550673597534  0.4273403482778400  0.3108972965196841
  0.5647397387706137  0.9565691925496119  0.5689224739409101
  0.9442842976043355  0.3070307128247500  0.1898475862824526
  0.0783629761033995  0.4490761956695529  0.5632202287744222
  0.6903405940159659  0.3192326061817952  0.1879857266006739
  0.8124360620660355  0.9344883347828633  0.0663905178836613
  0.4191987790105473  0.0584494444493228  0.4341465098653937
  0.1890579302029607  0.5679776865741660  0.9376631342595977
  0.8040983243064707  0.6930521759212663  0.0621654446690220
  0.5644248319139653  0.1897643634850104  0.3082626281056072
  0.4396720567737900  0.8154667099236012  0.1807636415880457
  0.9392984367130899  0.8184387778237110  0.9401318601392079
  0.0460536488920974  0.6796725885378369  0.5540716121288675
  0.3117461587565235  0.4362133087164084  0.0595222094589562
  0.1871304643181046  0.3139980156000388  0.6874106195292914
  0.6882790523751927  0.5626729488870346  0.1889470243051197
  0.5637157539130458  0.6741617316572662  0.3126080014166095
  0.1856709725088255  0.0537134913272584  0.4373005988905356
  0.3137385327296633  0.1836688153384868  0.5634598172583846
  0.2003178416788124  0.3242684063834829  0.1873865199907867
  0.4253951755496500  0.5500464564498645  0.4348089236255296
  0.9439348179651057  0.3191466599708123  0.6862680099090345
  0.5743173728930641  0.6746047968274261  0.8148036000630514
  0.5545181734220654  0.1874267511509106  0.5556494443962001
  0.1734510522619138  0.8195582274766944  0.9473382828756148
  0.5619228712248060  0.6951481795045352  0.0621343964381430
  0.9546230401819279  0.3147295689240155  0.4399633673248156
  0.0756026479485421  0.9561045862506253  0.8172684092534807
  0.9393846264000573  0.5777338785367144  0.9359771005120004
 
  0.00000000E+00  0.00000000E+00  0.00000000E+00
  0.00000000E+00  0.00000000E+00  0.00000000E+00
  0.00000000E+00  0.00000000E+00  0.00000000E+00
  0.00000000E+00  0.00000000E+00  0.00000000E+00
  0.00000000E+00  0.00000000E+00  0.00000000E+00
  0.00000000E+00  0.00000000E+00  0.00000000E+00
  0.00000000E+00  0.00000000E+00  0.00000000E+00
  0.00000000E+00  0.00000000E+00  0.00000000E+00
  0.00000000E+00  0.00000000E+00  0.00000000E+00
  0.00000000E+00  0.00000000E+00  0.00000000E+00
  0.00000000E+00  0.00000000E+00  0.00000000E+00
  0.00000000E+00  0.00000000E+00  0.00000000E+00
  0.00000000E+00  0.00000000E+00  0.00000000E+00
  0.00000000E+00  0.00000000E+00  0.00000000E+00
  0.00000000E+00  0.00000000E+00  0.00000000E+00
  0.00000000E+00  0.00000000E+00  0.00000000E+00
  0.00000000E+00  0.00000000E+00  0.00000000E+00
  0.00000000E+00  0.00000000E+00  0.00000000E+00
  0.00000000E+00  0.00000000E+00  0.00000000E+00
  0.00000000E+00  0.00000000E+00  0.00000000E+00
  0.00000000E+00  0.00000000E+00  0.00000000E+00
  0.00000000E+00  0.00000000E+00  0.00000000E+00
  0.00000000E+00  0.00000000E+00  0.00000000E+00
  0.00000000E+00  0.00000000E+00  0.00000000E+00
  0.00000000E+00  0.00000000E+00  0.00000000E+00
  0.00000000E+00  0.00000000E+00  0.00000000E+00
  0.00000000E+00  0.00000000E+00  0.00000000E+00
  0.00000000E+00  0.00000000E+00  0.00000000E+00
  0.00000000E+00  0.00000000E+00  0.00000000E+00
  0.00000000E+00  0.00000000E+00  0.00000000E+00
  0.00000000E+00  0.00000000E+00  0.00000000E+00
  0.00000000E+00  0.00000000E+00  0.00000000E+00
  0.00000000E+00  0.00000000E+00  0.00000000E+00
  0.00000000E+00  0.00000000E+00  0.00000000E+00
  0.00000000E+00  0.00000000E+00  0.00000000E+00
  0.00000000E+00  0.00000000E+00  0.00000000E+00
  0.00000000E+00  0.00000000E+00  0.00000000E+00
  0.00000000E+00  0.00000000E+00  0.00000000E+00
  0.00000000E+00  0.00000000E+00  0.00000000E+00
  0.00000000E+00  0.00000000E+00  0.00000000E+00
  0.00000000E+00  0.00000000E+00  0.00000000E+00
  0.00000000E+00  0.00000000E+00  0.00000000E+00
  0.00000000E+00  0.00000000E+00  0.00000000E+00
  0.00000000E+00  0.00000000E+00  0.00000000E+00
  0.00000000E+00  0.00000000E+00  0.00000000E+00
  0.00000000E+00  0.00000000E+00  0.00000000E+00
  0.00000000E+00  0.00000000E+00  0.00000000E+00
  0.00000000E+00  0.00000000E+00  0.00000000E+00
  0.00000000E+00  0.00000000E+00  0.00000000E+00
  0.00000000E+00  0.00000000E+00  0.00000000E+00
  0.00000000E+00  0.00000000E+00  0.00000000E+00
  0.00000000E+00  0.00000000E+00  0.00000000E+00
  0.00000000E+00  0.00000000E+00  0.00000000E+00
  0.00000000E+00  0.00000000E+00  0.00000000E+00
  0.00000000E+00  0.00000000E+00  0.00000000E+00
  0.00000000E+00  0.00000000E+00  0.00000000E+00
  0.00000000E+00  0.00000000E+00  0.00000000E+00
  0.00000000E+00  0.00000000E+00  0.00000000E+00
  0.00000000E+00  0.00000000E+00  0.00000000E+00
  0.00000000E+00  0.00000000E+00  0.00000000E+00
  0.00000000E+00  0.00000000E+00  0.00000000E+00
  0.00000000E+00  0.00000000E+00  0.00000000E+00
  0.00000000E+00  0.00000000E+00  0.00000000E+00
  0.00000000E+00  0.00000000E+00  0.00000000E+00
  0.00000000E+00  0.00000000E+00  0.00000000E+00
  0.00000000E+00  0.00000000E+00  0.00000000E+00
  0.00000000E+00  0.00000000E+00  0.00000000E+00
  0.00000000E+00  0.00000000E+00  0.00000000E+00
  0.00000000E+00  0.00000000E+00  0.00000000E+00
  0.00000000E+00  0.00000000E+00  0.00000000E+00
  0.00000000E+00  0.00000000E+00  0.00000000E+00
  0.00000000E+00  0.00000000E+00  0.00000000E+00
  0.00000000E+00  0.00000000E+00  0.00000000E+00
  0.00000000E+00  0.00000000E+00  0.00000000E+00
  0.00000000E+00  0.00000000E+00  0.00000000E+00
  0.00000000E+00  0.00000000E+00  0.00000000E+00
  0.00000000E+00  0.00000000E+00  0.00000000E+00
  0.00000000E+00  0.00000000E+00  0.00000000E+00
  0.00000000E+00  0.00000000E+00  0.00000000E+00
  0.00000000E+00  0.00000000E+00  0.00000000E+00
  0.00000000E+00  0.00000000E+00  0.00000000E+00
  0.00000000E+00  0.00000000E+00  0.00000000E+00
  0.00000000E+00  0.00000000E+00  0.00000000E+00
  0.00000000E+00  0.00000000E+00  0.00000000E+00
  0.00000000E+00  0.00000000E+00  0.00000000E+00
  0.00000000E+00  0.00000000E+00  0.00000000E+00
  0.00000000E+00  0.00000000E+00  0.00000000E+00
  0.00000000E+00  0.00000000E+00  0.00000000E+00
  0.00000000E+00  0.00000000E+00  0.00000000E+00
  0.00000000E+00  0.00000000E+00  0.00000000E+00
  0.00000000E+00  0.00000000E+00  0.00000000E+00
  0.00000000E+00  0.00000000E+00  0.00000000E+00
  0.00000000E+00  0.00000000E+00  0.00000000E+00
  0.00000000E+00  0.00000000E+00  0.00000000E+00
  0.00000000E+00  0.00000000E+00  0.00000000E+00
  0.00000000E+00  0.00000000E+00  0.00000000E+00
  0.00000000E+00  0.00000000E+00  0.00000000E+00
  0.00000000E+00  0.00000000E+00  0.00000000E+00
  0.00000000E+00  0.00000000E+00  0.00000000E+00
  0.00000000E+00  0.00000000E+00  0.00000000E+00
  0.00000000E+00  0.00000000E+00  0.00000000E+00
  0.00000000E+00  0.00000000E+00  0.00000000E+00
  0.00000000E+00  0.00000000E+00  0.00000000E+00
  0.00000000E+00  0.00000000E+00  0.00000000E+00
  0.00000000E+00  0.00000000E+00  0.00000000E+00
  0.00000000E+00  0.00000000E+00  0.00000000E+00
  0.00000000E+00  0.00000000E+00  0.00000000E+00
  0.00000000E+00  0.00000000E+00  0.00000000E+00
  0.00000000E+00  0.00000000E+00  0.00000000E+00
  0.00000000E+00  0.00000000E+00  0.00000000E+00
  0.00000000E+00  0.00000000E+00  0.00000000E+00
  0.00000000E+00  0.00000000E+00  0.00000000E+00
  0.00000000E+00  0.00000000E+00  0.00000000E+00
  0.00000000E+00  0.00000000E+00  0.00000000E+00
  0.00000000E+00  0.00000000E+00  0.00000000E+00
  0.00000000E+00  0.00000000E+00  0.00000000E+00
  0.00000000E+00  0.00000000E+00  0.00000000E+00
  0.00000000E+00  0.00000000E+00  0.00000000E+00
  0.00000000E+00  0.00000000E+00  0.00000000E+00
  0.00000000E+00  0.00000000E+00  0.00000000E+00
  0.00000000E+00  0.00000000E+00  0.00000000E+00
  0.00000000E+00  0.00000000E+00  0.00000000E+00
  0.00000000E+00  0.00000000E+00  0.00000000E+00
  0.00000000E+00  0.00000000E+00  0.00000000E+00
  0.00000000E+00  0.00000000E+00  0.00000000E+00
  0.00000000E+00  0.00000000E+00  0.00000000E+00
  0.00000000E+00  0.00000000E+00  0.00000000E+00
  0.00000000E+00  0.00000000E+00  0.00000000E+00
