Hf Ta                                   
    1.000000000000000     
    13.4841980299776285   -0.1007048267412596    0.0805701653499227
    -6.7577000654598294    9.5715569667865630   -0.0325795881897784
    -0.0981323004922400   -0.0272946832877883   19.0474458066643137
  Hf             Ta           
              28             100
Direct
  0.1832654838832960  0.8745865990970606  0.4380825288379523
  0.8116075363574508  0.6237316950452145  0.3143155685505456
  0.3097059884128796  0.6240908857682124  0.0659059955250844
  0.4401643020312495  0.6258725109443274  0.9362973902701341
  0.0703902328804778  0.6191307619174201  0.0690272087898856
  0.4369060799198122  0.1182363642807281  0.6859339316963448
  0.9357256770388727  0.8782234800277121  0.9316127140129028
  0.9373772191952594  0.6175809839700352  0.9419008792424384
  0.4274482521825770  0.6074188108421855  0.6851703536946210
  0.4352106664865503  0.3657800054991464  0.6892083533373300
  0.8097282556608136  0.1211589487500239  0.5609041815776430
  0.4392843433767197  0.6264499251155690  0.4377435271980368
  0.5477999408946275  0.3629316823110748  0.3147489193789543
  0.6889178708066063  0.3735437199362096  0.1866796877648089
  0.3112034729311297  0.8776627006093640  0.8116785781923711
  0.8107522703816967  0.6268125266640971  0.8119512316736295
  0.3189934280083890  0.8749757708422392  0.3124358391811994
  0.0608990080634939  0.3786634436404580  0.3118999691666359
  0.6882632268149047  0.8791204953631174  0.6831199726025196
  0.0657517579202801  0.1228375720334537  0.3129856017100028
  0.0642726385886849  0.1250599919637090  0.8125509008145976
  0.8101685973242175  0.1237083421513925  0.0634252851106235
  0.3277960488224881  0.8929381203500698  0.0552190431785029
  0.4504094712563211  0.8685121198050261  0.6876515006261809
  0.1886947834254284  0.8736918384099588  0.1868126995665851
  0.0540420426594773  0.8761224485598065  0.0637010680443492
  0.3148417606385438  0.8792103137449587  0.5660675661210962
  0.6938423395467310  0.1480479161285127  0.6897699222815501
  0.1852502377522970  0.3705896822406092  0.4394538821580588
  0.8130487747345251  0.8703137925802794  0.0654062346290220
  0.3171351373451115  0.3862356596664349  0.8153402645906199
  0.1805261641168049  0.3668467647840806  0.6890702201763608
  0.3164223597287442  0.1346121114584741  0.0645764079566479
  0.9455091053402126  0.3820393014556871  0.6865031117329674
  0.7997282403840139  0.6169936080346788  0.0662352108597093
  0.9392685703139140  0.1277229679302644  0.1886165155678759
  0.5653338243430042  0.3739007449104773  0.5610743386442345
  0.4458269277284193  0.8815836223809229  0.9350443276279460
  0.8109942865050114  0.3706773470508617  0.8113060283332039
  0.9342681540925007  0.6183858645725814  0.4409515179049983
  0.5678943779676356  0.8752691675820666  0.8197333323878359
  0.9370670411749853  0.6299872710108555  0.1872806951900869
  0.1857406770813416  0.8832039313449873  0.9336262501717308
  0.4351873707784207  0.3709305768231104  0.4428964081853407
  0.4376146153942235  0.1246463201050199  0.1883442125905502
  0.3124125314968145  0.3734508622966085  0.0616063812594603
  0.3075182664836262  0.6233660896276068  0.8117274916209198
  0.9348884695684176  0.8770048720792741  0.1926127978786346
  0.1878911466711067  0.6301037603783731  0.9322497496177933
  0.1845660077865952  0.6227772616120365  0.6868465808963814
  0.4362294799532245  0.1248061970713625  0.9387873120290002
  0.5600460982851091  0.3696084356777681  0.8162388396588081
  0.8166267539903642  0.1287622926414483  0.8146830616441435
  0.4401401301332402  0.8720208093656168  0.1858363986226691
  0.6795925470368116  0.6207637220447937  0.9406225126463329
  0.9431912462512619  0.1317489868958869  0.6879703917103592
  0.1850521401734440  0.3750138558009440  0.9368089860532991
  0.6883237286209191  0.1278327267168494  0.9366329815141218
  0.8104668405558033  0.1208900039923369  0.3125086018318460
  0.5675988733272518  0.6211577970658576  0.5607156819906604
  0.1873758184960544  0.1274504504220521  0.1839736699338356
  0.1907974658714377  0.3742072219242863  0.1867385246607912
  0.6905354559201771  0.6291204043466496  0.6840453050663992
  0.9362987149505807  0.8753475379069450  0.6883203397303471
  0.5635214376955449  0.8750773052772702  0.3118646196582510
  0.8177751181747215  0.8694591380304618  0.5596477113592596
  0.5712780601422396  0.1279443454944496  0.3107753403271700
  0.0560552391907952  0.6277835315750143  0.3147397215934258
  0.5517568278016377  0.8628476644122226  0.5524655484986433
  0.0594091804933887  0.6215580670196376  0.5612478736402267
  0.6839753347791183  0.6228668606930856  0.4394508646112446
  0.6846680213784571  0.6289741939984419  0.1868590278768621
  0.9398787131542380  0.1327496566460735  0.9379460285817283
  0.4408842764681957  0.6243988430579063  0.1890504019646028
  0.9392566629153958  0.3716657298950531  0.9369164736399931
  0.9361190828912026  0.3734806617936355  0.4417049577250313
  0.3200686736479789  0.6228553940959342  0.3106309539922918
  0.6950258106791463  0.8821034131565758  0.9410775992555400
  0.5615481094702928  0.6250636521140561  0.0652580869485561
  0.9372249242557803  0.8727616691042941  0.4372380402486590
  0.3215457363679491  0.3800215209024643  0.3131379651671041
  0.5609231083771313  0.8742637585833383  0.0621770508040394
  0.4373386449076033  0.3723807470182148  0.9379308771135297
  0.5654686599346410  0.6274540953354437  0.3103182616503316
  0.6883992956358589  0.1210220414390165  0.1905485424759483
  0.8073022891763996  0.8757290841793475  0.3132792364924243
  0.8128242445603945  0.3789397544257043  0.5632502030028236
  0.0743919120732879  0.8753129945382918  0.8081223616651557
  0.9388521750024982  0.1254903604095070  0.4375971976488152
  0.5672924477587274  0.6205433994637526  0.8122852940723456
  0.5604271628586091  0.3765565360334597  0.0610204339214076
  0.0624227549697785  0.3783187225996461  0.8125004660022310
  0.1740460176009897  0.8671138838524098  0.6855264175406433
  0.0607382552579959  0.1291271551429089  0.0629575885798619
  0.6887444540559395  0.1261038139014325  0.4337358155598132
  0.6887307708457806  0.3887616582886512  0.6890376986665757
  0.6895941307037521  0.3740541425180735  0.4384610126126623
  0.3093146243190519  0.3752916987084347  0.5620711407653454
  0.1866815039355458  0.6147152767827317  0.1986403143220117
  0.5686871821532933  0.1267475189504457  0.5544954661061530
  0.1881603358568574  0.6207352949981950  0.4363769235235561
  0.1939591582219691  0.1322579580579847  0.9415454762470218
  0.1791845737705985  0.1149066012305129  0.6829901405041832
  0.7993313975078209  0.8766103821254400  0.8113356611958610
  0.4413455523352994  0.1304362973719178  0.4346822767145206
  0.2997331134527550  0.1187679747024521  0.3120871669194461
  0.0588986837523083  0.8701100417779952  0.3119468965837692
  0.5731471047585335  0.1343913635330040  0.0644280305657599
  0.3029091041307519  0.6191604510438813  0.5608756352508810
  0.0600236385130746  0.1253382949981810  0.5621934878522105
  0.0586256468672098  0.6202648788947509  0.8097147825815406
  0.6934158349824602  0.8798554866211385  0.4380514481699397
  0.3104443389934284  0.1327740661141513  0.8136929547892341
  0.6814795235897261  0.3704285862605725  0.9360537633548009
  0.9343451991231084  0.3739096512432902  0.1835845281342349
  0.9379907998342886  0.6240188505904861  0.6846835395112260
  0.3095292521426194  0.1304872907841852  0.5593690994742095
  0.6881653058836126  0.8768958738365070  0.1868700903347401
  0.8182274857987233  0.3698816888482865  0.3147440633393020
  0.4365639484269973  0.3750862347717230  0.1846167119234580
  0.0629453043798051  0.3745120445198291  0.5625723123587593
  0.0627273990688935  0.3643311137965465  0.0626263841459628
  0.0580011444609045  0.8748928256521760  0.5641747667023181
  0.4412209564748499  0.8827496244423367  0.4372686398536102
  0.8123105308735609  0.6232125198539828  0.5614658058638310
  0.5665771048628333  0.1289412804997511  0.8187945971118031
  0.8124797974496902  0.3815820060946055  0.0571578570639653
  0.1862574929917383  0.1284518803296434  0.4409453806196575
 
  0.00000000E+00  0.00000000E+00  0.00000000E+00
  0.00000000E+00  0.00000000E+00  0.00000000E+00
  0.00000000E+00  0.00000000E+00  0.00000000E+00
  0.00000000E+00  0.00000000E+00  0.00000000E+00
  0.00000000E+00  0.00000000E+00  0.00000000E+00
  0.00000000E+00  0.00000000E+00  0.00000000E+00
  0.00000000E+00  0.00000000E+00  0.00000000E+00
  0.00000000E+00  0.00000000E+00  0.00000000E+00
  0.00000000E+00  0.00000000E+00  0.00000000E+00
  0.00000000E+00  0.00000000E+00  0.00000000E+00
  0.00000000E+00  0.00000000E+00  0.00000000E+00
  0.00000000E+00  0.00000000E+00  0.00000000E+00
  0.00000000E+00  0.00000000E+00  0.00000000E+00
  0.00000000E+00  0.00000000E+00  0.00000000E+00
  0.00000000E+00  0.00000000E+00  0.00000000E+00
  0.00000000E+00  0.00000000E+00  0.00000000E+00
  0.00000000E+00  0.00000000E+00  0.00000000E+00
  0.00000000E+00  0.00000000E+00  0.00000000E+00
  0.00000000E+00  0.00000000E+00  0.00000000E+00
  0.00000000E+00  0.00000000E+00  0.00000000E+00
  0.00000000E+00  0.00000000E+00  0.00000000E+00
  0.00000000E+00  0.00000000E+00  0.00000000E+00
  0.00000000E+00  0.00000000E+00  0.00000000E+00
  0.00000000E+00  0.00000000E+00  0.00000000E+00
  0.00000000E+00  0.00000000E+00  0.00000000E+00
  0.00000000E+00  0.00000000E+00  0.00000000E+00
  0.00000000E+00  0.00000000E+00  0.00000000E+00
  0.00000000E+00  0.00000000E+00  0.00000000E+00
  0.00000000E+00  0.00000000E+00  0.00000000E+00
  0.00000000E+00  0.00000000E+00  0.00000000E+00
  0.00000000E+00  0.00000000E+00  0.00000000E+00
  0.00000000E+00  0.00000000E+00  0.00000000E+00
  0.00000000E+00  0.00000000E+00  0.00000000E+00
  0.00000000E+00  0.00000000E+00  0.00000000E+00
  0.00000000E+00  0.00000000E+00  0.00000000E+00
  0.00000000E+00  0.00000000E+00  0.00000000E+00
  0.00000000E+00  0.00000000E+00  0.00000000E+00
  0.00000000E+00  0.00000000E+00  0.00000000E+00
  0.00000000E+00  0.00000000E+00  0.00000000E+00
  0.00000000E+00  0.00000000E+00  0.00000000E+00
  0.00000000E+00  0.00000000E+00  0.00000000E+00
  0.00000000E+00  0.00000000E+00  0.00000000E+00
  0.00000000E+00  0.00000000E+00  0.00000000E+00
  0.00000000E+00  0.00000000E+00  0.00000000E+00
  0.00000000E+00  0.00000000E+00  0.00000000E+00
  0.00000000E+00  0.00000000E+00  0.00000000E+00
  0.00000000E+00  0.00000000E+00  0.00000000E+00
  0.00000000E+00  0.00000000E+00  0.00000000E+00
  0.00000000E+00  0.00000000E+00  0.00000000E+00
  0.00000000E+00  0.00000000E+00  0.00000000E+00
  0.00000000E+00  0.00000000E+00  0.00000000E+00
  0.00000000E+00  0.00000000E+00  0.00000000E+00
  0.00000000E+00  0.00000000E+00  0.00000000E+00
  0.00000000E+00  0.00000000E+00  0.00000000E+00
  0.00000000E+00  0.00000000E+00  0.00000000E+00
  0.00000000E+00  0.00000000E+00  0.00000000E+00
  0.00000000E+00  0.00000000E+00  0.00000000E+00
  0.00000000E+00  0.00000000E+00  0.00000000E+00
  0.00000000E+00  0.00000000E+00  0.00000000E+00
  0.00000000E+00  0.00000000E+00  0.00000000E+00
  0.00000000E+00  0.00000000E+00  0.00000000E+00
  0.00000000E+00  0.00000000E+00  0.00000000E+00
  0.00000000E+00  0.00000000E+00  0.00000000E+00
  0.00000000E+00  0.00000000E+00  0.00000000E+00
  0.00000000E+00  0.00000000E+00  0.00000000E+00
  0.00000000E+00  0.00000000E+00  0.00000000E+00
  0.00000000E+00  0.00000000E+00  0.00000000E+00
  0.00000000E+00  0.00000000E+00  0.00000000E+00
  0.00000000E+00  0.00000000E+00  0.00000000E+00
  0.00000000E+00  0.00000000E+00  0.00000000E+00
  0.00000000E+00  0.00000000E+00  0.00000000E+00
  0.00000000E+00  0.00000000E+00  0.00000000E+00
  0.00000000E+00  0.00000000E+00  0.00000000E+00
  0.00000000E+00  0.00000000E+00  0.00000000E+00
  0.00000000E+00  0.00000000E+00  0.00000000E+00
  0.00000000E+00  0.00000000E+00  0.00000000E+00
  0.00000000E+00  0.00000000E+00  0.00000000E+00
  0.00000000E+00  0.00000000E+00  0.00000000E+00
  0.00000000E+00  0.00000000E+00  0.00000000E+00
  0.00000000E+00  0.00000000E+00  0.00000000E+00
  0.00000000E+00  0.00000000E+00  0.00000000E+00
  0.00000000E+00  0.00000000E+00  0.00000000E+00
  0.00000000E+00  0.00000000E+00  0.00000000E+00
  0.00000000E+00  0.00000000E+00  0.00000000E+00
  0.00000000E+00  0.00000000E+00  0.00000000E+00
  0.00000000E+00  0.00000000E+00  0.00000000E+00
  0.00000000E+00  0.00000000E+00  0.00000000E+00
  0.00000000E+00  0.00000000E+00  0.00000000E+00
  0.00000000E+00  0.00000000E+00  0.00000000E+00
  0.00000000E+00  0.00000000E+00  0.00000000E+00
  0.00000000E+00  0.00000000E+00  0.00000000E+00
  0.00000000E+00  0.00000000E+00  0.00000000E+00
  0.00000000E+00  0.00000000E+00  0.00000000E+00
  0.00000000E+00  0.00000000E+00  0.00000000E+00
  0.00000000E+00  0.00000000E+00  0.00000000E+00
  0.00000000E+00  0.00000000E+00  0.00000000E+00
  0.00000000E+00  0.00000000E+00  0.00000000E+00
  0.00000000E+00  0.00000000E+00  0.00000000E+00
  0.00000000E+00  0.00000000E+00  0.00000000E+00
  0.00000000E+00  0.00000000E+00  0.00000000E+00
  0.00000000E+00  0.00000000E+00  0.00000000E+00
  0.00000000E+00  0.00000000E+00  0.00000000E+00
  0.00000000E+00  0.00000000E+00  0.00000000E+00
  0.00000000E+00  0.00000000E+00  0.00000000E+00
  0.00000000E+00  0.00000000E+00  0.00000000E+00
  0.00000000E+00  0.00000000E+00  0.00000000E+00
  0.00000000E+00  0.00000000E+00  0.00000000E+00
  0.00000000E+00  0.00000000E+00  0.00000000E+00
  0.00000000E+00  0.00000000E+00  0.00000000E+00
  0.00000000E+00  0.00000000E+00  0.00000000E+00
  0.00000000E+00  0.00000000E+00  0.00000000E+00
  0.00000000E+00  0.00000000E+00  0.00000000E+00
  0.00000000E+00  0.00000000E+00  0.00000000E+00
  0.00000000E+00  0.00000000E+00  0.00000000E+00
  0.00000000E+00  0.00000000E+00  0.00000000E+00
  0.00000000E+00  0.00000000E+00  0.00000000E+00
  0.00000000E+00  0.00000000E+00  0.00000000E+00
  0.00000000E+00  0.00000000E+00  0.00000000E+00
  0.00000000E+00  0.00000000E+00  0.00000000E+00
  0.00000000E+00  0.00000000E+00  0.00000000E+00
  0.00000000E+00  0.00000000E+00  0.00000000E+00
  0.00000000E+00  0.00000000E+00  0.00000000E+00
  0.00000000E+00  0.00000000E+00  0.00000000E+00
  0.00000000E+00  0.00000000E+00  0.00000000E+00
  0.00000000E+00  0.00000000E+00  0.00000000E+00
  0.00000000E+00  0.00000000E+00  0.00000000E+00
  0.00000000E+00  0.00000000E+00  0.00000000E+00
  0.00000000E+00  0.00000000E+00  0.00000000E+00
