Nb Ta                                   
    1.000000000000000     
    13.2641284352238635   -0.0019879915199133   -0.0000648654567762
    -0.0019879240879768   13.2654411006060187    0.0008391292985378
    -0.0000648734847663    0.0008391252737254   13.2650673815791684
   Nb   Ta
    40    88
Direct
  0.2483611871520692  0.5000906016668256  0.7505228894221113
  0.7492161548544386  0.4985323394508428  0.4998369398615169
  0.7501269933118739  0.2506052936858954  0.0010342847872330
  0.3743707652216506  0.1250621123444824  0.1256825905594997
  0.3767556246091496  0.6241228517470724  0.8751051940919271
  0.2494589251747596  0.0002111052396649  0.4994976978202875
  0.2493040741626284  0.7475541780742556 -0.0003165469708018
  0.7505812363081531  0.0018836864231884  0.4978242947668546
  0.6240789231931166  0.1246867377657982  0.3754454053061494
  0.0006583301314480  0.5002610916669706 -0.0028706843917511
  0.7489678612472723  0.2515455232162391  0.7485633096844212
  0.5010633305046990  0.5000840116947552  0.2510759985254384
  0.7481665859127077 -0.0007383919488719  0.7513125106677181
  0.3743154413492875  0.1239802885167665  0.8741349331507957
  0.2498525955447437  0.5011326435533974  0.2503026122553070
  0.1241638652814762  0.3739768327391148  0.8746332760321220
  0.2502756452059547  0.2489635812303147  0.2484061838428977
  0.1253027995627588  0.8749733951425783  0.1235992608877303
  0.2500121553708072  0.2523367783258525  0.5019944528026705
  0.8742978012927741  0.8739253315596680  0.3754633942128212
  0.0002470998355516 -0.0010265400660272  0.7494058108656635
  0.3751376606775210  0.3750461052879399  0.6259185132957378
  0.2514219871298726  0.0008056818393194  0.7502094264707529
  0.7501801896745676  0.7496542132804492  0.7516109354659218
  0.8743777355574424  0.1253482093587287  0.1233581791599890
  0.7505393680097499  0.7500848560420446  0.4987867248657064
  0.1253562758609619  0.6256248857581306  0.8756753780923111
  0.8759113424156080  0.1252580549475274  0.3762393185589533
  0.6248953337652227  0.3747995106096849  0.8749949435126705
  0.6256227072016594  0.8750816053571989  0.8744702286089910
  0.2498285715291379  0.7484822259841331  0.5001043532007380
  0.8747735657357638  0.3752437511880766  0.6254007935616122
  0.5002717482476915  0.4998088415294880 -0.0009047153998918
  0.0010150837198672  0.4994218107461819  0.5020201667504097
 -0.0006874259658719  0.4998397414391447  0.2503070050062283
  0.7519924423694770  0.4995631187898848  0.7513535180770736
  0.0013656321161571  0.2522808684117770  0.7495368699107090
  0.8734215794121383  0.6249090211106378  0.8748450560276583
  0.4997053875025741  0.4997586429196052  0.7484595157812201
  0.2501610945351336  0.0017412519183498  0.0017970212009866
  0.3747315268968958  0.3740608639612946  0.3722811338012527
  0.4977631524806730  0.2484081751380891 -0.0006473168120962
  0.1245705932992849  0.3746041491297145  0.6240945775762669
  0.3723865208916501  0.8753125867636780  0.8761829952871372
  0.1255024388076512  0.8774405376926336  0.8741216515750420
  0.8736833607476505  0.6262038285522320  0.6232728883114421
 -0.0014190884918664  0.0002815446576181  0.0020166911274738
  0.7506976094163531  0.2498878111921982  0.4988585717128770
  0.2518439070818660  0.4991455824443282  0.5002774710588961
  0.1254715059251529  0.8757525018160623  0.6254766376107044
  0.8764651255481080  0.8761917274684147  0.8738782016413038
  0.2495893171327321  0.7486263135153459  0.7508127172310742
  0.1274322562431009  0.1255696276940994  0.3750578681876375
  0.5013288493361775  0.7510291187456696 -0.0013444954472928
 -0.0002716035298142 -0.0002642354982060  0.2503637174029349
  0.1257103169376831  0.1262733381406076  0.1252552012025510
  0.7508069314187987  0.0007857623355776  0.2497627273515856
  0.0016444735957214  0.2489219872737796  0.0010922376185347
  0.6248564434201591  0.8753181100341043  0.1264892100746720
  0.5012473483295160  0.2476874772063985  0.2502955200991920
  0.0004004125950499  0.7523872058073052  0.2507254205147614
  0.1249371100733570  0.3743067967503997  0.3742227558943356
  0.2501960023683155 -0.0017948222463689  0.2487621969138194
  0.8740853052899584  0.8753442954138392  0.6272236405197813
  0.5001224303971270 -0.0004846309569132  0.7503040268259857
  0.6266342950514964  0.8749584586825955  0.6234280011242903
  0.3759939154378918  0.3763413980562194  0.8757261694500179
  0.8766193652545573  0.6248444166160290  0.1258360086784293
  0.7505287670180250  0.7493760754515443  0.2494835515964842
  0.3739122938558168  0.8753517600899036  0.6247092751734837
  0.8748136932948466  0.1234881554282556  0.6280025914509081
 -0.0007723031523368  0.0001258262041989  0.4987592889343042
  0.6236957145044619  0.6247298601186096  0.1245863217215958
  0.8755413128743812  0.6230781937673028  0.3758490789840433
  0.5010400162750247  0.0004612274028479 -0.0010345184861388
  0.1247566981787205  0.1251523510067234  0.6256654392660499
  0.3743673047060162  0.1237164520542805  0.6233509439531143
  0.0015093535379715  0.7473891490636235  0.7502379132349450
  0.6243516982429312  0.8739203329782349  0.3750974749127673
  0.5015166070790759  0.2503881845651528  0.5004582190654715
  0.3760985868222937  0.8735656367145690  0.1232969356584601
  0.6262141801834419  0.6249550716294379  0.6258620745475562
  0.7506111708960502  0.2493046643057455  0.2519574007580089
  0.3752685894366173  0.3766831604030689  0.1255871582166511
  0.1242096329787083  0.6232122410320384  0.1263381809317523
  0.1233238785079630  0.1231684890203985  0.8743698760751142
  0.6256049914792498  0.1254937676028409  0.1230286530713372
  0.4988243606034808  0.7519791716357821  0.7500649493546405
  0.5008142033397265  0.0004514794618072  0.5000226703977462
  0.6250285185218216  0.3765632421230268  0.3748713860592674
  0.6272914763532954  0.1259997434729632  0.8748284406119953
  0.4997516401738309  0.7509438871736056  0.2502614663593908
  0.7504390123644853 -0.0012569019659629  0.0006576107745587
  0.8757019319578517  0.3761230985914379  0.1242155737465669
 -0.0020688781530204  0.2477650440462637  0.2504383031292047
  0.7497287473157779  0.5001899957843839  0.2480910974075760
  0.3745838886439914  0.8750346741550066  0.3757076498607193
  0.3747245149831829  0.6262617413127932  0.6250022353239260
  0.5000556702960119  0.7495842854049011  0.5007345564769076
  0.6241934775003345  0.3742196327841572  0.1253037535714646
  0.1248943325192787  0.3752627398259396  0.1272249818908542
  0.3746107553380412  0.6252220813566485  0.3740207046410761
  0.4979404890568264  0.4996931883392264  0.5008590519994320
  0.1252896579971254  0.6247641154829130  0.6230805121581767
  0.2514327804314505  0.2507212941613549  0.7516089475558539
  0.6261239854561037  0.1249344039168163  0.6266762382406248
  0.7499281484680747  0.5011311734847764  0.0006974115498606
 -0.0004314891554124  0.7505749187920731 -0.0009905902276059
  0.4982597903609961  0.2489142869739149  0.7498216314871240
  0.6252363363355601  0.6246472677680904  0.3755084190346614
 -0.0020854056712328  0.2485998562057424  0.4993234784981930
 -0.0002379511193661  0.5017153265940523  0.7503048378752880
 -0.0003989968193586  0.7519178090760587  0.5003065964508892
  0.8738899308997201  0.8735722010889189  0.1240770888993252
  0.8754915257085781  0.3774255494434155  0.3740563720886205
  0.2491345826296728  0.4989482292567002 -0.0010648357852166
  0.8750418103444060  0.1259536057543314  0.8725603095336176
  0.6256061226613540  0.3754021777299802  0.6247539308755524
  0.6246317233884008  0.6243207471825524  0.8737267048207441
  0.2490592132005956  0.7516316008459278  0.2491541630855073
  0.8746959620080187  0.3727208985863799  0.8766550424599185
  0.4994600296978862  0.0009444495680891  0.2504051460344085
  0.7498275341795266  0.7493502656038640  0.0001671080498698
  0.3752008919939763  0.6244803716926330  0.1257007890832374
  0.1245288647383515  0.6246164373978783  0.3749889673386111
  0.1267557955759069  0.8755031460332028  0.3768375939871482
  0.3724767374753899  0.1258113821984789  0.3769010101022216
  0.2500785950028584  0.2517450078872649 -0.0018306307288666
 
  0.00000000E+00  0.00000000E+00  0.00000000E+00
  0.00000000E+00  0.00000000E+00  0.00000000E+00
  0.00000000E+00  0.00000000E+00  0.00000000E+00
  0.00000000E+00  0.00000000E+00  0.00000000E+00
  0.00000000E+00  0.00000000E+00  0.00000000E+00
  0.00000000E+00  0.00000000E+00  0.00000000E+00
  0.00000000E+00  0.00000000E+00  0.00000000E+00
  0.00000000E+00  0.00000000E+00  0.00000000E+00
  0.00000000E+00  0.00000000E+00  0.00000000E+00
  0.00000000E+00  0.00000000E+00  0.00000000E+00
  0.00000000E+00  0.00000000E+00  0.00000000E+00
  0.00000000E+00  0.00000000E+00  0.00000000E+00
  0.00000000E+00  0.00000000E+00  0.00000000E+00
  0.00000000E+00  0.00000000E+00  0.00000000E+00
  0.00000000E+00  0.00000000E+00  0.00000000E+00
  0.00000000E+00  0.00000000E+00  0.00000000E+00
  0.00000000E+00  0.00000000E+00  0.00000000E+00
  0.00000000E+00  0.00000000E+00  0.00000000E+00
  0.00000000E+00  0.00000000E+00  0.00000000E+00
  0.00000000E+00  0.00000000E+00  0.00000000E+00
  0.00000000E+00  0.00000000E+00  0.00000000E+00
  0.00000000E+00  0.00000000E+00  0.00000000E+00
  0.00000000E+00  0.00000000E+00  0.00000000E+00
  0.00000000E+00  0.00000000E+00  0.00000000E+00
  0.00000000E+00  0.00000000E+00  0.00000000E+00
  0.00000000E+00  0.00000000E+00  0.00000000E+00
  0.00000000E+00  0.00000000E+00  0.00000000E+00
  0.00000000E+00  0.00000000E+00  0.00000000E+00
  0.00000000E+00  0.00000000E+00  0.00000000E+00
  0.00000000E+00  0.00000000E+00  0.00000000E+00
  0.00000000E+00  0.00000000E+00  0.00000000E+00
  0.00000000E+00  0.00000000E+00  0.00000000E+00
  0.00000000E+00  0.00000000E+00  0.00000000E+00
  0.00000000E+00  0.00000000E+00  0.00000000E+00
  0.00000000E+00  0.00000000E+00  0.00000000E+00
  0.00000000E+00  0.00000000E+00  0.00000000E+00
  0.00000000E+00  0.00000000E+00  0.00000000E+00
  0.00000000E+00  0.00000000E+00  0.00000000E+00
  0.00000000E+00  0.00000000E+00  0.00000000E+00
  0.00000000E+00  0.00000000E+00  0.00000000E+00
  0.00000000E+00  0.00000000E+00  0.00000000E+00
  0.00000000E+00  0.00000000E+00  0.00000000E+00
  0.00000000E+00  0.00000000E+00  0.00000000E+00
  0.00000000E+00  0.00000000E+00  0.00000000E+00
  0.00000000E+00  0.00000000E+00  0.00000000E+00
  0.00000000E+00  0.00000000E+00  0.00000000E+00
  0.00000000E+00  0.00000000E+00  0.00000000E+00
  0.00000000E+00  0.00000000E+00  0.00000000E+00
  0.00000000E+00  0.00000000E+00  0.00000000E+00
  0.00000000E+00  0.00000000E+00  0.00000000E+00
  0.00000000E+00  0.00000000E+00  0.00000000E+00
  0.00000000E+00  0.00000000E+00  0.00000000E+00
  0.00000000E+00  0.00000000E+00  0.00000000E+00
  0.00000000E+00  0.00000000E+00  0.00000000E+00
  0.00000000E+00  0.00000000E+00  0.00000000E+00
  0.00000000E+00  0.00000000E+00  0.00000000E+00
  0.00000000E+00  0.00000000E+00  0.00000000E+00
  0.00000000E+00  0.00000000E+00  0.00000000E+00
  0.00000000E+00  0.00000000E+00  0.00000000E+00
  0.00000000E+00  0.00000000E+00  0.00000000E+00
  0.00000000E+00  0.00000000E+00  0.00000000E+00
  0.00000000E+00  0.00000000E+00  0.00000000E+00
  0.00000000E+00  0.00000000E+00  0.00000000E+00
  0.00000000E+00  0.00000000E+00  0.00000000E+00
  0.00000000E+00  0.00000000E+00  0.00000000E+00
  0.00000000E+00  0.00000000E+00  0.00000000E+00
  0.00000000E+00  0.00000000E+00  0.00000000E+00
  0.00000000E+00  0.00000000E+00  0.00000000E+00
  0.00000000E+00  0.00000000E+00  0.00000000E+00
  0.00000000E+00  0.00000000E+00  0.00000000E+00
  0.00000000E+00  0.00000000E+00  0.00000000E+00
  0.00000000E+00  0.00000000E+00  0.00000000E+00
  0.00000000E+00  0.00000000E+00  0.00000000E+00
  0.00000000E+00  0.00000000E+00  0.00000000E+00
  0.00000000E+00  0.00000000E+00  0.00000000E+00
  0.00000000E+00  0.00000000E+00  0.00000000E+00
  0.00000000E+00  0.00000000E+00  0.00000000E+00
  0.00000000E+00  0.00000000E+00  0.00000000E+00
  0.00000000E+00  0.00000000E+00  0.00000000E+00
  0.00000000E+00  0.00000000E+00  0.00000000E+00
  0.00000000E+00  0.00000000E+00  0.00000000E+00
  0.00000000E+00  0.00000000E+00  0.00000000E+00
  0.00000000E+00  0.00000000E+00  0.00000000E+00
  0.00000000E+00  0.00000000E+00  0.00000000E+00
  0.00000000E+00  0.00000000E+00  0.00000000E+00
  0.00000000E+00  0.00000000E+00  0.00000000E+00
  0.00000000E+00  0.00000000E+00  0.00000000E+00
  0.00000000E+00  0.00000000E+00  0.00000000E+00
  0.00000000E+00  0.00000000E+00  0.00000000E+00
  0.00000000E+00  0.00000000E+00  0.00000000E+00
  0.00000000E+00  0.00000000E+00  0.00000000E+00
  0.00000000E+00  0.00000000E+00  0.00000000E+00
  0.00000000E+00  0.00000000E+00  0.00000000E+00
  0.00000000E+00  0.00000000E+00  0.00000000E+00
  0.00000000E+00  0.00000000E+00  0.00000000E+00
  0.00000000E+00  0.00000000E+00  0.00000000E+00
  0.00000000E+00  0.00000000E+00  0.00000000E+00
  0.00000000E+00  0.00000000E+00  0.00000000E+00
  0.00000000E+00  0.00000000E+00  0.00000000E+00
  0.00000000E+00  0.00000000E+00  0.00000000E+00
  0.00000000E+00  0.00000000E+00  0.00000000E+00
  0.00000000E+00  0.00000000E+00  0.00000000E+00
  0.00000000E+00  0.00000000E+00  0.00000000E+00
  0.00000000E+00  0.00000000E+00  0.00000000E+00
  0.00000000E+00  0.00000000E+00  0.00000000E+00
  0.00000000E+00  0.00000000E+00  0.00000000E+00
  0.00000000E+00  0.00000000E+00  0.00000000E+00
  0.00000000E+00  0.00000000E+00  0.00000000E+00
  0.00000000E+00  0.00000000E+00  0.00000000E+00
  0.00000000E+00  0.00000000E+00  0.00000000E+00
  0.00000000E+00  0.00000000E+00  0.00000000E+00
  0.00000000E+00  0.00000000E+00  0.00000000E+00
  0.00000000E+00  0.00000000E+00  0.00000000E+00
  0.00000000E+00  0.00000000E+00  0.00000000E+00
  0.00000000E+00  0.00000000E+00  0.00000000E+00
  0.00000000E+00  0.00000000E+00  0.00000000E+00
  0.00000000E+00  0.00000000E+00  0.00000000E+00
  0.00000000E+00  0.00000000E+00  0.00000000E+00
  0.00000000E+00  0.00000000E+00  0.00000000E+00
  0.00000000E+00  0.00000000E+00  0.00000000E+00
  0.00000000E+00  0.00000000E+00  0.00000000E+00
  0.00000000E+00  0.00000000E+00  0.00000000E+00
  0.00000000E+00  0.00000000E+00  0.00000000E+00
  0.00000000E+00  0.00000000E+00  0.00000000E+00
  0.00000000E+00  0.00000000E+00  0.00000000E+00
  0.00000000E+00  0.00000000E+00  0.00000000E+00
  0.00000000E+00  0.00000000E+00  0.00000000E+00
  0.00000000E+00  0.00000000E+00  0.00000000E+00
