Hf Ta                                   
    1.000000000000000     
    12.6868785662536343    0.1174836242639854   -0.0215884134466312
    -6.2425654129504284   10.8456948929775265    0.0236865271440241
    -0.0347866339530504    0.0239074281767493   20.0578457861423871
  Hf             Ta           
             104              24
Direct
  0.6706006481667655  0.0812436227916646  0.9393796683868929
  0.6678130352280653  0.8315564579920653  0.6869256958525941
  0.5914030500317566  0.4186602314563683  0.5617318940940570
  0.0859939981427975  0.9202395198783256  0.8116162827156890
  0.5867195827665080  0.4159106146699019  0.3127214647191405
  0.1725673785892179  0.3390115246317703  0.4369216018361206
  0.6676497247280685  0.3312483896629443  0.9371734063035478
  0.6649739958852744  0.5842123652240243  0.4381817527501535
  0.6657956881268087  0.0778149386369052  0.6852480460396706
  0.6701696181196224  0.3312819651927406  0.6878758374673282
  0.5860881593709641  0.6588326831152671  0.3084397435868192
  0.5799103564589730  0.4100528754499756  0.8133228388172675
  0.9158260038388816  0.3303452707090998  0.6851999633020233
  0.9105150267989266  0.3185383713045482  0.4355573053674829
  0.3313923644277842  0.9172128034151802  0.0633103896137660
  0.3310343324045035  0.9243567181700884  0.5621805397693237
  0.0764556660608416  0.1766417566574110  0.3077417171191652
  0.3300848786742386  0.1766729868013494  0.3114982419679299
  0.1688943958937638  0.8278583317604884  0.6870280972924906
  0.9167895216839705  0.8300132792842515  0.6855539957744458
  0.6700516351972678  0.3327307567234641  0.1877558305168062
  0.8321397055326926  0.4063322940203204  0.0648128453219290
  0.5803715775729066  0.1603532049354496  0.3131921575366043
  0.3306284509400045  0.4185667447213498  0.0633753122129723
  0.5721594286581497  0.8990828085018114  0.5597862993402110
  0.0865406851744203  0.9156917438321710  0.0656074046681586
  0.6663892189554550  0.3286934693645336  0.4377221235687021
  0.8354657120665591  0.4144993165436349  0.8127959193122667
  0.3181401752308727  0.6749274055370642  0.5608499987670093
  0.1670598735688586  0.0858180564195940  0.9401980133080386
  0.3310701974749771  0.4329479008891650  0.3122719089338863
  0.4146384021807812  0.0841085144986964  0.9367088166713373
  0.9066831618529945  0.5719984220139294  0.4402666544455395
  0.0918307738004196  0.9235648837749789  0.3115030293322148
  0.4174776537196456  0.8382341150580900  0.6874847340527824
  0.6686707711097852  0.8274237520308179  0.1871096549330224
  0.9234342162569608  0.0784534170677646  0.6847573795698627
  0.6658962660478110  0.0767047170262624  0.4370291553063577
  0.0797018150329976  0.4229823007887219  0.3099938800477520
  0.9291197080716559  0.8343972411290356  0.4368171009810514
  0.6659185176440909  0.8294217186295110  0.9390885466350247
  0.3387415881186647  0.4337854249243490  0.5625113644311396
  0.0872869735114011  0.6676198103816444  0.0622763319419358
  0.0928614719780264  0.1712714744714722  0.5592705560569570
  0.4243266995323966  0.6114117475135177  0.4377270829531147
  0.1632853702203740  0.5832326228831731  0.6867996501023926
  0.0790238450116664  0.4152722074614363  0.8135527666777119
  0.9282658449651382  0.3139174996751691  0.1859728352691287
  0.4223885353577702  0.3403662990731880  0.6844061833448843
  0.4276945147570407  0.3591771993594675  0.1889608130423373
  0.5794905075843795  0.9109146125879996  0.0658521904901636
  0.1761168400162876  0.0938608345110194  0.6851793137534121
  0.8268790202519867  0.1561438047677345  0.5613642984727543
  0.1665721377979973  0.0914245530417153  0.1871154208815020
  0.1790292587887218  0.3311578050183742  0.9340132021515004
  0.1790270003160626  0.8215907969687861  0.1938715303757251
  0.8289844320914808  0.4039743362027013  0.3120456851638013
  0.6698068051219080  0.5826172822807444  0.9369673581741165
  0.4155669669232185  0.3412074957801676  0.4386891146948839
  0.6670018341547007  0.5838220637756344  0.6877682685503165
  0.5778303271709000  0.6641744840442866  0.8109284874743211
  0.4127534235605427  0.0840723146733743  0.6884468062260636
  0.4122204561936430  0.0900595089139000  0.4377695786081019
  0.8364885308535497  0.9174198961870560  0.3121952534464937
  0.5822456991304826  0.1614907174301414  0.0633293501873527
  0.8316925892603353  0.6601791775709649  0.3127938476416188
  0.3370375394829612  0.6691027459594190  0.0663031973058573
  0.4185203254539865  0.5814958170451322  0.9380327425402905
  0.1671860269763666  0.3369846398881867  0.6865921345860543
  0.8330227634684519  0.1630373576428341  0.8111084857239410
  0.3351205412347688  0.1769817097422365  0.0634278252779781
  0.3135535410184040  0.6867252127913681  0.3130176860474255
  0.8339114372528513  0.9151441162427406  0.8132659276120707
  0.0712936437180109  0.4154174932531439  0.5603152466352629
  0.5786610917642830  0.1574301867893763  0.8126420835384802
  0.9251542298761970  0.8307545695460450  0.9383231024532613
  0.3293381075655938  0.6648882921458120  0.8101213932821640
  0.9148383719179005  0.5807454444777923  0.6852400307034368
  0.3270061574292840  0.1714095827753302  0.8137945875939040
  0.5846994235921158  0.4142433634616205  0.0620909736817713
  0.8322919615537629  0.6596738436975184  0.0646601265803071
  0.9324998703928954  0.5759916617170945  0.1904198066773619
  0.1714040734038212  0.5934362116053225  0.9354423057298304
  0.4168708162982644  0.8380889870211455  0.9378028986970076
  0.1539561485648963  0.5822406820812799  0.4383046299702868
  0.5731549177945886  0.8997020847024760  0.3135715697945400
  0.5812245064764520  0.1645844854895535  0.5627398171437406
  0.0689624568790652  0.1709704302218051  0.0673844234649536
  0.5815055264891100  0.6547830100143717  0.0664224733528856
  0.4145332581168490  0.0879963623352491  0.1879181538704684
  0.9235278573359119  0.0870940780451144  0.9375736260637649
  0.8369885580996006  0.6657948965711323  0.8121474927801728
  0.0873283977712474  0.4201570498104830  0.0578606692196677
  0.0800233043673902  0.9220627417945103  0.5609678996569909
  0.9145867036728424  0.3251317494398710  0.9394172643377643
  0.6690636392690995  0.0798879022266646  0.1911036918292368
  0.9244051674147360  0.0785665096923157  0.4385721043609627
  0.9217849913482717  0.5799992714548995  0.9383051992225594
  0.3359079604240358  0.4194049289267703  0.8088878207846273
  0.6805110922983664  0.8327276183822084  0.4385917134140483
  0.9203347751959028  0.8274952235485615  0.1885089735619283
  0.1740301223752674  0.8284705466184851  0.4348869998508396
  0.8336488563220207  0.9135076161932038  0.0623052781111965
  0.5796568648979842  0.9150826338347574  0.8131604154449447
  0.8200522567186985  0.8988254306820239  0.5635280340185241
  0.0867206830303033  0.6754620823137916  0.8114813497260887
  0.0523532022901456  0.6606751734513164  0.5627330914794665
  0.4173313765412355  0.6091165213774303  0.1946465197908090
  0.4150593894249426  0.8506612139964735  0.4356663191238327
  0.1776791793257335  0.5755668438402508  0.1831964497987024
  0.0745308878460767  0.1614256357080220  0.8102328163321634
  0.1838570060820445  0.3519725105456660  0.1860303894155588
  0.9044597191968470  0.0694415327459861  0.1883608731134695
  0.4225872232381577  0.5989941356903696  0.6831736340537462
  0.0628041199200529  0.6594394339163399  0.3186511971628281
  0.1715270679902487  0.8410602712889584  0.9371835207816953
  0.3437682679112853  0.9314432315662063  0.3126300610771288
  0.8229653845495281  0.6713801475082276  0.5615912636219327
  0.8271302927953008  0.1517858190786499  0.3128235089748600
  0.3144853252768026  0.9037192118245987  0.8153700904715434
  0.1739543667723666  0.0835040720974582  0.4349465475176701
  0.3352814384517592  0.1780921304283707  0.5608520940591023
  0.8291601041171134  0.4118657300476282  0.5615835225077399
  0.5850924831590717  0.6596109937936838  0.5637817272870745
  0.6825932777119758  0.5823953328730005  0.1873205453195052
  0.4253130954305383  0.3403608185608506  0.9379897848160955
  0.8229742471870739  0.1492045637434324  0.0662683331191719
  0.4211293813634858  0.8479854939267698  0.1921850171801751
 
  0.00000000E+00  0.00000000E+00  0.00000000E+00
  0.00000000E+00  0.00000000E+00  0.00000000E+00
  0.00000000E+00  0.00000000E+00  0.00000000E+00
  0.00000000E+00  0.00000000E+00  0.00000000E+00
  0.00000000E+00  0.00000000E+00  0.00000000E+00
  0.00000000E+00  0.00000000E+00  0.00000000E+00
  0.00000000E+00  0.00000000E+00  0.00000000E+00
  0.00000000E+00  0.00000000E+00  0.00000000E+00
  0.00000000E+00  0.00000000E+00  0.00000000E+00
  0.00000000E+00  0.00000000E+00  0.00000000E+00
  0.00000000E+00  0.00000000E+00  0.00000000E+00
  0.00000000E+00  0.00000000E+00  0.00000000E+00
  0.00000000E+00  0.00000000E+00  0.00000000E+00
  0.00000000E+00  0.00000000E+00  0.00000000E+00
  0.00000000E+00  0.00000000E+00  0.00000000E+00
  0.00000000E+00  0.00000000E+00  0.00000000E+00
  0.00000000E+00  0.00000000E+00  0.00000000E+00
  0.00000000E+00  0.00000000E+00  0.00000000E+00
  0.00000000E+00  0.00000000E+00  0.00000000E+00
  0.00000000E+00  0.00000000E+00  0.00000000E+00
  0.00000000E+00  0.00000000E+00  0.00000000E+00
  0.00000000E+00  0.00000000E+00  0.00000000E+00
  0.00000000E+00  0.00000000E+00  0.00000000E+00
  0.00000000E+00  0.00000000E+00  0.00000000E+00
  0.00000000E+00  0.00000000E+00  0.00000000E+00
  0.00000000E+00  0.00000000E+00  0.00000000E+00
  0.00000000E+00  0.00000000E+00  0.00000000E+00
  0.00000000E+00  0.00000000E+00  0.00000000E+00
  0.00000000E+00  0.00000000E+00  0.00000000E+00
  0.00000000E+00  0.00000000E+00  0.00000000E+00
  0.00000000E+00  0.00000000E+00  0.00000000E+00
  0.00000000E+00  0.00000000E+00  0.00000000E+00
  0.00000000E+00  0.00000000E+00  0.00000000E+00
  0.00000000E+00  0.00000000E+00  0.00000000E+00
  0.00000000E+00  0.00000000E+00  0.00000000E+00
  0.00000000E+00  0.00000000E+00  0.00000000E+00
  0.00000000E+00  0.00000000E+00  0.00000000E+00
  0.00000000E+00  0.00000000E+00  0.00000000E+00
  0.00000000E+00  0.00000000E+00  0.00000000E+00
  0.00000000E+00  0.00000000E+00  0.00000000E+00
  0.00000000E+00  0.00000000E+00  0.00000000E+00
  0.00000000E+00  0.00000000E+00  0.00000000E+00
  0.00000000E+00  0.00000000E+00  0.00000000E+00
  0.00000000E+00  0.00000000E+00  0.00000000E+00
  0.00000000E+00  0.00000000E+00  0.00000000E+00
  0.00000000E+00  0.00000000E+00  0.00000000E+00
  0.00000000E+00  0.00000000E+00  0.00000000E+00
  0.00000000E+00  0.00000000E+00  0.00000000E+00
  0.00000000E+00  0.00000000E+00  0.00000000E+00
  0.00000000E+00  0.00000000E+00  0.00000000E+00
  0.00000000E+00  0.00000000E+00  0.00000000E+00
  0.00000000E+00  0.00000000E+00  0.00000000E+00
  0.00000000E+00  0.00000000E+00  0.00000000E+00
  0.00000000E+00  0.00000000E+00  0.00000000E+00
  0.00000000E+00  0.00000000E+00  0.00000000E+00
  0.00000000E+00  0.00000000E+00  0.00000000E+00
  0.00000000E+00  0.00000000E+00  0.00000000E+00
  0.00000000E+00  0.00000000E+00  0.00000000E+00
  0.00000000E+00  0.00000000E+00  0.00000000E+00
  0.00000000E+00  0.00000000E+00  0.00000000E+00
  0.00000000E+00  0.00000000E+00  0.00000000E+00
  0.00000000E+00  0.00000000E+00  0.00000000E+00
  0.00000000E+00  0.00000000E+00  0.00000000E+00
  0.00000000E+00  0.00000000E+00  0.00000000E+00
  0.00000000E+00  0.00000000E+00  0.00000000E+00
  0.00000000E+00  0.00000000E+00  0.00000000E+00
  0.00000000E+00  0.00000000E+00  0.00000000E+00
  0.00000000E+00  0.00000000E+00  0.00000000E+00
  0.00000000E+00  0.00000000E+00  0.00000000E+00
  0.00000000E+00  0.00000000E+00  0.00000000E+00
  0.00000000E+00  0.00000000E+00  0.00000000E+00
  0.00000000E+00  0.00000000E+00  0.00000000E+00
  0.00000000E+00  0.00000000E+00  0.00000000E+00
  0.00000000E+00  0.00000000E+00  0.00000000E+00
  0.00000000E+00  0.00000000E+00  0.00000000E+00
  0.00000000E+00  0.00000000E+00  0.00000000E+00
  0.00000000E+00  0.00000000E+00  0.00000000E+00
  0.00000000E+00  0.00000000E+00  0.00000000E+00
  0.00000000E+00  0.00000000E+00  0.00000000E+00
  0.00000000E+00  0.00000000E+00  0.00000000E+00
  0.00000000E+00  0.00000000E+00  0.00000000E+00
  0.00000000E+00  0.00000000E+00  0.00000000E+00
  0.00000000E+00  0.00000000E+00  0.00000000E+00
  0.00000000E+00  0.00000000E+00  0.00000000E+00
  0.00000000E+00  0.00000000E+00  0.00000000E+00
  0.00000000E+00  0.00000000E+00  0.00000000E+00
  0.00000000E+00  0.00000000E+00  0.00000000E+00
  0.00000000E+00  0.00000000E+00  0.00000000E+00
  0.00000000E+00  0.00000000E+00  0.00000000E+00
  0.00000000E+00  0.00000000E+00  0.00000000E+00
  0.00000000E+00  0.00000000E+00  0.00000000E+00
  0.00000000E+00  0.00000000E+00  0.00000000E+00
  0.00000000E+00  0.00000000E+00  0.00000000E+00
  0.00000000E+00  0.00000000E+00  0.00000000E+00
  0.00000000E+00  0.00000000E+00  0.00000000E+00
  0.00000000E+00  0.00000000E+00  0.00000000E+00
  0.00000000E+00  0.00000000E+00  0.00000000E+00
  0.00000000E+00  0.00000000E+00  0.00000000E+00
  0.00000000E+00  0.00000000E+00  0.00000000E+00
  0.00000000E+00  0.00000000E+00  0.00000000E+00
  0.00000000E+00  0.00000000E+00  0.00000000E+00
  0.00000000E+00  0.00000000E+00  0.00000000E+00
  0.00000000E+00  0.00000000E+00  0.00000000E+00
  0.00000000E+00  0.00000000E+00  0.00000000E+00
  0.00000000E+00  0.00000000E+00  0.00000000E+00
  0.00000000E+00  0.00000000E+00  0.00000000E+00
  0.00000000E+00  0.00000000E+00  0.00000000E+00
  0.00000000E+00  0.00000000E+00  0.00000000E+00
  0.00000000E+00  0.00000000E+00  0.00000000E+00
  0.00000000E+00  0.00000000E+00  0.00000000E+00
  0.00000000E+00  0.00000000E+00  0.00000000E+00
  0.00000000E+00  0.00000000E+00  0.00000000E+00
  0.00000000E+00  0.00000000E+00  0.00000000E+00
  0.00000000E+00  0.00000000E+00  0.00000000E+00
  0.00000000E+00  0.00000000E+00  0.00000000E+00
  0.00000000E+00  0.00000000E+00  0.00000000E+00
  0.00000000E+00  0.00000000E+00  0.00000000E+00
  0.00000000E+00  0.00000000E+00  0.00000000E+00
  0.00000000E+00  0.00000000E+00  0.00000000E+00
  0.00000000E+00  0.00000000E+00  0.00000000E+00
  0.00000000E+00  0.00000000E+00  0.00000000E+00
  0.00000000E+00  0.00000000E+00  0.00000000E+00
  0.00000000E+00  0.00000000E+00  0.00000000E+00
  0.00000000E+00  0.00000000E+00  0.00000000E+00
  0.00000000E+00  0.00000000E+00  0.00000000E+00
  0.00000000E+00  0.00000000E+00  0.00000000E+00
  0.00000000E+00  0.00000000E+00  0.00000000E+00
  0.00000000E+00  0.00000000E+00  0.00000000E+00
