Hf Nb                                   
    1.000000000000000     
    12.5936839359457959   -0.1864183357632466   -0.0303250618711606
    -6.4559136684086376   11.1781804600936212    0.0017220617762775
    -0.0482229576603151   -0.0250756009906806   20.1074760819335445
  Hf             Nb           
             112              16
Direct
  0.3430037500444150  0.1680216442569466  0.5635363609383555
  0.8370251298353131  0.4295769536193740  0.5599783326705300
  0.8424559766287397  0.1639582532964332  0.5613622135141798
  0.4205389987480510  0.0817014416013352  0.6878167140060086
  0.8357943632953504  0.1637925870646549  0.8161634641860581
  0.0868544782469198  0.9204609930064730  0.5622822178165697
  0.6632004320906900  0.8270427569973204  0.6873805038665705
  0.6690939958070711  0.8306037420103396  0.9383377799266152
  0.0757830237152323  0.4140822690495055  0.5614634442698198
  0.8362117266359884  0.9161198990702042  0.5626043770967710
  0.0901566413421897  0.9196340446911089  0.3138880537930465
  0.3318802886725450  0.4137384866738821  0.0626023706397160
  0.5877235086506771  0.6665033402223977  0.0621442172504034
  0.3350041745089161  0.6674308212578527  0.8126621986535030
  0.4172204263898286  0.0827187339008154  0.4374110144636258
  0.1696445011726121  0.8339779702446602  0.9374217626168341
  0.4121508795872275  0.5780062579153902  0.9375470103240641
  0.5832890814957140  0.4189729974901787  0.8107886573676858
  0.3381910429950830  0.9173367494310285  0.3113718895372206
  0.6677505408413915  0.0788484696022173  0.4387101752789165
  0.9198567923287115  0.0744549504153933  0.4375790071858374
  0.3439491711069975  0.9210855491925767  0.8133367332269981
  0.1629941726261173  0.0818446987798183  0.6865031980951445
  0.1536017136681409  0.3242341548217328  0.6839071219794555
  0.6642644279170383  0.3402950678056368  0.4393342347407719
  0.8607871661231470  0.1863241385670356  0.3189842897925362
  0.9121753398098119  0.8308160719227750  0.4364029772877659
  0.4138680811103382  0.3301747309563654  0.1881121340245216
  0.4170726845220822  0.8283982660278624  0.6866391014043303
  0.1561506157761446  0.0785601058520046  0.9370932153606878
  0.0821724177870653  0.1666191349908275  0.8120089208765648
  0.8334933274509506  0.6634947848730175  0.8124525353550907
  0.0842204020584121  0.6679596288103817  0.8128072992284869
  0.0863866597054484  0.1585864516490972  0.3121513478057645
  0.4123483813102818  0.3351832754524305  0.6858989284677240
  0.3387984668317282  0.1659760361236448  0.8129459177401541
  0.6725967288994232  0.0905669710241514  0.1906314703619806
  0.9118618982857082  0.8291116087141097  0.6874808265483676
  0.4212019461044127  0.8344715309189253  0.9388533596952704
  0.1550196335588556  0.3274575971247278  0.9378090113141404
  0.4076065603089763  0.5785233932055210  0.1884690800702598
  0.6099194143295562  0.9303031487674701  0.0632375319852707
  0.4180339957796086  0.8351786210361175  0.1859314390131772
  0.6589571384148979  0.5793239050675787  0.4389716529541378
  0.0839584122900832  0.6716098135207834  0.5623856642636814
  0.0886387438901236  0.9153231039488886  0.0629716426201652
  0.8355345417160152  0.6642537994723640  0.0623195406577076
  0.5841411360298761  0.4151360996768906  0.0632518702974434
  0.5777222839279196  0.6641932512366222  0.5615781900357583
  0.4179078560946048  0.0838316070032076  0.1877276544057627
  0.5863152880044041  0.6647158961903736  0.8124711816612661
  0.5993397274358364  0.1715924842953632  0.5621030736185144
  0.8342605183050547  0.6672407473071407  0.3124789361600060
  0.0739506155619066  0.1614289830563547  0.0610131456092427
  0.1384906610095676  0.3235872611383218  0.4324416538653055
  0.8323255011989318  0.9165592652498996  0.3107879837706998
  0.8360447072265544  0.4208845043261459  0.8147917688402689
  0.1682865547256029  0.8339944096063977  0.6871583483226091
  0.1679404751614021  0.8370608574375189  0.4389724435272320
  0.9189150365709754  0.5883692714882508  0.1877270051847628
  0.8369269345590419  0.4209741678169367  0.0639953233339664
  0.5859064534332575  0.4175705540636110  0.3141260655128688
  0.9178361257112210  0.8261017842804966  0.9372381975557699
  0.5924647142097264  0.1688666951145334  0.8093104904673646
  0.8575356418551967  0.4308235049406351  0.3212866887299803
  0.1617011678914227  0.5810073590138982  0.9370305911105097
  0.6626496507601082  0.5805456553491358  0.1885643682722827
  0.1408502008702883  0.5716295189303423  0.4344622775896492
  0.8416686177451843  0.9190095605297318  0.8153750346585009
  0.5898056851522521  0.9165517611893157  0.8114899926290690
  0.6593319927564006  0.8298273405637463  0.4387225476147342
  0.0882218401863718  0.6728780993887123  0.0621814665919713
  0.8945538956808173  0.3220250491067011  0.6874124625524909
  0.1601800412893684  0.5798741093997208  0.6857817866966744
  0.9115220074985023  0.3314713658643907  0.9394389210709255
  0.6656673766156470  0.5767937612994319  0.9371867788943519
  0.6692961768705149  0.3366815808337750  0.1899710835161175
  0.6619767144196220  0.0832344990713526  0.9372980527607339
  0.5883580420401524  0.1693661878924767  0.0630108330387519
  0.6595254107922996  0.3303965325274586  0.9368098023164171
  0.0831496516278521  0.4165222908946556  0.8100482034969708
  0.5885068816991709  0.9191318584804870  0.3123675857217951
  0.9035524492019308  0.0742440245491902  0.1820446205234585
  0.9118345089850727  0.5819073826107366  0.6874839136165626
  0.5798945638300187  0.6660300360726513  0.3132545366360328
  0.0891571815133180  0.9161746996548520  0.8116921938532503
  0.0910321186717697  0.6783388699929310  0.3118176160474400
  0.1640546834826455  0.0798646620117226  0.1869080383623530
  0.6649434259495517  0.8273353297088849  0.1869084072549042
  0.3362644107053985  0.1654460221629098  0.3128883425435610
  0.1723240566661067  0.5940708937644538  0.1871937202923853
  0.4063555500972605  0.3280236559507378  0.4380273227364856
  0.3347725100223463  0.1659763480585571  0.0611769224662226
  0.4118931218643739  0.8276825950806859  0.4361311297687250
  0.3314004246011561  0.6654628741356330  0.5602507501255762
  0.3310448629659803  0.4127815738316849  0.3119060570934097
  0.0861989601083816  0.4213096920281806  0.0641522530320292
  0.9232018959584776  0.3413972672784573  0.1917597423117879
  0.3417376479445610  0.6713970984539762  0.0612902717748211
  0.1580690891615376  0.3261463934981786  0.1872964694344285
  0.9101577138217646  0.0780297385417382  0.6884463278702387
  0.4094566483807859  0.5771045037986975  0.6873045013068342
  0.3273993435199870  0.4128146179868559  0.5599253513892147
  0.9158465769044665  0.8329486713503309  0.1864896642190260
  0.4099298467363539  0.3286213535512114  0.9372824454895958
  0.6601426108317496  0.3421961174522890  0.6846741884894335
  0.8293179622641578  0.6667571621970052  0.5624709322286724
  0.3985260679920331  0.5752878266635602  0.4347598462014270
  0.5956887920717771  0.1745674694295554  0.3150626037688340
  0.3448201756645479  0.9217998344680478  0.5632203853480093
  0.3294474514795085  0.4139721687491381  0.8120075824000833
  0.3427498513677272  0.9222738725427526  0.0614939496230751
  0.8438044381804927  0.1839100463913843  0.0656019023066517
  0.8947539263583684  0.3241653123097223  0.4468960464470996
  0.1149666099667309  0.4413132669514160  0.3064913481667784
  0.8941646250236334  0.0731956097246180  0.9434422824997177
  0.4055955324836029  0.0850068159709443  0.9372390520230939
  0.1654039386607996  0.8398612348377450  0.1870762504149543
  0.3417180568740408  0.6744173783615452  0.3117589966937110
  0.9140268784368658  0.5786308346321726  0.9385381894667728
  0.5810871873279674  0.4248743979427069  0.5621919681417369
  0.9169033240591626  0.6002163573329018  0.4369945066200946
  0.0994015104184002  0.1615545491737223  0.5601151719082242
  0.5947825366059105  0.9264382683356966  0.5638544466524148
  0.6550416203412589  0.0651429488863216  0.6842114162756193
  0.1646632563331628  0.0845389355624212  0.4401515831223813
  0.6551206273210033  0.5794980101023594  0.6856479689266998
  0.8456348975129078  0.9147373009014983  0.0581660344228984
 
  0.00000000E+00  0.00000000E+00  0.00000000E+00
  0.00000000E+00  0.00000000E+00  0.00000000E+00
  0.00000000E+00  0.00000000E+00  0.00000000E+00
  0.00000000E+00  0.00000000E+00  0.00000000E+00
  0.00000000E+00  0.00000000E+00  0.00000000E+00
  0.00000000E+00  0.00000000E+00  0.00000000E+00
  0.00000000E+00  0.00000000E+00  0.00000000E+00
  0.00000000E+00  0.00000000E+00  0.00000000E+00
  0.00000000E+00  0.00000000E+00  0.00000000E+00
  0.00000000E+00  0.00000000E+00  0.00000000E+00
  0.00000000E+00  0.00000000E+00  0.00000000E+00
  0.00000000E+00  0.00000000E+00  0.00000000E+00
  0.00000000E+00  0.00000000E+00  0.00000000E+00
  0.00000000E+00  0.00000000E+00  0.00000000E+00
  0.00000000E+00  0.00000000E+00  0.00000000E+00
  0.00000000E+00  0.00000000E+00  0.00000000E+00
  0.00000000E+00  0.00000000E+00  0.00000000E+00
  0.00000000E+00  0.00000000E+00  0.00000000E+00
  0.00000000E+00  0.00000000E+00  0.00000000E+00
  0.00000000E+00  0.00000000E+00  0.00000000E+00
  0.00000000E+00  0.00000000E+00  0.00000000E+00
  0.00000000E+00  0.00000000E+00  0.00000000E+00
  0.00000000E+00  0.00000000E+00  0.00000000E+00
  0.00000000E+00  0.00000000E+00  0.00000000E+00
  0.00000000E+00  0.00000000E+00  0.00000000E+00
  0.00000000E+00  0.00000000E+00  0.00000000E+00
  0.00000000E+00  0.00000000E+00  0.00000000E+00
  0.00000000E+00  0.00000000E+00  0.00000000E+00
  0.00000000E+00  0.00000000E+00  0.00000000E+00
  0.00000000E+00  0.00000000E+00  0.00000000E+00
  0.00000000E+00  0.00000000E+00  0.00000000E+00
  0.00000000E+00  0.00000000E+00  0.00000000E+00
  0.00000000E+00  0.00000000E+00  0.00000000E+00
  0.00000000E+00  0.00000000E+00  0.00000000E+00
  0.00000000E+00  0.00000000E+00  0.00000000E+00
  0.00000000E+00  0.00000000E+00  0.00000000E+00
  0.00000000E+00  0.00000000E+00  0.00000000E+00
  0.00000000E+00  0.00000000E+00  0.00000000E+00
  0.00000000E+00  0.00000000E+00  0.00000000E+00
  0.00000000E+00  0.00000000E+00  0.00000000E+00
  0.00000000E+00  0.00000000E+00  0.00000000E+00
  0.00000000E+00  0.00000000E+00  0.00000000E+00
  0.00000000E+00  0.00000000E+00  0.00000000E+00
  0.00000000E+00  0.00000000E+00  0.00000000E+00
  0.00000000E+00  0.00000000E+00  0.00000000E+00
  0.00000000E+00  0.00000000E+00  0.00000000E+00
  0.00000000E+00  0.00000000E+00  0.00000000E+00
  0.00000000E+00  0.00000000E+00  0.00000000E+00
  0.00000000E+00  0.00000000E+00  0.00000000E+00
  0.00000000E+00  0.00000000E+00  0.00000000E+00
  0.00000000E+00  0.00000000E+00  0.00000000E+00
  0.00000000E+00  0.00000000E+00  0.00000000E+00
  0.00000000E+00  0.00000000E+00  0.00000000E+00
  0.00000000E+00  0.00000000E+00  0.00000000E+00
  0.00000000E+00  0.00000000E+00  0.00000000E+00
  0.00000000E+00  0.00000000E+00  0.00000000E+00
  0.00000000E+00  0.00000000E+00  0.00000000E+00
  0.00000000E+00  0.00000000E+00  0.00000000E+00
  0.00000000E+00  0.00000000E+00  0.00000000E+00
  0.00000000E+00  0.00000000E+00  0.00000000E+00
  0.00000000E+00  0.00000000E+00  0.00000000E+00
  0.00000000E+00  0.00000000E+00  0.00000000E+00
  0.00000000E+00  0.00000000E+00  0.00000000E+00
  0.00000000E+00  0.00000000E+00  0.00000000E+00
  0.00000000E+00  0.00000000E+00  0.00000000E+00
  0.00000000E+00  0.00000000E+00  0.00000000E+00
  0.00000000E+00  0.00000000E+00  0.00000000E+00
  0.00000000E+00  0.00000000E+00  0.00000000E+00
  0.00000000E+00  0.00000000E+00  0.00000000E+00
  0.00000000E+00  0.00000000E+00  0.00000000E+00
  0.00000000E+00  0.00000000E+00  0.00000000E+00
  0.00000000E+00  0.00000000E+00  0.00000000E+00
  0.00000000E+00  0.00000000E+00  0.00000000E+00
  0.00000000E+00  0.00000000E+00  0.00000000E+00
  0.00000000E+00  0.00000000E+00  0.00000000E+00
  0.00000000E+00  0.00000000E+00  0.00000000E+00
  0.00000000E+00  0.00000000E+00  0.00000000E+00
  0.00000000E+00  0.00000000E+00  0.00000000E+00
  0.00000000E+00  0.00000000E+00  0.00000000E+00
  0.00000000E+00  0.00000000E+00  0.00000000E+00
  0.00000000E+00  0.00000000E+00  0.00000000E+00
  0.00000000E+00  0.00000000E+00  0.00000000E+00
  0.00000000E+00  0.00000000E+00  0.00000000E+00
  0.00000000E+00  0.00000000E+00  0.00000000E+00
  0.00000000E+00  0.00000000E+00  0.00000000E+00
  0.00000000E+00  0.00000000E+00  0.00000000E+00
  0.00000000E+00  0.00000000E+00  0.00000000E+00
  0.00000000E+00  0.00000000E+00  0.00000000E+00
  0.00000000E+00  0.00000000E+00  0.00000000E+00
  0.00000000E+00  0.00000000E+00  0.00000000E+00
  0.00000000E+00  0.00000000E+00  0.00000000E+00
  0.00000000E+00  0.00000000E+00  0.00000000E+00
  0.00000000E+00  0.00000000E+00  0.00000000E+00
  0.00000000E+00  0.00000000E+00  0.00000000E+00
  0.00000000E+00  0.00000000E+00  0.00000000E+00
  0.00000000E+00  0.00000000E+00  0.00000000E+00
  0.00000000E+00  0.00000000E+00  0.00000000E+00
  0.00000000E+00  0.00000000E+00  0.00000000E+00
  0.00000000E+00  0.00000000E+00  0.00000000E+00
  0.00000000E+00  0.00000000E+00  0.00000000E+00
  0.00000000E+00  0.00000000E+00  0.00000000E+00
  0.00000000E+00  0.00000000E+00  0.00000000E+00
  0.00000000E+00  0.00000000E+00  0.00000000E+00
  0.00000000E+00  0.00000000E+00  0.00000000E+00
  0.00000000E+00  0.00000000E+00  0.00000000E+00
  0.00000000E+00  0.00000000E+00  0.00000000E+00
  0.00000000E+00  0.00000000E+00  0.00000000E+00
  0.00000000E+00  0.00000000E+00  0.00000000E+00
  0.00000000E+00  0.00000000E+00  0.00000000E+00
  0.00000000E+00  0.00000000E+00  0.00000000E+00
  0.00000000E+00  0.00000000E+00  0.00000000E+00
  0.00000000E+00  0.00000000E+00  0.00000000E+00
  0.00000000E+00  0.00000000E+00  0.00000000E+00
  0.00000000E+00  0.00000000E+00  0.00000000E+00
  0.00000000E+00  0.00000000E+00  0.00000000E+00
  0.00000000E+00  0.00000000E+00  0.00000000E+00
  0.00000000E+00  0.00000000E+00  0.00000000E+00
  0.00000000E+00  0.00000000E+00  0.00000000E+00
  0.00000000E+00  0.00000000E+00  0.00000000E+00
  0.00000000E+00  0.00000000E+00  0.00000000E+00
  0.00000000E+00  0.00000000E+00  0.00000000E+00
  0.00000000E+00  0.00000000E+00  0.00000000E+00
  0.00000000E+00  0.00000000E+00  0.00000000E+00
  0.00000000E+00  0.00000000E+00  0.00000000E+00
  0.00000000E+00  0.00000000E+00  0.00000000E+00
  0.00000000E+00  0.00000000E+00  0.00000000E+00
  0.00000000E+00  0.00000000E+00  0.00000000E+00
  0.00000000E+00  0.00000000E+00  0.00000000E+00
