Nb Ta                                   
    1.000000000000000     
    13.2689444277664403    0.0000833837571192   -0.0007395971836806
     0.0000833077210535   13.2681041148660555   -0.0002382457601433
    -0.0007395943900379   -0.0002382989261312   13.2695277304763355
   Nb   Ta
    28   100
Direct
  0.7495255550177227  0.7507172616502141  0.7483559114169321
  0.2508017967158545  0.5010843042679605  0.7506287014111230
  0.3750302612559215  0.6244859493129632  0.8753452864224126
  0.2501192539838460  0.4982636352014168  0.2507356045005391
  0.1237182854896708  0.3745444531515011  0.3743507766863566
 -0.0006627589341370  0.7505158433320535  0.2498064975599208
  0.2504191073781862  0.7490980295058777 -0.0017082299493368
  0.8753000198767705  0.3742802083724936  0.1261482783675464
 -0.0006438091426384  0.2504233979474494  0.2499666568820724
  0.8763373925764898  0.1257635530727396  0.3748384640264403
  0.3745535503849754  0.8740960955882168  0.6244309887233305
  0.6258433978165926  0.1265576742936001  0.6256350050538652
  0.7506122809042043  0.0007459818399533  0.0000101227185590
  0.3754641091403840  0.3756213259026698  0.3755073225888900
  0.4995570621690754  0.5008339838212978 -0.0010604317278219
  0.5000419214184538  0.7513271015596008  0.5008519888663947
  0.1250191523983011  0.8744169843579201  0.3745315317131483
  0.5000887418414864  0.4988252653941883  0.4984241179018887
  0.6257829083514291  0.8728080174951899  0.6245585455195846
 -0.0012483042658411 -0.0003113409859906  0.7507126300695681
  0.3737206878342307  0.1258575523319886  0.6248588759334560
  0.6258556308663034  0.3750272815828215  0.3758564463235587
  0.7503864857462612  0.7491276581524188  0.0011904837329736
  0.6237188770155465  0.1238783379448618  0.3741847187648973
  0.6239104601489178  0.6257796204016137  0.3762539507928681
  0.2507388102336311  0.7511632693586742  0.2512096722762461
  0.2521497793653836 -0.0001188794072894  0.7490732600109585
  0.6241977194998081  0.3751189408407972  0.8752005233006772
  0.7504016694243867  0.0007333216300688  0.2519870630605193
  0.6259708333497349  0.8747462833265509  0.8763288419403441
  0.2491973342189293  0.0002049646624721  0.2498257197251390
  0.1241218475953769  0.1263119562554150  0.1262053445965858
  0.3754319639571304  0.1256152559557333  0.1256829470368360
  0.4996898031702642  0.2482860189913383  0.5000872203567079
  0.8767378116976449  0.6251646797513405  0.3745240264516989
  0.6253380489259358  0.1234858542793716  0.8765473730357766
  0.4985320222362253 -0.0006844540098784  0.0004454718325464
  0.0002668918042000  0.7502640235200281 -0.0016670929166781
  0.4989296096547405  0.7507137939753435 -0.0002576345148095
  0.1254990904699711  0.3753801442109050  0.8745022214653938
  0.1248210298780989  0.6247544728956449  0.8749245540931601
  0.8741304550662766  0.6252069989747185  0.6250545247976591
  0.6240237149293840  0.6240833109247015  0.6257200411342209
  0.4999822956325894  0.0013720983410777  0.5018303200480034
  0.8748338824258964  0.6268140933685621  0.1253516466150862
  0.2516185532133906  0.2502570851314186  0.2504234892852670
  0.3756151745910056  0.3769151926370072  0.6260510092792887
  0.3742612923456340  0.6243809394429285  0.1268866440690635
  0.0002469092165969  0.2510642044127916  0.7501541186908258
  0.5003257911757122  0.2495220591768510  0.7498007253472861
  0.6244082813215862  0.3761246656447297  0.6240441976257788
  0.0010690727548516  0.7485637896025231  0.7506071062765377
  0.1262103741097605  0.3745717165965303  0.1247136014988610
 -0.0001430222611289  0.2501540442171607 -0.0009129380941952
  0.8748105748823937  0.3755118743982745  0.3761570657405314
  0.1236558605747006  0.8766137366452754  0.6270673204165719
  0.1258385360861857  0.3753293188094861  0.6263801709003464
  0.7493438637605574  0.4987572605546626  0.7505088760371831
  0.3752444413142184  0.1245294567446142  0.8751876389794033
  0.5003376987539047 -0.0000565677484275  0.2493974507394267
  0.7487008123570589  0.2499008313483131  0.2503823761795493
  0.4977996166977871  0.7501731854623802  0.7515023902982444
  0.1257939786752823  0.6241601496562152  0.6251859163864373
  0.1249549480210000  0.1242014785093355  0.8738673702680989
  0.6240703149990457  0.8751945324368643  0.3748681991481334
  0.3737355827766582  0.6265631999858251  0.3754594249895963
  0.0015513481612975 -0.0006475535301750  0.0012143526128767
  0.0000112817275256 -0.0003066706577004  0.4974836071539649
  0.3770437238264622  0.8744133484484393  0.3741468390986217
  0.6261176170275320  0.8754838973860152  0.1243862032674001
  0.2514679884664877  0.7496122111947686  0.7485319181535276
  0.1259649675622773  0.6257113870147673  0.1262108926309881
  0.0008739499671369  0.7502832355112542  0.5011966274461459
  0.3741201976626186  0.8767272722191509  0.8756933078803956
  0.2483609822324108  0.7512396483558673  0.5016092528065191
  0.7518870500308811  0.4979188385276574  0.0003140256058240
  0.5014741303674908 -0.0008186075623035  0.7484391615744976
  0.8745224950766630  0.1242657548655610  0.8748499806284198
  0.3758102224627646  0.3757647866777464  0.1240312950564865
  0.7503156835105789  0.2525543581323488  0.0000435933261753
 -0.0010141978852287  0.4996472394154383  0.2488915505347042
  0.6229577003458048  0.3754795944882712  0.1251621656149040
  0.1252704914825023  0.6253127745920147  0.3736763025932112
  0.8741109130351234  0.8748032408300120  0.1251309778692031
  0.0008953410573374  0.5001048943446993  0.4998524319608054
  0.5001278424122183  0.2506078682398669  0.2510614962560366
  0.7505972284370671  0.7495455537356556  0.4990680037838692
  0.3740288803145787  0.3740386129533105  0.8746418653624525
  0.7496961393758572  0.5002620409147024  0.2499084720430483
  0.5017305995087386  0.7489920655534493  0.2483183123285360
  0.2504673874916614  0.2508355255944567  0.5001131339503572
  0.8746542636275139  0.1240904816898514  0.1240865800021291
 -0.0012627957193571  0.5007473279425458  0.7500419287475766
  0.3739388130969779  0.1236833561443431  0.3742006962040468
  0.7477324820419976  0.0006744892249296  0.7477485433752455
  0.7497709015672934  0.0006337393510806  0.5001618050716895
  0.1259970909441655  0.8757256444153042  0.8739638854605365
 -0.0001978638667650  0.5003875915622622  0.0011383307296133
  0.7478549431683321  0.7489638965462009  0.2513550422360157
  0.7505733487171521  0.5008375808078908  0.4993383827446512
  0.6269479489842936  0.6270021351912810  0.8754718367436292
  0.2504231457668730  0.2493839352426701  0.7494627251030533
  0.8760289726957637  0.8754029197416969  0.6252386157184850
  0.6256850855581971  0.1250803319013389  0.1236782093889773
  0.1254698067620162  0.8734057592556967  0.1242997874490112
  0.8762604044191892  0.3747488966000612  0.8735908102348284
  0.0000295534942024 -0.0005169137193123  0.2504140552764219
  0.2490495519679788  0.4998514998219983  0.0000116750361456
  0.5001295658566541  0.2492809577855804 -0.0006567292080848
  0.1261682575842657  0.1259117419736805  0.3749170254150348
  0.2484825183989407  0.4992646631399848  0.4988336539201922
  0.2493049834476100  0.0012190643488376  0.0016088974517224
  0.8742084574940544  0.3745328357915605  0.6242115890556093
  0.8765336603981361  0.1248193632863070  0.6260421618560883
  0.2501257740887269 -0.0011635647762504  0.4990516025973643
  0.5013685417086891  0.5006728538224752  0.7515937356354688
  0.7490062189887654  0.2499724227219585  0.7502230429858108
  0.8738402821625874  0.8735814577731220  0.3749875142157445
  0.7494396986568932  0.2486549307093751  0.4994323497290213
  0.3761528579257941  0.6229362498620562  0.6224215349661628
  0.6250418855666100  0.6240366796751318  0.1227191366069726
  0.3741657130314779  0.8740505286109289  0.1254990652308168
  0.8737606373559966  0.8754932905269273  0.8744879871468690
  0.1238598146130972  0.1240066813355650  0.6249552388577835
  0.5012224792359347  0.5005421417161748  0.2510506183342075
  0.8735527296712841  0.6257434294917500  0.8749222314939465
  0.0004320721533223  0.2500197394634539  0.5007914578789654
  0.2497128998877312  0.2496740667709129  0.0000067640618042
 
  0.00000000E+00  0.00000000E+00  0.00000000E+00
  0.00000000E+00  0.00000000E+00  0.00000000E+00
  0.00000000E+00  0.00000000E+00  0.00000000E+00
  0.00000000E+00  0.00000000E+00  0.00000000E+00
  0.00000000E+00  0.00000000E+00  0.00000000E+00
  0.00000000E+00  0.00000000E+00  0.00000000E+00
  0.00000000E+00  0.00000000E+00  0.00000000E+00
  0.00000000E+00  0.00000000E+00  0.00000000E+00
  0.00000000E+00  0.00000000E+00  0.00000000E+00
  0.00000000E+00  0.00000000E+00  0.00000000E+00
  0.00000000E+00  0.00000000E+00  0.00000000E+00
  0.00000000E+00  0.00000000E+00  0.00000000E+00
  0.00000000E+00  0.00000000E+00  0.00000000E+00
  0.00000000E+00  0.00000000E+00  0.00000000E+00
  0.00000000E+00  0.00000000E+00  0.00000000E+00
  0.00000000E+00  0.00000000E+00  0.00000000E+00
  0.00000000E+00  0.00000000E+00  0.00000000E+00
  0.00000000E+00  0.00000000E+00  0.00000000E+00
  0.00000000E+00  0.00000000E+00  0.00000000E+00
  0.00000000E+00  0.00000000E+00  0.00000000E+00
  0.00000000E+00  0.00000000E+00  0.00000000E+00
  0.00000000E+00  0.00000000E+00  0.00000000E+00
  0.00000000E+00  0.00000000E+00  0.00000000E+00
  0.00000000E+00  0.00000000E+00  0.00000000E+00
  0.00000000E+00  0.00000000E+00  0.00000000E+00
  0.00000000E+00  0.00000000E+00  0.00000000E+00
  0.00000000E+00  0.00000000E+00  0.00000000E+00
  0.00000000E+00  0.00000000E+00  0.00000000E+00
  0.00000000E+00  0.00000000E+00  0.00000000E+00
  0.00000000E+00  0.00000000E+00  0.00000000E+00
  0.00000000E+00  0.00000000E+00  0.00000000E+00
  0.00000000E+00  0.00000000E+00  0.00000000E+00
  0.00000000E+00  0.00000000E+00  0.00000000E+00
  0.00000000E+00  0.00000000E+00  0.00000000E+00
  0.00000000E+00  0.00000000E+00  0.00000000E+00
  0.00000000E+00  0.00000000E+00  0.00000000E+00
  0.00000000E+00  0.00000000E+00  0.00000000E+00
  0.00000000E+00  0.00000000E+00  0.00000000E+00
  0.00000000E+00  0.00000000E+00  0.00000000E+00
  0.00000000E+00  0.00000000E+00  0.00000000E+00
  0.00000000E+00  0.00000000E+00  0.00000000E+00
  0.00000000E+00  0.00000000E+00  0.00000000E+00
  0.00000000E+00  0.00000000E+00  0.00000000E+00
  0.00000000E+00  0.00000000E+00  0.00000000E+00
  0.00000000E+00  0.00000000E+00  0.00000000E+00
  0.00000000E+00  0.00000000E+00  0.00000000E+00
  0.00000000E+00  0.00000000E+00  0.00000000E+00
  0.00000000E+00  0.00000000E+00  0.00000000E+00
  0.00000000E+00  0.00000000E+00  0.00000000E+00
  0.00000000E+00  0.00000000E+00  0.00000000E+00
  0.00000000E+00  0.00000000E+00  0.00000000E+00
  0.00000000E+00  0.00000000E+00  0.00000000E+00
  0.00000000E+00  0.00000000E+00  0.00000000E+00
  0.00000000E+00  0.00000000E+00  0.00000000E+00
  0.00000000E+00  0.00000000E+00  0.00000000E+00
  0.00000000E+00  0.00000000E+00  0.00000000E+00
  0.00000000E+00  0.00000000E+00  0.00000000E+00
  0.00000000E+00  0.00000000E+00  0.00000000E+00
  0.00000000E+00  0.00000000E+00  0.00000000E+00
  0.00000000E+00  0.00000000E+00  0.00000000E+00
  0.00000000E+00  0.00000000E+00  0.00000000E+00
  0.00000000E+00  0.00000000E+00  0.00000000E+00
  0.00000000E+00  0.00000000E+00  0.00000000E+00
  0.00000000E+00  0.00000000E+00  0.00000000E+00
  0.00000000E+00  0.00000000E+00  0.00000000E+00
  0.00000000E+00  0.00000000E+00  0.00000000E+00
  0.00000000E+00  0.00000000E+00  0.00000000E+00
  0.00000000E+00  0.00000000E+00  0.00000000E+00
  0.00000000E+00  0.00000000E+00  0.00000000E+00
  0.00000000E+00  0.00000000E+00  0.00000000E+00
  0.00000000E+00  0.00000000E+00  0.00000000E+00
  0.00000000E+00  0.00000000E+00  0.00000000E+00
  0.00000000E+00  0.00000000E+00  0.00000000E+00
  0.00000000E+00  0.00000000E+00  0.00000000E+00
  0.00000000E+00  0.00000000E+00  0.00000000E+00
  0.00000000E+00  0.00000000E+00  0.00000000E+00
  0.00000000E+00  0.00000000E+00  0.00000000E+00
  0.00000000E+00  0.00000000E+00  0.00000000E+00
  0.00000000E+00  0.00000000E+00  0.00000000E+00
  0.00000000E+00  0.00000000E+00  0.00000000E+00
  0.00000000E+00  0.00000000E+00  0.00000000E+00
  0.00000000E+00  0.00000000E+00  0.00000000E+00
  0.00000000E+00  0.00000000E+00  0.00000000E+00
  0.00000000E+00  0.00000000E+00  0.00000000E+00
  0.00000000E+00  0.00000000E+00  0.00000000E+00
  0.00000000E+00  0.00000000E+00  0.00000000E+00
  0.00000000E+00  0.00000000E+00  0.00000000E+00
  0.00000000E+00  0.00000000E+00  0.00000000E+00
  0.00000000E+00  0.00000000E+00  0.00000000E+00
  0.00000000E+00  0.00000000E+00  0.00000000E+00
  0.00000000E+00  0.00000000E+00  0.00000000E+00
  0.00000000E+00  0.00000000E+00  0.00000000E+00
  0.00000000E+00  0.00000000E+00  0.00000000E+00
  0.00000000E+00  0.00000000E+00  0.00000000E+00
  0.00000000E+00  0.00000000E+00  0.00000000E+00
  0.00000000E+00  0.00000000E+00  0.00000000E+00
  0.00000000E+00  0.00000000E+00  0.00000000E+00
  0.00000000E+00  0.00000000E+00  0.00000000E+00
  0.00000000E+00  0.00000000E+00  0.00000000E+00
  0.00000000E+00  0.00000000E+00  0.00000000E+00
  0.00000000E+00  0.00000000E+00  0.00000000E+00
  0.00000000E+00  0.00000000E+00  0.00000000E+00
  0.00000000E+00  0.00000000E+00  0.00000000E+00
  0.00000000E+00  0.00000000E+00  0.00000000E+00
  0.00000000E+00  0.00000000E+00  0.00000000E+00
  0.00000000E+00  0.00000000E+00  0.00000000E+00
  0.00000000E+00  0.00000000E+00  0.00000000E+00
  0.00000000E+00  0.00000000E+00  0.00000000E+00
  0.00000000E+00  0.00000000E+00  0.00000000E+00
  0.00000000E+00  0.00000000E+00  0.00000000E+00
  0.00000000E+00  0.00000000E+00  0.00000000E+00
  0.00000000E+00  0.00000000E+00  0.00000000E+00
  0.00000000E+00  0.00000000E+00  0.00000000E+00
  0.00000000E+00  0.00000000E+00  0.00000000E+00
  0.00000000E+00  0.00000000E+00  0.00000000E+00
  0.00000000E+00  0.00000000E+00  0.00000000E+00
  0.00000000E+00  0.00000000E+00  0.00000000E+00
  0.00000000E+00  0.00000000E+00  0.00000000E+00
  0.00000000E+00  0.00000000E+00  0.00000000E+00
  0.00000000E+00  0.00000000E+00  0.00000000E+00
  0.00000000E+00  0.00000000E+00  0.00000000E+00
  0.00000000E+00  0.00000000E+00  0.00000000E+00
  0.00000000E+00  0.00000000E+00  0.00000000E+00
  0.00000000E+00  0.00000000E+00  0.00000000E+00
  0.00000000E+00  0.00000000E+00  0.00000000E+00
  0.00000000E+00  0.00000000E+00  0.00000000E+00
  0.00000000E+00  0.00000000E+00  0.00000000E+00
  0.00000000E+00  0.00000000E+00  0.00000000E+00
