Nb                                      
    1.000000000000000     
    11.2739386391768210    1.1310323870922223    0.0002096711764848
    -4.6573875334216766   10.3290704975828511   -0.0009592441516982
    -0.0010400218155447    0.0008930128914688   18.9565126505359451
  Nb           
             128
Direct
  0.9375039453396093  0.0624935384987627  0.9374998635549012
  0.3124956790773164  0.6875048125706286  0.3124975466607264
  0.3124955904348101  0.6875030335206567  0.0625009755386143
  0.3124951757468144  0.4375068552343382  0.8124988484250065
  0.3124956937011656  0.4375044930006318  0.5624998899317157
  0.3124958553458475  0.4375054993432626  0.3124980430931987
  0.3124949978162925  0.4375051130165264  0.0625006341440681
  0.3124958793598427  0.1875034892425274  0.8124986584428153
  0.3124967624243126  0.1875043555836060  0.5624996077742919
  0.3124968677609568  0.1875031274070250  0.3124976765663061
  0.3124962850703121  0.1875044873319693  0.0625014592963638
  0.3124951664164611  0.9375006637279548  0.8124981903519662
  0.3124951786613009  0.9375027805692928  0.5625001352840199
  0.3124948712647536  0.9375024848540623  0.3124971991354261
  0.3124957434741941  0.6875028204675930  0.5625004286264328
  0.3124949814051715  0.9375028544265793  0.0625017509426463
  0.0624963252334857  0.6875032069052764  0.5624999956931485
  0.0624965649886740  0.6875052634406176  0.3124974055087067
  0.0624961825943500  0.6875035847436927  0.0625015556257352
  0.0624957349561912  0.4375069454745714  0.8124988911871169
  0.0624952643162797  0.4375060010695123  0.5624998598427040
  0.0624953617580078  0.4375074002572102  0.3124978781183393
  0.0624951747385925  0.4375060651843095  0.0625007544748777
  0.0624955179205196  0.1875047214037403  0.8124987661330416
  0.0624966894328654  0.1875055930083356  0.5624999839265344
  0.0624968401818025  0.1875043295015161  0.3124976973850430
  0.0624959683412401  0.1875057078205696  0.0625009353237090
  0.0624947442274719  0.9375018054381229  0.8124983369625111
  0.0624959212182309  0.9375032491249281  0.5625000679449886
  0.0624965733219563  0.6875039376015610  0.8124984515205517
  0.0624961080129361  0.9375027032477331  0.3124971359874802
  0.3124961455542200  0.6875037335874881  0.8124984440929762
  0.5624944810816411  0.9375039107839767  0.3124972334986599
  0.8124976270050541  0.6875037206691380  0.3124973616687048
  0.8124969012523166  0.6875028336389939  0.0625015054188742
  0.8124959710453725  0.4375055190342967  0.8124987725987718
  0.8124955417542873  0.4375046337842495  0.5624996431710989
  0.8124962359139535  0.4375062067858447  0.3124977819675371
  0.8124961683203602  0.4375049776953943  0.0625012755920939
  0.8124957753750894  0.1875032864714269  0.8124987293504062
  0.8124959876632186  0.1875050672926055  0.5625002257838805
  0.8124963355450442  0.1875044104387727  0.3124976016219714
  0.8124965223002182  0.1875052402202511  0.0625009832510486
  0.8124939886352357  0.9375014366445700  0.8124983623650284
  0.8124952574806977  0.9375026996407895  0.5625005942536672
  0.8124960885061523  0.9375022981158906  0.3124971727237332
  0.5624947758285107  0.9375043658914812  0.0625011946802169
  0.8124955909955132  0.9375032982560858  0.0625012067565710
  0.5624956691665465  0.6875029999379674  0.5625004888985721
  0.5624966086998643  0.6875049934198387  0.3124975276412525
  0.5624960081393635  0.6875041121570192  0.0625009003759552
  0.5624951444863173  0.4375071150990935  0.8124987579411628
  0.5624953864053824  0.4375050219896431  0.5624996328371551
  0.5624963268545534  0.4375062053644105  0.3124979107052895
  0.5624957552081754  0.4375057924322057  0.0625011724708368
  0.5624960426715484  0.1875037690834068  0.8124985754282520
  0.5624957632945897  0.1875055799403258  0.5624998617611310
  0.5624960209906912  0.1875049411718759  0.3124975929145458
  0.5624964285799043  0.1875057367305671  0.0625014878027396
  0.5624941627742898  0.9375020064239059  0.8124981949307677
  0.5624942726884402  0.9375039903554340  0.5625006627149083
  0.5624950507882139  0.6875049759201812  0.8124983977472109
  0.0624952884566414  0.9375035988277167  0.0625017311073809
  0.6875024485220840  0.8124940364867422  0.6875018772852453
  0.6875041583047851  0.8124949201361835  0.4374990565726516
  0.1875033986587580  0.8124946865652548  0.9375004023762382
  0.1875047788209167  0.5624961277484075  0.6875021432459149
  0.1875044136451119  0.5624981849908772  0.4374985937787468
  0.1875041264733946  0.5624967049932721  0.1875019788865890
  0.1875045563495364  0.5624978981342622  0.9374998129388084
  0.1875040606679046  0.3124982779871481  0.6875024813559046
  0.1875044555756527  0.3124969704457998  0.4374981560139792
  0.1875040481814492  0.3124977933531252  0.1875025318990180
  0.1875032857565587  0.3124979715533304  0.9374995364781069
  0.1875047997781662  0.0624957865606052  0.6875019141325805
  0.1875053310800772  0.0624944226589054  0.4374980761706166
  0.1875050135784218  0.0624960597108063  0.1875025168430449
  0.1875038632711035  0.0624941551343890  0.9375000596724672
  0.1875033525245300  0.8124953985189558  0.1875019570021424
  0.9375037992188391  0.8124928076789102  0.6875017275912568
  0.9375048947361696  0.8124940875271542  0.1875019593754008
  0.9375033996397525  0.8124939080565418  0.9375003875010498
  0.9375051838553020  0.5624947584941052  0.6875019942514466
  0.9375048935844601  0.5624970481248288  0.4374981470064633
  0.9375054995687440  0.5624955764751441  0.1875023876271003
  0.9375050198185070  0.5624966883717937  0.9375001149840981
  0.9375042260727418  0.3124970905429083  0.6875024766443150
  0.9375037986656363  0.3124970288658966  0.4374981819113183
  0.9375044905245903  0.3124975839440375  0.1875024058160987
  0.9375037663580675  0.3124966761311372  0.9374996097890603
  0.9375045414173351  0.0624951242018701  0.6875022096145696
  0.9375052531405653  0.0624937103349086  0.4374984663319203
  0.9375056574080102  0.0624955391592043  0.1875020058389778
  0.9375047249664572  0.8124939341772233  0.4374984087143560
  0.1875035143116908  0.8124958149077254  0.4374984911054024
  0.1875037397484693  0.8124939669018807  0.6875015950205133
  0.4375045841207320  0.0624931757172838  0.9375000908587662
  0.6875041226685248  0.8124952421921999  0.1875015190930413
  0.6875031268765893  0.8124950785005310  0.9375001371758764
  0.6875041924755448  0.5624955658170274  0.6875019891046281
  0.6875055156102995  0.5624968594332482  0.4374983132920833
  0.6875056637041808  0.5624960192295253  0.1875023771225763
  0.6875049351252354  0.5624979006415507  0.9375000125722630
  0.6875037532471882  0.3124974528856609  0.6875022154015085
  0.6875036597772629  0.3124976517306986  0.4374979514615216
  0.6875043098380892  0.3124982499913175  0.1875027139408091
  0.6875041461847298  0.3124972771322606  0.9374998317095633
  0.6875037587873520  0.0624957793902292  0.6875021157476398
  0.6875041213154046  0.0624952557338721  0.4374987087210436
  0.6875046541793328  0.0624971227200659  0.1875018354276070
  0.6875041431892829  0.0624943449554155  0.9374998789618906
  0.4375027909098354  0.8124932980138836  0.6875017876670264
  0.4375032417908180  0.8124949546225042  0.4374991455109647
  0.4375027899347426  0.8124948061925146  0.1875014971351559
  0.4375034602032277  0.8124941094456706  0.9375001152991875
  0.4375040021225444  0.5624953145926783  0.6875022012783286
  0.4375054414569512  0.5624962176984540  0.4374987970124887
  0.4375046241294280  0.5624953023905591  0.1875019967130787
  0.4375045976955129  0.5624973965374535  0.9374996982283799
  0.4375036723355036  0.3124970168233571  0.6875022023481892
  0.4375045841923615  0.3124958159562643  0.4374979663656004
  0.4375043087957340  0.3124965658610063  0.1875028656943539
  0.4375040138459912  0.3124967987691222  0.9374996944476911
  0.4375042012229513  0.0624947075678331  0.6875018698948810
  0.4375042525173615  0.0624942963375062  0.4374983368046028
  0.4375042374052940  0.0624958739252119  0.1875023720881130
  0.8124965663921665  0.6875017669252589  0.5625000447110853
  0.8124959137229584  0.6875034905746742  0.8124984469592725
 
  0.00000000E+00  0.00000000E+00  0.00000000E+00
  0.00000000E+00  0.00000000E+00  0.00000000E+00
  0.00000000E+00  0.00000000E+00  0.00000000E+00
  0.00000000E+00  0.00000000E+00  0.00000000E+00
  0.00000000E+00  0.00000000E+00  0.00000000E+00
  0.00000000E+00  0.00000000E+00  0.00000000E+00
  0.00000000E+00  0.00000000E+00  0.00000000E+00
  0.00000000E+00  0.00000000E+00  0.00000000E+00
  0.00000000E+00  0.00000000E+00  0.00000000E+00
  0.00000000E+00  0.00000000E+00  0.00000000E+00
  0.00000000E+00  0.00000000E+00  0.00000000E+00
  0.00000000E+00  0.00000000E+00  0.00000000E+00
  0.00000000E+00  0.00000000E+00  0.00000000E+00
  0.00000000E+00  0.00000000E+00  0.00000000E+00
  0.00000000E+00  0.00000000E+00  0.00000000E+00
  0.00000000E+00  0.00000000E+00  0.00000000E+00
  0.00000000E+00  0.00000000E+00  0.00000000E+00
  0.00000000E+00  0.00000000E+00  0.00000000E+00
  0.00000000E+00  0.00000000E+00  0.00000000E+00
  0.00000000E+00  0.00000000E+00  0.00000000E+00
  0.00000000E+00  0.00000000E+00  0.00000000E+00
  0.00000000E+00  0.00000000E+00  0.00000000E+00
  0.00000000E+00  0.00000000E+00  0.00000000E+00
  0.00000000E+00  0.00000000E+00  0.00000000E+00
  0.00000000E+00  0.00000000E+00  0.00000000E+00
  0.00000000E+00  0.00000000E+00  0.00000000E+00
  0.00000000E+00  0.00000000E+00  0.00000000E+00
  0.00000000E+00  0.00000000E+00  0.00000000E+00
  0.00000000E+00  0.00000000E+00  0.00000000E+00
  0.00000000E+00  0.00000000E+00  0.00000000E+00
  0.00000000E+00  0.00000000E+00  0.00000000E+00
  0.00000000E+00  0.00000000E+00  0.00000000E+00
  0.00000000E+00  0.00000000E+00  0.00000000E+00
  0.00000000E+00  0.00000000E+00  0.00000000E+00
  0.00000000E+00  0.00000000E+00  0.00000000E+00
  0.00000000E+00  0.00000000E+00  0.00000000E+00
  0.00000000E+00  0.00000000E+00  0.00000000E+00
  0.00000000E+00  0.00000000E+00  0.00000000E+00
  0.00000000E+00  0.00000000E+00  0.00000000E+00
  0.00000000E+00  0.00000000E+00  0.00000000E+00
  0.00000000E+00  0.00000000E+00  0.00000000E+00
  0.00000000E+00  0.00000000E+00  0.00000000E+00
  0.00000000E+00  0.00000000E+00  0.00000000E+00
  0.00000000E+00  0.00000000E+00  0.00000000E+00
  0.00000000E+00  0.00000000E+00  0.00000000E+00
  0.00000000E+00  0.00000000E+00  0.00000000E+00
  0.00000000E+00  0.00000000E+00  0.00000000E+00
  0.00000000E+00  0.00000000E+00  0.00000000E+00
  0.00000000E+00  0.00000000E+00  0.00000000E+00
  0.00000000E+00  0.00000000E+00  0.00000000E+00
  0.00000000E+00  0.00000000E+00  0.00000000E+00
  0.00000000E+00  0.00000000E+00  0.00000000E+00
  0.00000000E+00  0.00000000E+00  0.00000000E+00
  0.00000000E+00  0.00000000E+00  0.00000000E+00
  0.00000000E+00  0.00000000E+00  0.00000000E+00
  0.00000000E+00  0.00000000E+00  0.00000000E+00
  0.00000000E+00  0.00000000E+00  0.00000000E+00
  0.00000000E+00  0.00000000E+00  0.00000000E+00
  0.00000000E+00  0.00000000E+00  0.00000000E+00
  0.00000000E+00  0.00000000E+00  0.00000000E+00
  0.00000000E+00  0.00000000E+00  0.00000000E+00
  0.00000000E+00  0.00000000E+00  0.00000000E+00
  0.00000000E+00  0.00000000E+00  0.00000000E+00
  0.00000000E+00  0.00000000E+00  0.00000000E+00
  0.00000000E+00  0.00000000E+00  0.00000000E+00
  0.00000000E+00  0.00000000E+00  0.00000000E+00
  0.00000000E+00  0.00000000E+00  0.00000000E+00
  0.00000000E+00  0.00000000E+00  0.00000000E+00
  0.00000000E+00  0.00000000E+00  0.00000000E+00
  0.00000000E+00  0.00000000E+00  0.00000000E+00
  0.00000000E+00  0.00000000E+00  0.00000000E+00
  0.00000000E+00  0.00000000E+00  0.00000000E+00
  0.00000000E+00  0.00000000E+00  0.00000000E+00
  0.00000000E+00  0.00000000E+00  0.00000000E+00
  0.00000000E+00  0.00000000E+00  0.00000000E+00
  0.00000000E+00  0.00000000E+00  0.00000000E+00
  0.00000000E+00  0.00000000E+00  0.00000000E+00
  0.00000000E+00  0.00000000E+00  0.00000000E+00
  0.00000000E+00  0.00000000E+00  0.00000000E+00
  0.00000000E+00  0.00000000E+00  0.00000000E+00
  0.00000000E+00  0.00000000E+00  0.00000000E+00
  0.00000000E+00  0.00000000E+00  0.00000000E+00
  0.00000000E+00  0.00000000E+00  0.00000000E+00
  0.00000000E+00  0.00000000E+00  0.00000000E+00
  0.00000000E+00  0.00000000E+00  0.00000000E+00
  0.00000000E+00  0.00000000E+00  0.00000000E+00
  0.00000000E+00  0.00000000E+00  0.00000000E+00
  0.00000000E+00  0.00000000E+00  0.00000000E+00
  0.00000000E+00  0.00000000E+00  0.00000000E+00
  0.00000000E+00  0.00000000E+00  0.00000000E+00
  0.00000000E+00  0.00000000E+00  0.00000000E+00
  0.00000000E+00  0.00000000E+00  0.00000000E+00
  0.00000000E+00  0.00000000E+00  0.00000000E+00
  0.00000000E+00  0.00000000E+00  0.00000000E+00
  0.00000000E+00  0.00000000E+00  0.00000000E+00
  0.00000000E+00  0.00000000E+00  0.00000000E+00
  0.00000000E+00  0.00000000E+00  0.00000000E+00
  0.00000000E+00  0.00000000E+00  0.00000000E+00
  0.00000000E+00  0.00000000E+00  0.00000000E+00
  0.00000000E+00  0.00000000E+00  0.00000000E+00
  0.00000000E+00  0.00000000E+00  0.00000000E+00
  0.00000000E+00  0.00000000E+00  0.00000000E+00
  0.00000000E+00  0.00000000E+00  0.00000000E+00
  0.00000000E+00  0.00000000E+00  0.00000000E+00
  0.00000000E+00  0.00000000E+00  0.00000000E+00
  0.00000000E+00  0.00000000E+00  0.00000000E+00
  0.00000000E+00  0.00000000E+00  0.00000000E+00
  0.00000000E+00  0.00000000E+00  0.00000000E+00
  0.00000000E+00  0.00000000E+00  0.00000000E+00
  0.00000000E+00  0.00000000E+00  0.00000000E+00
  0.00000000E+00  0.00000000E+00  0.00000000E+00
  0.00000000E+00  0.00000000E+00  0.00000000E+00
  0.00000000E+00  0.00000000E+00  0.00000000E+00
  0.00000000E+00  0.00000000E+00  0.00000000E+00
  0.00000000E+00  0.00000000E+00  0.00000000E+00
  0.00000000E+00  0.00000000E+00  0.00000000E+00
  0.00000000E+00  0.00000000E+00  0.00000000E+00
  0.00000000E+00  0.00000000E+00  0.00000000E+00
  0.00000000E+00  0.00000000E+00  0.00000000E+00
  0.00000000E+00  0.00000000E+00  0.00000000E+00
  0.00000000E+00  0.00000000E+00  0.00000000E+00
  0.00000000E+00  0.00000000E+00  0.00000000E+00
  0.00000000E+00  0.00000000E+00  0.00000000E+00
  0.00000000E+00  0.00000000E+00  0.00000000E+00
  0.00000000E+00  0.00000000E+00  0.00000000E+00
  0.00000000E+00  0.00000000E+00  0.00000000E+00
  0.00000000E+00  0.00000000E+00  0.00000000E+00
  0.00000000E+00  0.00000000E+00  0.00000000E+00
