Nb Ta                                   
    1.000000000000000     
    13.2732895993170334    0.0003989966248024   -0.0002666637748117
     0.0003990114702245   13.2724660128017433   -0.0004449557057996
    -0.0002665633156426   -0.0004449949447811   13.2729364980937010
   Nb   Ta
    16   112
Direct
  0.5008813863469463  0.2500213077193712  0.5021620982809911
  0.1248966743200974  0.1246609267165095  0.8758140209880763
  0.6240662616281011  0.1237181108217703  0.6246430864562195
  0.6251097243154206  0.3749916987446197  0.6246239547831832
  0.0006843720509142  0.0001098013363082 -0.0006665961015279
  0.3754465536824013  0.3752851226907726  0.1253414677985446
  0.2495531457676815  0.7499825523728012 -0.0002585422667913
 -0.0000173702071060  0.5003821228068858 -0.0015134360328295
  0.5001449591950210  0.0004104001588296  0.7496811348099535
  0.0000826963640514  0.5002233729292566  0.2509246492662019
  0.6255750752558218  0.6255369198948575  0.6251297522530805
  0.3754030287343508  0.1243638633814272  0.1255533053137119
 -0.0002018758669563  0.7499174436498928  0.7504160728179945
  0.6250796226275933  0.8751208090925784  0.3753601013182053
  0.4987645370823662  0.2499972102167320  0.2479650531297411
  0.7494183085296064  0.5000023102483332  0.7492217598650275
  0.8751289425758536  0.1242809478090691  0.1244371019705869
  0.4992261669629028  0.5007583102380759  0.2494556615961661
  0.6239930235379164  0.1275948379309562  0.3736501236056980
  0.8737342832305918  0.1248347208972889  0.8753485542101321
  0.2488614550909997  0.2500876260809214  0.4997253272414674
  0.5010762937078379  0.2516482041730859  0.7502235595070449
  0.5006406189795687 -0.0010749970043828  0.4983758017726938
  0.0004389510846991  0.0013398974250335  0.7495440258600570
  0.1248216922053027  0.8732014542908659  0.8756558918722906
 -0.0014747255880551  0.7496490956616093  0.0013944054368535
  0.3758022772110226  0.8758125304056836  0.6254573784240396
  0.2498555907649782  0.7500000211884041  0.5000520230084147
  0.4993181591292660  0.0004520810999913  0.0017784914039720
  0.7489098229832533  0.4997085269000309  0.2500007294702787
  0.6243980607522835  0.8756402986434332  0.6267368399274387
  0.6238419974891903  0.3737304732793124  0.3738124266190069
  0.8750367539138811  0.3754749328649253  0.3749217144223578
  0.7494293182343952  0.4998795873375236  0.4994449538411782
  0.3746186127853197  0.6271472506807404  0.1244782496267369
  0.6256668655754815  0.3741720430880610  0.1254377934333678
  0.7500019735489096  0.7504450587502864  0.2503588141320563
  0.0003480825698080  0.2497163670579070  0.7511750593509676
  0.5001663975690320  0.7479404325951515  0.7499748786284179
  0.8751216825997308  0.3749923305726749  0.6256365574740984
  0.1256058424652886  0.1250225909639350  0.3748352903692845
  0.6258922218210276  0.1256669540430133  0.1256875923223580
  0.8748833934507753  0.6244965728293788  0.8740822618709447
  0.7519418160488329  0.2503380026381620  0.2498056939594770
  0.0002324529348244  0.7513243492983517  0.2494544735519191
  0.3745428493933156  0.6252582734328502  0.8755305159471363
  0.2479681173790604  0.0000545099562087  0.7508909464537278
  0.7507667108835359  0.7498846178440550 -0.0003895045308560
  0.7490065584397783  0.2487183953789029  0.7492763580778555
  0.3742224480964432  0.8731891565501290  0.1245443532834408
  0.2516042047253775  0.4983578300972317  0.0005453797368783
  0.8748638899878974  0.8758711490992793  0.1247401581944117
  0.2498231925750817  0.4999240097075187  0.4996290840828659
  0.1252646788337410  0.3761933250476184  0.8757937018163253
  0.1246236076654810  0.8744629264944249  0.6254390740586054
  0.0012093599505917  0.4989435788065797  0.7491356966345440
  0.5012143848819794  0.7500902648425630 -0.0006245365435486
  0.3769726951697581  0.1248472327617805  0.8728703368893633
  0.2514018688050909  0.0020544932330018 -0.0002417041982901
  0.0000277700108951 -0.0002462143310247  0.2511049506228697
  0.7489985259077488 -0.0001810037799721 -0.0002644528961201
  0.1254902593597746  0.3745714368339488  0.6250621099035022
  0.6251875459953120  0.8749273132472543  0.1239172699726530
  0.7504713409003861  0.2503030096481785 -0.0000192568558916
  0.2502540503287236 -0.0000350430675967  0.5001100652191114
  0.1248375192944207  0.6242142272647838  0.3743148913761454
  0.1248269131705908  0.6256997190160969  0.6254268990799166
  0.5003816532201489  0.7506490521040453  0.2506813405541552
  0.1251211948276956  0.6242706679371550  0.1246689046161481
  0.8756859662356568  0.8750539808016513  0.8746952551534578
  0.3752434716604173  0.6250680441038560  0.3752842766120479
 -0.0001674015750682  0.2504309923801037  0.4996811121208038
  0.3763490266756190  0.3737243914012567  0.3766496563870077
  0.2497577418224609  0.5002298634765148  0.7504075776582505
  0.8757510397625512  0.1252944555727758  0.6247940585055507
  0.3739100652459462  0.6248379944980310  0.6245855146119594
  0.6244172133805642  0.8758064691814308  0.8742603150188174
  0.2507498635763443  0.0006211508318984  0.2493616960717101
  0.1250920089677822  0.6255742310446262  0.8755617070101894
  0.1257628499209180  0.8754366646259535  0.1239827741353606
  0.1255150457539627  0.8753003976317013  0.3749938588899636
 -0.0003414100196862  0.2487464755259797  0.2500708229750415
  0.8756541204492132  0.6253187499470143  0.6258628141396360
  0.2493021432689186  0.2493944898378913  0.7508439093893922
  0.6249554947528352  0.6253263982148800  0.1251767002353147
  0.1231316189328421  0.3756348852838403  0.1249781169122287
  0.6255460539328308  0.3754132388208770  0.8757452613487021
  0.6244588676532642  0.1247061101821227  0.8757297978230246
  0.5009368618255093  0.5011110947779871  0.5008260248458618
  0.7487536261625559  0.7507328344681071  0.7500143246185162
  0.8754206754196922  0.8749680077778758  0.3754331258590593
  0.1249177431486419  0.3754145513001128  0.3742041686818123
 -0.0001736450194936  0.5001310494779690  0.5014182353429125
  0.5008077516492075  0.7500083732609005  0.5000390517464759
  0.6250396854095294  0.6238846464280399  0.3739309048808239
  0.2520995914584117  0.4993219225286983  0.2494186376280245
  0.2495039807592260  0.2502924779712684  0.2490132586181482
  0.8759699326193155  0.3757920483665440  0.1249292023034452
  0.4993669075829899  0.4994619481077920  0.0004353926709483
  0.8743162567816019  0.1249328808912829  0.3755052960201801
  0.0001916916087198  0.2497787050863133 -0.0007656909441303
  0.2503615403305176  0.2495073545810965  0.0004371382133783
  0.4997497474788259 -0.0013432480005007  0.2500233284312965
  0.3760160022142114  0.1262309292586275  0.3762999382611052
  0.6255509168543488  0.6241333681894364  0.8757037966720731
  0.7494073741259479  0.7497990000242012  0.5002138489734773
  0.3737307740645849  0.8750218451240879  0.3751289004622277
  0.8742319684693558  0.3755909799537984  0.8744998237453683
 -0.0002098159849283  0.7496844887796524  0.4988017061386539
  0.3751556029266355  0.8753103176428824  0.8748200467853845
  0.7513327040066041  0.0003892741276897  0.7498166718336026
 -0.0000785924357649 -0.0002678457052905  0.5000907632242689
  0.4991597229764474  0.2501158996672201 -0.0005593661924049
  0.3740228660258446  0.3744446759672637  0.6244854071147145
  0.4994040107318654  0.5000410907758791  0.7492790518085712
  0.3749528366125131  0.3745488841244855  0.8735647370659718
  0.1252335053930439  0.1252416093358786  0.6237406061677555
  0.3745499139196445  0.1248898852482005  0.6251681077590052
  0.7490236450558553  0.0001361610626620  0.4999813808256801
  0.2492775167319857  0.7496980898129096  0.2510316969534918
  0.7494739805933562 -0.0003304335910956  0.2507053862173724
  0.2512883568249422  0.7502214276905184  0.7491689859708618
  0.7492952113496513  0.5000480266598208  0.0011393267588931
  0.8748547558150404  0.6246667125684887  0.3745928844772953
  0.8754792375010362  0.6240978103111645  0.1255038364952968
  0.1238191774228385  0.1246332844983870  0.1258117196424503
  0.8749894754089210  0.8744272918230044  0.6252925048272071
  0.7505162625193388  0.2502861936187848  0.5007084750124288
 
  0.00000000E+00  0.00000000E+00  0.00000000E+00
  0.00000000E+00  0.00000000E+00  0.00000000E+00
  0.00000000E+00  0.00000000E+00  0.00000000E+00
  0.00000000E+00  0.00000000E+00  0.00000000E+00
  0.00000000E+00  0.00000000E+00  0.00000000E+00
  0.00000000E+00  0.00000000E+00  0.00000000E+00
  0.00000000E+00  0.00000000E+00  0.00000000E+00
  0.00000000E+00  0.00000000E+00  0.00000000E+00
  0.00000000E+00  0.00000000E+00  0.00000000E+00
  0.00000000E+00  0.00000000E+00  0.00000000E+00
  0.00000000E+00  0.00000000E+00  0.00000000E+00
  0.00000000E+00  0.00000000E+00  0.00000000E+00
  0.00000000E+00  0.00000000E+00  0.00000000E+00
  0.00000000E+00  0.00000000E+00  0.00000000E+00
  0.00000000E+00  0.00000000E+00  0.00000000E+00
  0.00000000E+00  0.00000000E+00  0.00000000E+00
  0.00000000E+00  0.00000000E+00  0.00000000E+00
  0.00000000E+00  0.00000000E+00  0.00000000E+00
  0.00000000E+00  0.00000000E+00  0.00000000E+00
  0.00000000E+00  0.00000000E+00  0.00000000E+00
  0.00000000E+00  0.00000000E+00  0.00000000E+00
  0.00000000E+00  0.00000000E+00  0.00000000E+00
  0.00000000E+00  0.00000000E+00  0.00000000E+00
  0.00000000E+00  0.00000000E+00  0.00000000E+00
  0.00000000E+00  0.00000000E+00  0.00000000E+00
  0.00000000E+00  0.00000000E+00  0.00000000E+00
  0.00000000E+00  0.00000000E+00  0.00000000E+00
  0.00000000E+00  0.00000000E+00  0.00000000E+00
  0.00000000E+00  0.00000000E+00  0.00000000E+00
  0.00000000E+00  0.00000000E+00  0.00000000E+00
  0.00000000E+00  0.00000000E+00  0.00000000E+00
  0.00000000E+00  0.00000000E+00  0.00000000E+00
  0.00000000E+00  0.00000000E+00  0.00000000E+00
  0.00000000E+00  0.00000000E+00  0.00000000E+00
  0.00000000E+00  0.00000000E+00  0.00000000E+00
  0.00000000E+00  0.00000000E+00  0.00000000E+00
  0.00000000E+00  0.00000000E+00  0.00000000E+00
  0.00000000E+00  0.00000000E+00  0.00000000E+00
  0.00000000E+00  0.00000000E+00  0.00000000E+00
  0.00000000E+00  0.00000000E+00  0.00000000E+00
  0.00000000E+00  0.00000000E+00  0.00000000E+00
  0.00000000E+00  0.00000000E+00  0.00000000E+00
  0.00000000E+00  0.00000000E+00  0.00000000E+00
  0.00000000E+00  0.00000000E+00  0.00000000E+00
  0.00000000E+00  0.00000000E+00  0.00000000E+00
  0.00000000E+00  0.00000000E+00  0.00000000E+00
  0.00000000E+00  0.00000000E+00  0.00000000E+00
  0.00000000E+00  0.00000000E+00  0.00000000E+00
  0.00000000E+00  0.00000000E+00  0.00000000E+00
  0.00000000E+00  0.00000000E+00  0.00000000E+00
  0.00000000E+00  0.00000000E+00  0.00000000E+00
  0.00000000E+00  0.00000000E+00  0.00000000E+00
  0.00000000E+00  0.00000000E+00  0.00000000E+00
  0.00000000E+00  0.00000000E+00  0.00000000E+00
  0.00000000E+00  0.00000000E+00  0.00000000E+00
  0.00000000E+00  0.00000000E+00  0.00000000E+00
  0.00000000E+00  0.00000000E+00  0.00000000E+00
  0.00000000E+00  0.00000000E+00  0.00000000E+00
  0.00000000E+00  0.00000000E+00  0.00000000E+00
  0.00000000E+00  0.00000000E+00  0.00000000E+00
  0.00000000E+00  0.00000000E+00  0.00000000E+00
  0.00000000E+00  0.00000000E+00  0.00000000E+00
  0.00000000E+00  0.00000000E+00  0.00000000E+00
  0.00000000E+00  0.00000000E+00  0.00000000E+00
  0.00000000E+00  0.00000000E+00  0.00000000E+00
  0.00000000E+00  0.00000000E+00  0.00000000E+00
  0.00000000E+00  0.00000000E+00  0.00000000E+00
  0.00000000E+00  0.00000000E+00  0.00000000E+00
  0.00000000E+00  0.00000000E+00  0.00000000E+00
  0.00000000E+00  0.00000000E+00  0.00000000E+00
  0.00000000E+00  0.00000000E+00  0.00000000E+00
  0.00000000E+00  0.00000000E+00  0.00000000E+00
  0.00000000E+00  0.00000000E+00  0.00000000E+00
  0.00000000E+00  0.00000000E+00  0.00000000E+00
  0.00000000E+00  0.00000000E+00  0.00000000E+00
  0.00000000E+00  0.00000000E+00  0.00000000E+00
  0.00000000E+00  0.00000000E+00  0.00000000E+00
  0.00000000E+00  0.00000000E+00  0.00000000E+00
  0.00000000E+00  0.00000000E+00  0.00000000E+00
  0.00000000E+00  0.00000000E+00  0.00000000E+00
  0.00000000E+00  0.00000000E+00  0.00000000E+00
  0.00000000E+00  0.00000000E+00  0.00000000E+00
  0.00000000E+00  0.00000000E+00  0.00000000E+00
  0.00000000E+00  0.00000000E+00  0.00000000E+00
  0.00000000E+00  0.00000000E+00  0.00000000E+00
  0.00000000E+00  0.00000000E+00  0.00000000E+00
  0.00000000E+00  0.00000000E+00  0.00000000E+00
  0.00000000E+00  0.00000000E+00  0.00000000E+00
  0.00000000E+00  0.00000000E+00  0.00000000E+00
  0.00000000E+00  0.00000000E+00  0.00000000E+00
  0.00000000E+00  0.00000000E+00  0.00000000E+00
  0.00000000E+00  0.00000000E+00  0.00000000E+00
  0.00000000E+00  0.00000000E+00  0.00000000E+00
  0.00000000E+00  0.00000000E+00  0.00000000E+00
  0.00000000E+00  0.00000000E+00  0.00000000E+00
  0.00000000E+00  0.00000000E+00  0.00000000E+00
  0.00000000E+00  0.00000000E+00  0.00000000E+00
  0.00000000E+00  0.00000000E+00  0.00000000E+00
  0.00000000E+00  0.00000000E+00  0.00000000E+00
  0.00000000E+00  0.00000000E+00  0.00000000E+00
  0.00000000E+00  0.00000000E+00  0.00000000E+00
  0.00000000E+00  0.00000000E+00  0.00000000E+00
  0.00000000E+00  0.00000000E+00  0.00000000E+00
  0.00000000E+00  0.00000000E+00  0.00000000E+00
  0.00000000E+00  0.00000000E+00  0.00000000E+00
  0.00000000E+00  0.00000000E+00  0.00000000E+00
  0.00000000E+00  0.00000000E+00  0.00000000E+00
  0.00000000E+00  0.00000000E+00  0.00000000E+00
  0.00000000E+00  0.00000000E+00  0.00000000E+00
  0.00000000E+00  0.00000000E+00  0.00000000E+00
  0.00000000E+00  0.00000000E+00  0.00000000E+00
  0.00000000E+00  0.00000000E+00  0.00000000E+00
  0.00000000E+00  0.00000000E+00  0.00000000E+00
  0.00000000E+00  0.00000000E+00  0.00000000E+00
  0.00000000E+00  0.00000000E+00  0.00000000E+00
  0.00000000E+00  0.00000000E+00  0.00000000E+00
  0.00000000E+00  0.00000000E+00  0.00000000E+00
  0.00000000E+00  0.00000000E+00  0.00000000E+00
  0.00000000E+00  0.00000000E+00  0.00000000E+00
  0.00000000E+00  0.00000000E+00  0.00000000E+00
  0.00000000E+00  0.00000000E+00  0.00000000E+00
  0.00000000E+00  0.00000000E+00  0.00000000E+00
  0.00000000E+00  0.00000000E+00  0.00000000E+00
  0.00000000E+00  0.00000000E+00  0.00000000E+00
  0.00000000E+00  0.00000000E+00  0.00000000E+00
  0.00000000E+00  0.00000000E+00  0.00000000E+00
  0.00000000E+00  0.00000000E+00  0.00000000E+00
  0.00000000E+00  0.00000000E+00  0.00000000E+00
