Hf Ti                                   
    1.000000000000000     
    11.7747884390152677   -0.0001005410585272   -0.0000427736285530
    -5.8874803590870339   10.1998543378981079    0.0000998203475961
    -0.0000681169745372    0.0001426898949777   18.6194423778774087
  Hf              Ti            
     4   124
Direct
     0.6673535629438884    0.3331896715723969    0.6876836829232228
     0.4167798101601245    0.5833063241767891    0.9374167965141944
     0.1653936033244682    0.0858857126424172    0.6873780517810508
     0.1663885502036374    0.8292810936986295    0.6873463283435624
     0.6668048643223019    0.0831436688168857    0.4363224833344072
     0.8335553382224217    0.1666704664407103    0.3121316172436353
     0.4169348293751325    0.8329173496060563    0.4369172499245294
     0.8361681594693798    0.4181204849895467    0.8153099599209748
     0.6668213992533988    0.8337349962843776    0.1880594743363685
     0.0814295759334262    0.6631650841768484    0.8148802782801148
     0.6665167282368779    0.3331456513945492    0.4367182875746694
     0.5838078521800671    0.1672182411664755    0.3118202844042485
     0.4167391032156302    0.5835316432219346    0.1876319693800376
     0.6670214691902213    0.5839818756762978    0.4365167746820687
     0.3319519141513884    0.4158138342282949    0.5617188448902218
     0.8337420439163303    0.6665659983846063    0.0637149351105131
     0.8320473666581388    0.1666742770067695    0.8135627570525078
     0.3358716865235332    0.9191391634328925    0.8144851340598953
     0.6669323918797807    0.0833576130942918    0.9386966506608478
     0.9169135315155930    0.3329926871227552    0.4366825178596883
     0.5833932586966211    0.1670585535069557    0.0630927921263334
     0.0840513913092013    0.4171896255946994    0.0631893643576934
     0.4163068713237499    0.3335725205024101    0.4364846424145149
     0.1666372755188486    0.0833525047297491    0.1876081327988025
     0.9138865807279921    0.0849211521108128    0.6869596915267693
     0.3338248264790443    0.6662398813912880    0.3125496291861936
     0.9167996561853285    0.8334696889861405    0.1875917047676687
     0.9168700952928974    0.5847971239828439    0.9387883659170364
     0.5867176031562251    0.6683909266618754    0.0645867627326024
     0.8335669286194445    0.9174550744180238    0.0635217409822834
     0.0824758931710054    0.6665238633252966    0.0638056809429076
     0.5831845015767242    0.6672730549888835    0.5618483362508279
     0.3318379257549453    0.4135649911021407    0.0647446052042805
     0.6665890556812460    0.5828530334970260    0.1880599586123473
     0.4167890924273108    0.5838228586447829    0.6874462207396801
     0.3316497291630045    0.6684312414691541    0.0644705988128230
     0.9159964218787503    0.8329933716620508    0.4365094231130467
     0.5823325049937647    0.4190772250615004    0.5600126365603251
     0.0808927794770496    0.1688868968939857    0.8143137062024960
     0.6708560343891760    0.8360488369553730    0.9383866285784502
     0.1642588895103019    0.3295373634170277    0.9390953859466674
     0.8334561337701742    0.6653741891948912    0.8125235087323777
     0.3354539059792701    0.9182164268248516    0.5596890789592563
     0.3373995959990235    0.1681281822183585    0.5603993057710903
     0.0838302385977370    0.4163754318082210    0.5606576654742105
     0.8336835995574780    0.1664691425549595    0.0628155928360996
     0.3379127918965087    0.1677687095553903    0.8137889826283383
     0.5836175204779582    0.9150239163520126    0.8135079095296408
     0.5825236702851737    0.6662773044295095    0.3124592851510372
     0.5822239363143739    0.1633360433844867    0.8154164401734292
     0.9162080150503953    0.0828703577880404    0.4368946273565258
     0.1662907891005345    0.3330667040006065    0.1880779191987121
     0.6666080285798157    0.3331039100976120    0.9382268834289650
     0.9167002154908760    0.0835172672007169    0.1880019775424548
     0.8335638706332058    0.9166916402651468    0.5618236391501187
     0.1667207610796824    0.8334266725420827    0.1876070252164515
     0.4172674853647680    0.3333750309239270    0.1880704185597158
     0.5814446397899282    0.4198147527122002    0.8148389375914452
     0.6661996535067838    0.8339017264462535    0.6869093924104166
     0.6656379720323490    0.5852924296003674    0.6868806551499930
     0.8329906000992248    0.4165811069249482    0.0628174604582491
     0.4156139297993486    0.0830182049689591    0.9392023873608745
     0.0853808882551389    0.4171995398759623    0.8141211627330531
     0.1649722352136273    0.3364115883892440    0.6869508984373202
     0.9198265565842879    0.3341350691091005    0.6876596073769873
     0.4166851199728424    0.0835457635962238    0.4357844089017807
     0.6663996319865206    0.0801721423539937    0.6876560724155748
     0.9164679768267794    0.8332602348909954    0.9384445045984884
     0.9167452795170626    0.0824357668596547    0.9381244798064357
     0.4210986628410587    0.8344278703316762    0.6869357357289175
     0.0824455709745228    0.6635578625399104    0.5592689529300301
     0.0820047471277947    0.1694867475252812    0.5598551833346781
     0.4170250723731776    0.8336010754463211    0.1880723747530819
     0.5837573903517296    0.4161672718919779    0.3122609660276334
     0.9174530143517194    0.5811877977535859    0.6869705547633094
     0.8318511488233529    0.1668803812642688    0.5615201326853360
     0.9163027955977604    0.5837201311804666    0.4362319460374556
     0.1670709976277354    0.0836622127056403    0.4368544985339000
     0.3329271169855901    0.1661119627340703    0.0637055784051261
     0.8332765673102991    0.6670197692737057    0.3121027202219024
     0.3335777063294714    0.9170723873720977    0.0637454641103878
     0.4149532348520939    0.3293401352042107    0.9385608472729349
     0.8331266721278836    0.9165208654893665    0.3122962552355626
     0.5825559324310543    0.9155577063135238    0.0629992442160347
     0.9166193578353575    0.3328607426702253    0.9383153095972840
     0.0835633665280708    0.9169678493031735    0.0632842758905780
     0.1648300401223763    0.5787134659010433    0.6869538792169479
     0.3327506721992567    0.6668062688142339    0.5619855448462546
     0.1671698020322639    0.5832557930693542    0.4363079718841569
     0.3330496416568937    0.9160218291578438    0.3120772476826982
     0.5829309831085280    0.4169471349451327    0.0629758679109253
     0.0833421282953842    0.1660829090227003    0.3122441757930991
     0.6710702489330093    0.5853125872680978    0.9384826793497179
     0.5844657198463743    0.9164987864824363    0.5612625229934927
     0.4168272792033759    0.5832798314625368    0.4375781957219237
     0.8330533785396678    0.6659324544399423    0.5617056732683861
     0.1642233253121052    0.5846397836623544    0.9386846097830733
     0.0801493419538123    0.9148348151896195    0.8155679756159864
     0.8359785226028504    0.4177537581992295    0.5597998985692864
     0.1668384615517395    0.0832442497042100    0.9380988507517893
     0.4206999043747019    0.0822800415391391    0.6870006609272519
     0.6668291388437935    0.0833810680952040    0.1873348139355217
     0.4184045437131524    0.3378797151985432    0.6868989412777226
     0.0824711621628078    0.4163714381649462    0.3119907226224880
     0.0824305611650740    0.1656509761998260    0.0635518228789412
     0.9164577841559294    0.3332792511266630    0.1873290845729255
     0.6668150437645904    0.3335176714944105    0.1873363818641280
     0.3298690434473400    0.4115412144319260    0.8112366382578666
     0.5833848308975800    0.9170909935689296    0.3122304622888080
     0.1666529091945669    0.8335227132423871    0.9389076315107286
     0.8340467588300295    0.9177732031910534    0.8124195117847707
     0.3324516335032525    0.1666245552759018    0.3120927995850420
     0.1665730891747618    0.5831726527611387    0.1880710564802170
     0.4169084326635118    0.0834229992963535    0.1880366664925657
     0.9165464731225289    0.5829030363058290    0.1880184512673632
     0.8328712265130642    0.4161787747739341    0.3121192969486963
     0.6668332107959623    0.8332203860193843    0.4366216696289668
     0.1668786219573802    0.8332860328287248    0.4361168391661933
     0.3307286340579966    0.6690174305928616    0.8109289452840828
     0.0836227331223929    0.9169511138605633    0.3120002614993663
     0.4156224887698842    0.8358957935529180    0.9381195710169875
     0.1672328453496524    0.3338111935359688    0.4358964295582690
     0.0834514002812421    0.6670148843243516    0.3120046661837590
     0.9119760562662137    0.8310563789790744    0.6874510014689004
     0.3339893730870567    0.4178155032145096    0.3122683965119539
     0.5875250004106235    0.6694967958618737    0.8111019641058625
     0.0800443710688743    0.9148034683925831    0.5590943244198220
     0.5824785397105924    0.1634902449486587    0.5597055423293669
 
  0.00000000E+00  0.00000000E+00  0.00000000E+00
  0.00000000E+00  0.00000000E+00  0.00000000E+00
  0.00000000E+00  0.00000000E+00  0.00000000E+00
  0.00000000E+00  0.00000000E+00  0.00000000E+00
  0.00000000E+00  0.00000000E+00  0.00000000E+00
  0.00000000E+00  0.00000000E+00  0.00000000E+00
  0.00000000E+00  0.00000000E+00  0.00000000E+00
  0.00000000E+00  0.00000000E+00  0.00000000E+00
  0.00000000E+00  0.00000000E+00  0.00000000E+00
  0.00000000E+00  0.00000000E+00  0.00000000E+00
  0.00000000E+00  0.00000000E+00  0.00000000E+00
  0.00000000E+00  0.00000000E+00  0.00000000E+00
  0.00000000E+00  0.00000000E+00  0.00000000E+00
  0.00000000E+00  0.00000000E+00  0.00000000E+00
  0.00000000E+00  0.00000000E+00  0.00000000E+00
  0.00000000E+00  0.00000000E+00  0.00000000E+00
  0.00000000E+00  0.00000000E+00  0.00000000E+00
  0.00000000E+00  0.00000000E+00  0.00000000E+00
  0.00000000E+00  0.00000000E+00  0.00000000E+00
  0.00000000E+00  0.00000000E+00  0.00000000E+00
  0.00000000E+00  0.00000000E+00  0.00000000E+00
  0.00000000E+00  0.00000000E+00  0.00000000E+00
  0.00000000E+00  0.00000000E+00  0.00000000E+00
  0.00000000E+00  0.00000000E+00  0.00000000E+00
  0.00000000E+00  0.00000000E+00  0.00000000E+00
  0.00000000E+00  0.00000000E+00  0.00000000E+00
  0.00000000E+00  0.00000000E+00  0.00000000E+00
  0.00000000E+00  0.00000000E+00  0.00000000E+00
  0.00000000E+00  0.00000000E+00  0.00000000E+00
  0.00000000E+00  0.00000000E+00  0.00000000E+00
  0.00000000E+00  0.00000000E+00  0.00000000E+00
  0.00000000E+00  0.00000000E+00  0.00000000E+00
  0.00000000E+00  0.00000000E+00  0.00000000E+00
  0.00000000E+00  0.00000000E+00  0.00000000E+00
  0.00000000E+00  0.00000000E+00  0.00000000E+00
  0.00000000E+00  0.00000000E+00  0.00000000E+00
  0.00000000E+00  0.00000000E+00  0.00000000E+00
  0.00000000E+00  0.00000000E+00  0.00000000E+00
  0.00000000E+00  0.00000000E+00  0.00000000E+00
  0.00000000E+00  0.00000000E+00  0.00000000E+00
  0.00000000E+00  0.00000000E+00  0.00000000E+00
  0.00000000E+00  0.00000000E+00  0.00000000E+00
  0.00000000E+00  0.00000000E+00  0.00000000E+00
  0.00000000E+00  0.00000000E+00  0.00000000E+00
  0.00000000E+00  0.00000000E+00  0.00000000E+00
  0.00000000E+00  0.00000000E+00  0.00000000E+00
  0.00000000E+00  0.00000000E+00  0.00000000E+00
  0.00000000E+00  0.00000000E+00  0.00000000E+00
  0.00000000E+00  0.00000000E+00  0.00000000E+00
  0.00000000E+00  0.00000000E+00  0.00000000E+00
  0.00000000E+00  0.00000000E+00  0.00000000E+00
  0.00000000E+00  0.00000000E+00  0.00000000E+00
  0.00000000E+00  0.00000000E+00  0.00000000E+00
  0.00000000E+00  0.00000000E+00  0.00000000E+00
  0.00000000E+00  0.00000000E+00  0.00000000E+00
  0.00000000E+00  0.00000000E+00  0.00000000E+00
  0.00000000E+00  0.00000000E+00  0.00000000E+00
  0.00000000E+00  0.00000000E+00  0.00000000E+00
  0.00000000E+00  0.00000000E+00  0.00000000E+00
  0.00000000E+00  0.00000000E+00  0.00000000E+00
  0.00000000E+00  0.00000000E+00  0.00000000E+00
  0.00000000E+00  0.00000000E+00  0.00000000E+00
  0.00000000E+00  0.00000000E+00  0.00000000E+00
  0.00000000E+00  0.00000000E+00  0.00000000E+00
  0.00000000E+00  0.00000000E+00  0.00000000E+00
  0.00000000E+00  0.00000000E+00  0.00000000E+00
  0.00000000E+00  0.00000000E+00  0.00000000E+00
  0.00000000E+00  0.00000000E+00  0.00000000E+00
  0.00000000E+00  0.00000000E+00  0.00000000E+00
  0.00000000E+00  0.00000000E+00  0.00000000E+00
  0.00000000E+00  0.00000000E+00  0.00000000E+00
  0.00000000E+00  0.00000000E+00  0.00000000E+00
  0.00000000E+00  0.00000000E+00  0.00000000E+00
  0.00000000E+00  0.00000000E+00  0.00000000E+00
  0.00000000E+00  0.00000000E+00  0.00000000E+00
  0.00000000E+00  0.00000000E+00  0.00000000E+00
  0.00000000E+00  0.00000000E+00  0.00000000E+00
  0.00000000E+00  0.00000000E+00  0.00000000E+00
  0.00000000E+00  0.00000000E+00  0.00000000E+00
  0.00000000E+00  0.00000000E+00  0.00000000E+00
  0.00000000E+00  0.00000000E+00  0.00000000E+00
  0.00000000E+00  0.00000000E+00  0.00000000E+00
  0.00000000E+00  0.00000000E+00  0.00000000E+00
  0.00000000E+00  0.00000000E+00  0.00000000E+00
  0.00000000E+00  0.00000000E+00  0.00000000E+00
  0.00000000E+00  0.00000000E+00  0.00000000E+00
  0.00000000E+00  0.00000000E+00  0.00000000E+00
  0.00000000E+00  0.00000000E+00  0.00000000E+00
  0.00000000E+00  0.00000000E+00  0.00000000E+00
  0.00000000E+00  0.00000000E+00  0.00000000E+00
  0.00000000E+00  0.00000000E+00  0.00000000E+00
  0.00000000E+00  0.00000000E+00  0.00000000E+00
  0.00000000E+00  0.00000000E+00  0.00000000E+00
  0.00000000E+00  0.00000000E+00  0.00000000E+00
  0.00000000E+00  0.00000000E+00  0.00000000E+00
  0.00000000E+00  0.00000000E+00  0.00000000E+00
  0.00000000E+00  0.00000000E+00  0.00000000E+00
  0.00000000E+00  0.00000000E+00  0.00000000E+00
  0.00000000E+00  0.00000000E+00  0.00000000E+00
  0.00000000E+00  0.00000000E+00  0.00000000E+00
  0.00000000E+00  0.00000000E+00  0.00000000E+00
  0.00000000E+00  0.00000000E+00  0.00000000E+00
  0.00000000E+00  0.00000000E+00  0.00000000E+00
  0.00000000E+00  0.00000000E+00  0.00000000E+00
  0.00000000E+00  0.00000000E+00  0.00000000E+00
  0.00000000E+00  0.00000000E+00  0.00000000E+00
  0.00000000E+00  0.00000000E+00  0.00000000E+00
  0.00000000E+00  0.00000000E+00  0.00000000E+00
  0.00000000E+00  0.00000000E+00  0.00000000E+00
  0.00000000E+00  0.00000000E+00  0.00000000E+00
  0.00000000E+00  0.00000000E+00  0.00000000E+00
  0.00000000E+00  0.00000000E+00  0.00000000E+00
  0.00000000E+00  0.00000000E+00  0.00000000E+00
  0.00000000E+00  0.00000000E+00  0.00000000E+00
  0.00000000E+00  0.00000000E+00  0.00000000E+00
  0.00000000E+00  0.00000000E+00  0.00000000E+00
  0.00000000E+00  0.00000000E+00  0.00000000E+00
  0.00000000E+00  0.00000000E+00  0.00000000E+00
  0.00000000E+00  0.00000000E+00  0.00000000E+00
  0.00000000E+00  0.00000000E+00  0.00000000E+00
  0.00000000E+00  0.00000000E+00  0.00000000E+00
  0.00000000E+00  0.00000000E+00  0.00000000E+00
  0.00000000E+00  0.00000000E+00  0.00000000E+00
  0.00000000E+00  0.00000000E+00  0.00000000E+00
  0.00000000E+00  0.00000000E+00  0.00000000E+00
  0.00000000E+00  0.00000000E+00  0.00000000E+00
  0.00000000E+00  0.00000000E+00  0.00000000E+00
  0.00000000E+00  0.00000000E+00  0.00000000E+00
