Hf Ta                                   
    1.000000000000000     
    11.9060942397476719   -1.0480976497958794   -0.0443118634229535
    -6.8819340751895144   11.8628998490035364    0.0281561534677602
    -0.0722417837386387    0.0070441507197820   19.4793823221907054
  Hf             Ta           
              68              60
Direct
  0.8647065328711460  0.5691491782482127  0.4453170836142333
  0.1496692970041510  0.9539883663298850  0.0575900129122079
  0.6290705756478798  0.6768701727363631  0.3191214993365792
  0.6242793193147887  0.6912403617321091  0.5602622003684399
  0.1150035629627056  0.4306847560008443  0.8142712975176618
  0.8808374161124166  0.5603219437216478  0.9264461554038534
  0.6222859631960843  0.6913632280282028  0.0714690803511015
  0.6337906172668620  0.4387426067845934  0.0709261444498632
  0.3801559542977458  0.2023389222160551  0.5750880014028924
  0.6328725225998800  0.8235086968519079  0.1934607264959258
  0.1252727798471430  0.0544350824049223  0.4175841654607531
  0.3685222402845691  0.4329272033172092  0.3114252298226124
  0.1377059848737067  0.1875885999868818  0.0557440157912631
  0.6162328666350958  0.1761442714451140  0.5686426521072793
  0.1227743162134353  0.0649341176757541  0.6870747244547795
  0.8788321203989737  0.0818275079124761  0.1945087188507676
  0.8910689128861100  0.6934947231606556  0.3089285716168080
  0.6289190058927794  0.9406135391686858  0.0549060910541058
  0.8835363683600146  0.9391028628694792  0.0600095756879262
  0.8638354935384780  0.4318029485104087  0.3160457271405467
  0.8759614101203448  0.9414356929008055  0.8131019188043515
  0.1134138544278685  0.0584139908058345  0.1909023850979599
  0.3797375427666556  0.6877009808335628  0.3143691109068363
  0.6389167455495345  0.9548093435899874  0.3182377576349620
  0.6216207682878702  0.3139634418069319  0.4396518248576320
  0.1182317131880194  0.9383677734199350  0.5561568014232485
  0.3532315993416940  0.9066526119478073  0.5672325952813331
  0.1305003356942651  0.8095210800330095  0.4256558071754637
  0.1061931618726922  0.8049846372309121  0.1839967954427363
  0.1421592019607878  0.5765123155908919  0.6899667492513293
  0.3624730794464564  0.8040618464580698  0.1810791018268425
  0.1286935858274599  0.9307835396062497  0.8215663541711984
  0.3908535172684747  0.0561270299039235  0.6893553854090760
  0.6255504384003790  0.4451211537339139  0.8115020809560248
  0.1315924971390580  0.3318007261757552  0.4357704641556726
  0.1419036771558928  0.5685934692601273  0.9432875951594072
  0.6252168290410152  0.9352383537158894  0.5627287075537852
  0.3653385587704280  0.0594804687318364  0.1841989018108030
  0.3602581123930343  0.3096375452005908  0.9325934871746970
  0.1170316760723074  0.1751555667189832  0.5514804716430513
  0.1314608072435246  0.5653798100879294  0.4322406160782036
  0.3848733580076827  0.1839501023186071  0.8122834808834341
  0.1198675140342409  0.6871896994786970  0.8154586416639604
  0.8699966687847533  0.0585412993858983  0.4377532317006420
  0.6238759018487323  0.3041327903396888  0.1983975070896148
  0.3636154425299026  0.6831980262927033  0.5647062791399159
  0.3732322613717465  0.4439819179532953  0.0582574506718995
  0.0876798088927858  0.6641212451478179  0.5595083618992027
  0.3780314888258340  0.1966074138189582  0.3118575734000535
  0.8737563140837654  0.3086257877247136  0.6872967991711778
  0.6195664566871729  0.0618104013537397  0.1848846154731092
  0.6335602072091364  0.5774718927499954  0.9441611861570731
  0.8851070943076227  0.3174968679013938  0.1816574037874111
  0.1150246690072089  0.8056302100615433  0.6857460704152625
  0.0926278002099716  0.1913887857715620  0.3122509831379439
  0.8752787344834847  0.3127714737471353  0.9320320430672914
  0.8618531158127190  0.8070475602781929  0.4458561228388464
  0.1279546810562930  0.1979331076221512  0.8200585266466132
  0.1423169273522091  0.3191325773017960  0.6858088326235499
  0.3756540260109377  0.0600647104991875  0.4413761485272493
  0.8863580624545225  0.9255779897293896  0.3058862467441449
  0.8682753537404979  0.5537682662165690  0.1815744533649837
  0.8892100754051839  0.6941905782709509  0.0545507689571181
  0.6214658623640159  0.6863625566794396  0.8111765320415251
  0.0884592969920632  0.4270871692604790  0.5640099383252991
  0.1529448677276997  0.3288818707480494  0.1832008700319010
  0.6132751895634262  0.3007422122128043  0.9405273500031279
  0.3713167044961207  0.4364116450738610  0.5676364584108008
  0.4031200239527347  0.1963849751072481  0.0542518349575404
  0.3921940145178762  0.5767818634064423  0.6950909357737316
  0.8413059077289218  0.4242094882231612  0.5612841522617045
  0.6316752440931110  0.0552868471153250  0.6961352484562028
  0.3750914077359022  0.9291775977312250  0.3147299717321518
  0.6256388784890344  0.3161556140483066  0.6920196812851906
  0.6238604257771242  0.5643010701249037  0.6850092477864191
  0.3850211860257955  0.5775348440001383  0.1808992530633542
  0.6311194447578246  0.8196409014376496  0.6895750517077970
  0.3873031297087781  0.8227545500877917  0.6985639934840095
  0.8865711108221043  0.4410013000471701  0.0561920872343027
  0.6345020752555888  0.8145808337493256  0.9342243948490240
  0.1235042583705876  0.3206629908590348  0.9443933434427536
  0.6255259435900641  0.0630263014418573  0.9347188465704199
  0.8880088381528223  0.8143925421781270  0.9290920682138634
  0.6087415968644297  0.5508339734150004  0.1930492412397442
  0.8733939721978422  0.9385341067813306  0.5778054050199850
  0.6303215349914959  0.0709983019028226  0.4401855810198870
  0.6045570059098605  0.8054541220722033  0.4338643907665641
  0.8687105064297819  0.0640083479308514  0.6868858194838348
  0.3644098383722285  0.3062006475599479  0.4439137700315105
  0.8630939069575700  0.6823721167609225  0.5756095968334407
  0.8699766727082777  0.3109312879129421  0.4477662628143755
  0.1581978322171314  0.9428893635258572  0.3017074247162425
  0.1391504498588840  0.6918192712951494  0.0643494803565968
  0.8591872403198559  0.4296679866070493  0.8012522954144291
  0.3872828828415448  0.5716854969270565  0.9302024942319718
  0.1338518668489151  0.6809819469933889  0.3015906018784142
  0.3873048346087724  0.9414255232969762  0.0553524375888888
  0.3893149738274756  0.9433325145132253  0.8189466442160610
  0.6032581571616055  0.5411916349453103  0.4418281167938662
  0.6123966511564211  0.1695056148604805  0.3201954536304029
  0.1077002346346237  0.0507637651709624  0.9363422717477063
  0.8653323225427020  0.5580219879934336  0.6885196870366516
  0.6369289785277554  0.1843108822055621  0.0585027171169144
  0.6244257099079300  0.4504066713047921  0.3162556917704609
  0.6247949196653967  0.4431558286720712  0.5664918703105842
  0.3945353430711042  0.3291427716532638  0.6984713925023057
  0.8749229026612514  0.0677511038129893  0.9377323268858948
  0.8635639646676343  0.2095100144036646  0.3207531349630200
  0.3938555025175767  0.5697569391904801  0.4397418968607418
  0.3895439909089476  0.3108090078851510  0.1754437063234112
  0.8470128211648849  0.7865005834892665  0.1801957390493003
  0.3900409627224926  0.8187632249151359  0.9378593088101175
  0.8790934265495992  0.6947741478041397  0.8056804342323388
  0.8610688835913558  0.8045604125364147  0.6881133656829259
  0.1324503643480587  0.5613910462569249  0.1831497858983834
  0.3770858477429618  0.6929069020607903  0.8141450433713474
  0.1330230784904121  0.8087262797369690  0.9436536459293660
  0.1158680653143034  0.4338507958207902  0.0633352061372904
  0.3659173239337450  0.6810174152012508  0.0553235097005842
  0.1169786062632210  0.4410526923747483  0.3050695084894089
  0.3691448821343188  0.0508751822841251  0.9391417186294425
  0.3902572369374885  0.8255165366977825  0.4373857823409444
  0.6315639579287603  0.1835170775201581  0.8110756652147636
  0.6236639970368124  0.9351200679172483  0.8159692002297163
  0.8675889676625689  0.1772866659456125  0.5627962254427631
  0.3692507387026756  0.4416766636566500  0.8069760671471655
  0.8621124319102598  0.1716205697147308  0.8121383450865185
  0.8797947287794966  0.1905530101238455  0.0572411644079047
 
  0.00000000E+00  0.00000000E+00  0.00000000E+00
  0.00000000E+00  0.00000000E+00  0.00000000E+00
  0.00000000E+00  0.00000000E+00  0.00000000E+00
  0.00000000E+00  0.00000000E+00  0.00000000E+00
  0.00000000E+00  0.00000000E+00  0.00000000E+00
  0.00000000E+00  0.00000000E+00  0.00000000E+00
  0.00000000E+00  0.00000000E+00  0.00000000E+00
  0.00000000E+00  0.00000000E+00  0.00000000E+00
  0.00000000E+00  0.00000000E+00  0.00000000E+00
  0.00000000E+00  0.00000000E+00  0.00000000E+00
  0.00000000E+00  0.00000000E+00  0.00000000E+00
  0.00000000E+00  0.00000000E+00  0.00000000E+00
  0.00000000E+00  0.00000000E+00  0.00000000E+00
  0.00000000E+00  0.00000000E+00  0.00000000E+00
  0.00000000E+00  0.00000000E+00  0.00000000E+00
  0.00000000E+00  0.00000000E+00  0.00000000E+00
  0.00000000E+00  0.00000000E+00  0.00000000E+00
  0.00000000E+00  0.00000000E+00  0.00000000E+00
  0.00000000E+00  0.00000000E+00  0.00000000E+00
  0.00000000E+00  0.00000000E+00  0.00000000E+00
  0.00000000E+00  0.00000000E+00  0.00000000E+00
  0.00000000E+00  0.00000000E+00  0.00000000E+00
  0.00000000E+00  0.00000000E+00  0.00000000E+00
  0.00000000E+00  0.00000000E+00  0.00000000E+00
  0.00000000E+00  0.00000000E+00  0.00000000E+00
  0.00000000E+00  0.00000000E+00  0.00000000E+00
  0.00000000E+00  0.00000000E+00  0.00000000E+00
  0.00000000E+00  0.00000000E+00  0.00000000E+00
  0.00000000E+00  0.00000000E+00  0.00000000E+00
  0.00000000E+00  0.00000000E+00  0.00000000E+00
  0.00000000E+00  0.00000000E+00  0.00000000E+00
  0.00000000E+00  0.00000000E+00  0.00000000E+00
  0.00000000E+00  0.00000000E+00  0.00000000E+00
  0.00000000E+00  0.00000000E+00  0.00000000E+00
  0.00000000E+00  0.00000000E+00  0.00000000E+00
  0.00000000E+00  0.00000000E+00  0.00000000E+00
  0.00000000E+00  0.00000000E+00  0.00000000E+00
  0.00000000E+00  0.00000000E+00  0.00000000E+00
  0.00000000E+00  0.00000000E+00  0.00000000E+00
  0.00000000E+00  0.00000000E+00  0.00000000E+00
  0.00000000E+00  0.00000000E+00  0.00000000E+00
  0.00000000E+00  0.00000000E+00  0.00000000E+00
  0.00000000E+00  0.00000000E+00  0.00000000E+00
  0.00000000E+00  0.00000000E+00  0.00000000E+00
  0.00000000E+00  0.00000000E+00  0.00000000E+00
  0.00000000E+00  0.00000000E+00  0.00000000E+00
  0.00000000E+00  0.00000000E+00  0.00000000E+00
  0.00000000E+00  0.00000000E+00  0.00000000E+00
  0.00000000E+00  0.00000000E+00  0.00000000E+00
  0.00000000E+00  0.00000000E+00  0.00000000E+00
  0.00000000E+00  0.00000000E+00  0.00000000E+00
  0.00000000E+00  0.00000000E+00  0.00000000E+00
  0.00000000E+00  0.00000000E+00  0.00000000E+00
  0.00000000E+00  0.00000000E+00  0.00000000E+00
  0.00000000E+00  0.00000000E+00  0.00000000E+00
  0.00000000E+00  0.00000000E+00  0.00000000E+00
  0.00000000E+00  0.00000000E+00  0.00000000E+00
  0.00000000E+00  0.00000000E+00  0.00000000E+00
  0.00000000E+00  0.00000000E+00  0.00000000E+00
  0.00000000E+00  0.00000000E+00  0.00000000E+00
  0.00000000E+00  0.00000000E+00  0.00000000E+00
  0.00000000E+00  0.00000000E+00  0.00000000E+00
  0.00000000E+00  0.00000000E+00  0.00000000E+00
  0.00000000E+00  0.00000000E+00  0.00000000E+00
  0.00000000E+00  0.00000000E+00  0.00000000E+00
  0.00000000E+00  0.00000000E+00  0.00000000E+00
  0.00000000E+00  0.00000000E+00  0.00000000E+00
  0.00000000E+00  0.00000000E+00  0.00000000E+00
  0.00000000E+00  0.00000000E+00  0.00000000E+00
  0.00000000E+00  0.00000000E+00  0.00000000E+00
  0.00000000E+00  0.00000000E+00  0.00000000E+00
  0.00000000E+00  0.00000000E+00  0.00000000E+00
  0.00000000E+00  0.00000000E+00  0.00000000E+00
  0.00000000E+00  0.00000000E+00  0.00000000E+00
  0.00000000E+00  0.00000000E+00  0.00000000E+00
  0.00000000E+00  0.00000000E+00  0.00000000E+00
  0.00000000E+00  0.00000000E+00  0.00000000E+00
  0.00000000E+00  0.00000000E+00  0.00000000E+00
  0.00000000E+00  0.00000000E+00  0.00000000E+00
  0.00000000E+00  0.00000000E+00  0.00000000E+00
  0.00000000E+00  0.00000000E+00  0.00000000E+00
  0.00000000E+00  0.00000000E+00  0.00000000E+00
  0.00000000E+00  0.00000000E+00  0.00000000E+00
  0.00000000E+00  0.00000000E+00  0.00000000E+00
  0.00000000E+00  0.00000000E+00  0.00000000E+00
  0.00000000E+00  0.00000000E+00  0.00000000E+00
  0.00000000E+00  0.00000000E+00  0.00000000E+00
  0.00000000E+00  0.00000000E+00  0.00000000E+00
  0.00000000E+00  0.00000000E+00  0.00000000E+00
  0.00000000E+00  0.00000000E+00  0.00000000E+00
  0.00000000E+00  0.00000000E+00  0.00000000E+00
  0.00000000E+00  0.00000000E+00  0.00000000E+00
  0.00000000E+00  0.00000000E+00  0.00000000E+00
  0.00000000E+00  0.00000000E+00  0.00000000E+00
  0.00000000E+00  0.00000000E+00  0.00000000E+00
  0.00000000E+00  0.00000000E+00  0.00000000E+00
  0.00000000E+00  0.00000000E+00  0.00000000E+00
  0.00000000E+00  0.00000000E+00  0.00000000E+00
  0.00000000E+00  0.00000000E+00  0.00000000E+00
  0.00000000E+00  0.00000000E+00  0.00000000E+00
  0.00000000E+00  0.00000000E+00  0.00000000E+00
  0.00000000E+00  0.00000000E+00  0.00000000E+00
  0.00000000E+00  0.00000000E+00  0.00000000E+00
  0.00000000E+00  0.00000000E+00  0.00000000E+00
  0.00000000E+00  0.00000000E+00  0.00000000E+00
  0.00000000E+00  0.00000000E+00  0.00000000E+00
  0.00000000E+00  0.00000000E+00  0.00000000E+00
  0.00000000E+00  0.00000000E+00  0.00000000E+00
  0.00000000E+00  0.00000000E+00  0.00000000E+00
  0.00000000E+00  0.00000000E+00  0.00000000E+00
  0.00000000E+00  0.00000000E+00  0.00000000E+00
  0.00000000E+00  0.00000000E+00  0.00000000E+00
  0.00000000E+00  0.00000000E+00  0.00000000E+00
  0.00000000E+00  0.00000000E+00  0.00000000E+00
  0.00000000E+00  0.00000000E+00  0.00000000E+00
  0.00000000E+00  0.00000000E+00  0.00000000E+00
  0.00000000E+00  0.00000000E+00  0.00000000E+00
  0.00000000E+00  0.00000000E+00  0.00000000E+00
  0.00000000E+00  0.00000000E+00  0.00000000E+00
  0.00000000E+00  0.00000000E+00  0.00000000E+00
  0.00000000E+00  0.00000000E+00  0.00000000E+00
  0.00000000E+00  0.00000000E+00  0.00000000E+00
  0.00000000E+00  0.00000000E+00  0.00000000E+00
  0.00000000E+00  0.00000000E+00  0.00000000E+00
  0.00000000E+00  0.00000000E+00  0.00000000E+00
  0.00000000E+00  0.00000000E+00  0.00000000E+00
  0.00000000E+00  0.00000000E+00  0.00000000E+00
  0.00000000E+00  0.00000000E+00  0.00000000E+00
