Hf Ta                                   
    1.000000000000000     
    12.1346158851460064    1.0003054989989051   -0.0408848506477048
    -5.1868640385546572   11.0194243093064728    0.0283239319046712
    -0.0672628771445045    0.0167277784424890   19.1713657964875779
  Hf             Ta           
              80              48
Direct
  0.3146369231233885  0.4332789388558602  0.5616887289235172
  0.4264237145959988  0.8167691827937694  0.9406325143412853
  0.5880216525442893  0.6845743636643841  0.8153053494322968
  0.0654923372638622  0.4174802384479573  0.3158627122135907
  0.8236898931104443  0.9206125581353882  0.8129289266023121
  0.5682837989522233  0.9247799420596167  0.3059926627537684
  0.9304994670974114  0.5855551972896169  0.1867123683526891
  0.6679785848842628  0.8346396460898807  0.6861855901069435
  0.1839008850597859  0.0756245305824623  0.9425855229630946
  0.3271538410527460  0.1734769126009161  0.3183695212120992
  0.0771192678821190  0.1817832968734519  0.0602532488127767
  0.0703391899391351  0.1741467832710928  0.3156632761371665
  0.5766820832463602  0.9417600218763963  0.8127585368727407
  0.4270591407005452  0.0684138926368419  0.1859688921017608
  0.8088682714052107  0.4218519404448001  0.3055000223580309
  0.0710623098507053  0.9145245380450004  0.3087465110765850
  0.4256392462999216  0.5804905855292457  0.1866737519654065
  0.9295458115458207  0.8218983046229486  0.9335594770888325
  0.4259125138692230  0.5655409874828855  0.9307023567303477
  0.1695969578567884  0.5661915658726230  0.6822682620394729
  0.0871015182827486  0.4240330236166154  0.8111191713249039
  0.1800271291286744  0.5700834799271625  0.1857729800264629
  0.8191020642971899  0.9358119481489309  0.3183568227435662
  0.9087597177768787  0.8260052681993894  0.1868862544636983
  0.8381766299232374  0.6804705432022101  0.3180074336853666
  0.5721432204311183  0.9308074958756077  0.0669123739746675
  0.6776762500755628  0.3259672381367603  0.4395110091821705
  0.3190658373151276  0.4259868257039215  0.3145717280350258
  0.6761068331733230  0.3143494157432415  0.9338657918112011
  0.9347908542992018  0.0745645440155832  0.6845309926464009
  0.9124091194701356  0.0683626700053390  0.9420965045887812
  0.9458087368277570  0.5663405124059654  0.4397413234779942
  0.9247292066027404  0.3228087820245986  0.1845809711400690
  0.4199933960261723  0.3179664433081859  0.9393222093710321
  0.9303070041250179  0.8172057692891534  0.6871695140120981
  0.0912342369350527  0.6732573364107650  0.3099960440297238
  0.5736233731927485  0.6829623963623465  0.0606060696328639
  0.0691586617622512  0.1730372018500733  0.8170870634937044
  0.3229398071124637  0.6689314799908500  0.8106388458198345
  0.5721556241394098  0.6790306811108739  0.3157239212543093
  0.1767869189018562  0.5725913762831490  0.9412617875859092
  0.9363727205864697  0.3269096482687391  0.9394434351392527
  0.9236496663844650  0.0788446246925298  0.1870908180621300
  0.8188801812908996  0.6756807389050702  0.0587794106188602
  0.4323066726327325  0.3187694645469532  0.6866413532093133
  0.0671600968961708  0.6775301518714775  0.8130496826876665
  0.5539767875009458  0.9341283961317381  0.5620164682138679
  0.8164287566418594  0.9217237965513135  0.5590899308060241
  0.6731640938511434  0.5805830820778951  0.4360485894963219
  0.1816157620498972  0.0774410201912013  0.1854844618568298
  0.6756973196400375  0.5689883558573861  0.1949487033813742
  0.8289329904541858  0.6684930618433574  0.5607602948704774
  0.9296865395145945  0.8349972480939701  0.4423013115931733
  0.5814182429626821  0.4292433624384417  0.0614220655123640
  0.3154716602473429  0.9206573935839678  0.0612327603623078
  0.5707479638327072  0.4228293330253224  0.5585496977367992
  0.4284048968049777  0.5794531358081267  0.6912091307282351
  0.4385494813932947  0.0742222231495617  0.9373326876918606
  0.4290842640027064  0.3206465688376727  0.1884382569594053
  0.8170991475866591  0.4331861362992768  0.8077259447802027
  0.1752843623975687  0.0651199568409096  0.4414784817147050
  0.0664501860793398  0.9168047390683184  0.0647643530385219
  0.3188590223642973  0.4252713803494186  0.0616738908191862
  0.6835988285242917  0.0878081121150892  0.1878159716223151
  0.3219331539806209  0.1735071682251821  0.8105113468281653
  0.9338803490677952  0.3280018648395681  0.6861885307706890
  0.3198842151731757  0.9175508301594906  0.3140920083008586
  0.5705575146296780  0.6783410339870718  0.5594288932624277
  0.6807634098423015  0.0728330575295350  0.4331753969478691
  0.8309713284210396  0.4263244996371042  0.0603778921041224
  0.8087158449299240  0.1738957608058896  0.8120636330399192
  0.0867719694743126  0.9307171861094952  0.8113431943376631
  0.5781493391094420  0.1857042865456770  0.3127931163311038
  0.0758145999193756  0.6717969351122307  0.0579862182746750
  0.3222036086208968  0.9176495080647212  0.8097693914778674
  0.6822930432415263  0.5666306225947492  0.6903571219974021
  0.3179648672960883  0.6941753395886058  0.5620533720352270
  0.8277098097146318  0.4227831626199667  0.5670597386096280
  0.8192152438898829  0.1745969151047503  0.5638652323481068
  0.1791739317469387  0.8099501535301080  0.4437594139236878
  0.6795088993337572  0.5690453423797752  0.9328899233100398
  0.6697277595714014  0.0850838259149425  0.6850506544234943
  0.1727981813160780  0.3242863059281657  0.1844194166578861
  0.9381040086638127  0.3161844729713026  0.4409874109214511
  0.4306928254891394  0.8173750768499676  0.4309227231779366
  0.6766775341119339  0.3149133730833460  0.6819335691795286
  0.4180431985212730  0.8150756562049563  0.1858162440664604
  0.1760081985444555  0.8278013848047096  0.9364309280146167
  0.0695015085085417  0.4339281571617164  0.5561537473524552
  0.1850726085371180  0.8243549811661062  0.6826302690060126
  0.1889310033224748  0.5585109208631506  0.4374922642254678
  0.4248243277297494  0.3168153161211009  0.4385014995665756
  0.3286678224013820  0.6780732083646571  0.0662294808155854
  0.6852041961302052  0.8288526389973768  0.9407061812914679
  0.5667518588113366  0.4272254830424005  0.8182741483897277
  0.8245670447871253  0.6702710325373638  0.8174437749048472
  0.6740048004934054  0.3250750417584621  0.1795191401583913
  0.9292258676426348  0.5782512307024330  0.6829904451809423
  0.4284604445843302  0.0663185778486666  0.4397011061263047
  0.1785783704239392  0.3184666598883604  0.4395470273285677
  0.1792723813108187  0.3074855297170757  0.6885496458102952
  0.8325064596240963  0.1854386134169372  0.3142677551735298
  0.3358968619420318  0.1760908630999390  0.0649098342601698
  0.1835990858803053  0.3321653330014400  0.9326874853409888
  0.6644323113721869  0.8264101323998700  0.4388809440560019
  0.3241926452961784  0.4182232237064853  0.8080241660431815
  0.4319850416482910  0.0666133673183079  0.6844222112483423
  0.8153276786249247  0.1723268294675690  0.0596308283553023
  0.5644432975998380  0.4219718488455159  0.3213806934330711
  0.3143576597711092  0.1849485795077832  0.5613476697592314
  0.5764213733236276  0.1836919847296082  0.0651906546740448
  0.3300189110801707  0.6775804619424777  0.3127645565109010
  0.1903328548809152  0.0692993697754930  0.6819394418854615
  0.5543926933207117  0.1762210105128073  0.5634381739850525
  0.9149751111361769  0.5735662349675347  0.9366400765846732
  0.4219307009559304  0.5712865295248940  0.4365990600701180
  0.0752327166595356  0.9392632279594419  0.5672674914184158
  0.8107681284280205  0.9267466175155769  0.0651044305380548
  0.4220746282990988  0.8273067259695912  0.6938548455627451
  0.5727514794931140  0.1918274469983237  0.8012744148352415
  0.0767778988383137  0.1917040257898944  0.5615751427706851
  0.1744971358822784  0.8193073058149166  0.1856437188704431
  0.3120840111394451  0.9499188683017760  0.5632134421709032
  0.9319246501749714  0.0855680009254543  0.4465552548634505
  0.0787876470774490  0.4190194159626870  0.0659199109206888
  0.6767024766581268  0.0642685883886783  0.9436887439037344
  0.6685511366830951  0.8249277732466000  0.1880487985542215
  0.0715695091994658  0.6831561388167825  0.5713014084281660
 
  0.00000000E+00  0.00000000E+00  0.00000000E+00
  0.00000000E+00  0.00000000E+00  0.00000000E+00
  0.00000000E+00  0.00000000E+00  0.00000000E+00
  0.00000000E+00  0.00000000E+00  0.00000000E+00
  0.00000000E+00  0.00000000E+00  0.00000000E+00
  0.00000000E+00  0.00000000E+00  0.00000000E+00
  0.00000000E+00  0.00000000E+00  0.00000000E+00
  0.00000000E+00  0.00000000E+00  0.00000000E+00
  0.00000000E+00  0.00000000E+00  0.00000000E+00
  0.00000000E+00  0.00000000E+00  0.00000000E+00
  0.00000000E+00  0.00000000E+00  0.00000000E+00
  0.00000000E+00  0.00000000E+00  0.00000000E+00
  0.00000000E+00  0.00000000E+00  0.00000000E+00
  0.00000000E+00  0.00000000E+00  0.00000000E+00
  0.00000000E+00  0.00000000E+00  0.00000000E+00
  0.00000000E+00  0.00000000E+00  0.00000000E+00
  0.00000000E+00  0.00000000E+00  0.00000000E+00
  0.00000000E+00  0.00000000E+00  0.00000000E+00
  0.00000000E+00  0.00000000E+00  0.00000000E+00
  0.00000000E+00  0.00000000E+00  0.00000000E+00
  0.00000000E+00  0.00000000E+00  0.00000000E+00
  0.00000000E+00  0.00000000E+00  0.00000000E+00
  0.00000000E+00  0.00000000E+00  0.00000000E+00
  0.00000000E+00  0.00000000E+00  0.00000000E+00
  0.00000000E+00  0.00000000E+00  0.00000000E+00
  0.00000000E+00  0.00000000E+00  0.00000000E+00
  0.00000000E+00  0.00000000E+00  0.00000000E+00
  0.00000000E+00  0.00000000E+00  0.00000000E+00
  0.00000000E+00  0.00000000E+00  0.00000000E+00
  0.00000000E+00  0.00000000E+00  0.00000000E+00
  0.00000000E+00  0.00000000E+00  0.00000000E+00
  0.00000000E+00  0.00000000E+00  0.00000000E+00
  0.00000000E+00  0.00000000E+00  0.00000000E+00
  0.00000000E+00  0.00000000E+00  0.00000000E+00
  0.00000000E+00  0.00000000E+00  0.00000000E+00
  0.00000000E+00  0.00000000E+00  0.00000000E+00
  0.00000000E+00  0.00000000E+00  0.00000000E+00
  0.00000000E+00  0.00000000E+00  0.00000000E+00
  0.00000000E+00  0.00000000E+00  0.00000000E+00
  0.00000000E+00  0.00000000E+00  0.00000000E+00
  0.00000000E+00  0.00000000E+00  0.00000000E+00
  0.00000000E+00  0.00000000E+00  0.00000000E+00
  0.00000000E+00  0.00000000E+00  0.00000000E+00
  0.00000000E+00  0.00000000E+00  0.00000000E+00
  0.00000000E+00  0.00000000E+00  0.00000000E+00
  0.00000000E+00  0.00000000E+00  0.00000000E+00
  0.00000000E+00  0.00000000E+00  0.00000000E+00
  0.00000000E+00  0.00000000E+00  0.00000000E+00
  0.00000000E+00  0.00000000E+00  0.00000000E+00
  0.00000000E+00  0.00000000E+00  0.00000000E+00
  0.00000000E+00  0.00000000E+00  0.00000000E+00
  0.00000000E+00  0.00000000E+00  0.00000000E+00
  0.00000000E+00  0.00000000E+00  0.00000000E+00
  0.00000000E+00  0.00000000E+00  0.00000000E+00
  0.00000000E+00  0.00000000E+00  0.00000000E+00
  0.00000000E+00  0.00000000E+00  0.00000000E+00
  0.00000000E+00  0.00000000E+00  0.00000000E+00
  0.00000000E+00  0.00000000E+00  0.00000000E+00
  0.00000000E+00  0.00000000E+00  0.00000000E+00
  0.00000000E+00  0.00000000E+00  0.00000000E+00
  0.00000000E+00  0.00000000E+00  0.00000000E+00
  0.00000000E+00  0.00000000E+00  0.00000000E+00
  0.00000000E+00  0.00000000E+00  0.00000000E+00
  0.00000000E+00  0.00000000E+00  0.00000000E+00
  0.00000000E+00  0.00000000E+00  0.00000000E+00
  0.00000000E+00  0.00000000E+00  0.00000000E+00
  0.00000000E+00  0.00000000E+00  0.00000000E+00
  0.00000000E+00  0.00000000E+00  0.00000000E+00
  0.00000000E+00  0.00000000E+00  0.00000000E+00
  0.00000000E+00  0.00000000E+00  0.00000000E+00
  0.00000000E+00  0.00000000E+00  0.00000000E+00
  0.00000000E+00  0.00000000E+00  0.00000000E+00
  0.00000000E+00  0.00000000E+00  0.00000000E+00
  0.00000000E+00  0.00000000E+00  0.00000000E+00
  0.00000000E+00  0.00000000E+00  0.00000000E+00
  0.00000000E+00  0.00000000E+00  0.00000000E+00
  0.00000000E+00  0.00000000E+00  0.00000000E+00
  0.00000000E+00  0.00000000E+00  0.00000000E+00
  0.00000000E+00  0.00000000E+00  0.00000000E+00
  0.00000000E+00  0.00000000E+00  0.00000000E+00
  0.00000000E+00  0.00000000E+00  0.00000000E+00
  0.00000000E+00  0.00000000E+00  0.00000000E+00
  0.00000000E+00  0.00000000E+00  0.00000000E+00
  0.00000000E+00  0.00000000E+00  0.00000000E+00
  0.00000000E+00  0.00000000E+00  0.00000000E+00
  0.00000000E+00  0.00000000E+00  0.00000000E+00
  0.00000000E+00  0.00000000E+00  0.00000000E+00
  0.00000000E+00  0.00000000E+00  0.00000000E+00
  0.00000000E+00  0.00000000E+00  0.00000000E+00
  0.00000000E+00  0.00000000E+00  0.00000000E+00
  0.00000000E+00  0.00000000E+00  0.00000000E+00
  0.00000000E+00  0.00000000E+00  0.00000000E+00
  0.00000000E+00  0.00000000E+00  0.00000000E+00
  0.00000000E+00  0.00000000E+00  0.00000000E+00
  0.00000000E+00  0.00000000E+00  0.00000000E+00
  0.00000000E+00  0.00000000E+00  0.00000000E+00
  0.00000000E+00  0.00000000E+00  0.00000000E+00
  0.00000000E+00  0.00000000E+00  0.00000000E+00
  0.00000000E+00  0.00000000E+00  0.00000000E+00
  0.00000000E+00  0.00000000E+00  0.00000000E+00
  0.00000000E+00  0.00000000E+00  0.00000000E+00
  0.00000000E+00  0.00000000E+00  0.00000000E+00
  0.00000000E+00  0.00000000E+00  0.00000000E+00
  0.00000000E+00  0.00000000E+00  0.00000000E+00
  0.00000000E+00  0.00000000E+00  0.00000000E+00
  0.00000000E+00  0.00000000E+00  0.00000000E+00
  0.00000000E+00  0.00000000E+00  0.00000000E+00
  0.00000000E+00  0.00000000E+00  0.00000000E+00
  0.00000000E+00  0.00000000E+00  0.00000000E+00
  0.00000000E+00  0.00000000E+00  0.00000000E+00
  0.00000000E+00  0.00000000E+00  0.00000000E+00
  0.00000000E+00  0.00000000E+00  0.00000000E+00
  0.00000000E+00  0.00000000E+00  0.00000000E+00
  0.00000000E+00  0.00000000E+00  0.00000000E+00
  0.00000000E+00  0.00000000E+00  0.00000000E+00
  0.00000000E+00  0.00000000E+00  0.00000000E+00
  0.00000000E+00  0.00000000E+00  0.00000000E+00
  0.00000000E+00  0.00000000E+00  0.00000000E+00
  0.00000000E+00  0.00000000E+00  0.00000000E+00
  0.00000000E+00  0.00000000E+00  0.00000000E+00
  0.00000000E+00  0.00000000E+00  0.00000000E+00
  0.00000000E+00  0.00000000E+00  0.00000000E+00
  0.00000000E+00  0.00000000E+00  0.00000000E+00
  0.00000000E+00  0.00000000E+00  0.00000000E+00
  0.00000000E+00  0.00000000E+00  0.00000000E+00
  0.00000000E+00  0.00000000E+00  0.00000000E+00
  0.00000000E+00  0.00000000E+00  0.00000000E+00
  0.00000000E+00  0.00000000E+00  0.00000000E+00
