Hf Ti                                   
    1.000000000000000     
    12.1266869879229837   -0.0157929557633808    0.0021700046745478
    -6.0770127505124716   10.5571947143245666   -0.0020421250210071
     0.0034034102073945   -0.0017509920356415   19.1442781074331698
  Hf              Ti            
    44    84
Direct
     0.4188928619075876    0.0826138275915451    0.1862415678036261
     0.4098977189351412    0.0776713361427552    0.4334848943509556
     0.4209865192112059    0.5809696199643163    0.6880066064551584
     0.3377831170511795    0.4193277320131215    0.0594417715177865
     0.4112697268448712    0.5843665807553485    0.1865857206378113
     0.8313090105497691    0.4225765786458126    0.5680087793288240
     0.1596177291009448    0.3298875829189158    0.9402620752959601
     0.4131171431076635    0.8314809172615071    0.1881086149042167
     0.6680172787065018    0.8299774780552772    0.6834623354574834
     0.6669113122673116    0.8234561124768718    0.9389832328384826
     0.0900143497138783    0.4173768215378306    0.5629565927952341
     0.3335470248488560    0.1605640137735991    0.8129589527720142
     0.6689147615751219    0.0871972019578301    0.6870496142146612
     0.6745486320052996    0.5886334889746061    0.4362202641398609
     0.4192316339637578    0.3309411339744231    0.1862668063656499
     0.3381263421403087    0.6744950041174301    0.5651917205982383
     0.6750157535084372    0.5837481524648119    0.1863729733173642
     0.8364973065659363    0.1736821851585690    0.8143844627203453
     0.9153576436938582    0.0765231986031887    0.9431469005247149
     0.5905240112049902    0.4217827366865681    0.8129380551449399
     0.8335357378383528    0.1687242807548894    0.3089108614226702
     0.3337173262206551    0.4210095612056887    0.8160235979879715
     0.5833606979409391    0.1658455652879239    0.5616925394222979
     0.0873276556729474    0.4247732249256517    0.3128809620428961
     0.6639992464915452    0.0901409642223703    0.9411937889150495
     0.8391447826291284    0.9168111410285346    0.3130911012642557
     0.4129203191513705    0.3321817367084354    0.4364127386223660
     0.6687265907957948    0.3363122298295671    0.4343457703204733
     0.5858360123022699    0.9179661894544019    0.0640901199404753
     0.4066693336468348    0.5779212059949231    0.4369372430727745
     0.0817595523002517    0.6747412945564949    0.5643161000349013
     0.1586844451451440    0.0771458234988287    0.1876796387155032
     0.0819321547743771    0.1629725521010820    0.5616162912447984
     0.1651829333258902    0.5847349958726322    0.9359116902113188
     0.0835977580860739    0.1635526141190390    0.8107721772318101
     0.1545551478880719    0.3270654302697621    0.1849938150695487
     0.3312795547386814    0.1631527120630676    0.5661915215628340
     0.5756984267997833    0.9136538004060044    0.8136734940451760
     0.4184546490501139    0.8358497396071495    0.4352079702941268
     0.5822254126444601    0.6716788926829915    0.3116566024288581
     0.1619291072648296    0.5840211976707727    0.6933939443681730
     0.8374818449715846    0.9129398139485804    0.8103706532379393
     0.9150122126523995    0.3321245820209707    0.4385702058245471
     0.1583935357321423    0.8265572648518185    0.1850958156372658
     0.6604863783358077    0.3310840967642411    0.6901364922377999
     0.5859767265054064    0.9184051887137843    0.5611646393663532
     0.8352063588093818    0.4252041219255249    0.3094317020516409
     0.9168860154816085    0.5781500100796044    0.1843976022967553
     0.6627747975429357    0.5788944660864974    0.9410930010886556
     0.1599556274752004    0.5823398245962095    0.1841768845803275
     0.4121342916295049    0.8379048533966544    0.6888739703014163
     0.0795985915408792    0.9151243708675766    0.0594221991296428
     0.6701011540829820    0.0768072344520641    0.4358594411870660
     0.8458865484699204    0.6682030795728094    0.3113068272909870
     0.0785811382361969    0.4159180010372709    0.8127644581437472
     0.5899143406342798    0.4141068048867796    0.0607391380978826
     0.8301629926251989    0.4179613573828633    0.0610382963789837
     0.0751102225847639    0.4199024718641504    0.0628282673054777
     0.6700211289438904    0.0887400340422509    0.1856003814597024
     0.8338394071008863    0.9076997968672373    0.0657291255525803
     0.9174799593375794    0.0834194774065046    0.6846714703405640
     0.8313721147307663    0.1576490705696247    0.5613091123809710
     0.3280545093910923    0.9089998664920657    0.8147132828686093
     0.9204497195547905    0.8283599992874588    0.9386454558372825
     0.3299723632528545    0.4110321148059836    0.3112967291211552
     0.5854751636857385    0.1761424541445445    0.0625580104834508
     0.8329554748301679    0.6720306158628666    0.5645773241895877
     0.9245107790888190    0.8336369652948310    0.6860143070839594
     0.9148925334742730    0.3415774753799741    0.9396166066524329
     0.3279944261198124    0.6669738390592380    0.0605399944593285
     0.0833725812797976    0.9174504922210543    0.5623878326037182
     0.6678719841949666    0.8380077714461579    0.4392673798870465
     0.0782671418170432    0.6735149403247266    0.8148553973770937
     0.4161220170582393    0.0821274426969013    0.9393517111639763
     0.9219172599009714    0.8329843957065224    0.4391723247220393
     0.1700835264157553    0.8418495245217861    0.6899532752320550
     0.5837950706753392    0.4121022514976641    0.3102865077000022
     0.9156045548400379    0.8288554182991306    0.1856757877820990
     0.9099070620956254    0.5808752013678564    0.9373975926734134
     0.5863812581779841    0.9229913234297569    0.3105652699549504
     0.1638878374884404    0.8325834281956354    0.4359190266524532
     0.3264595566636475    0.9143183430144542    0.3117388553419915
     0.1609177328649556    0.0739058887672124    0.6881042850714795
     0.6731448749274080    0.8391537841525887    0.1875528378352735
     0.1697315353627181    0.3310558658189123    0.6876849600394601
     0.4230373086374029    0.5906820936915346    0.9386430810724578
     0.3303977150750865    0.1653861400570682    0.3121832392396848
     0.8359039944208997    0.9165456631069155    0.5594986427916246
     0.1635645302064823    0.8349591942170203    0.9386772447373904
     0.9233268939909074    0.5898604536865713    0.4351947706844992
     0.5826182362420147    0.4226078027765064    0.5673228019221338
     0.6745762276809179    0.5866059316279850    0.6871022948861532
     0.6685831673856610    0.3365165461080863    0.9377001317542065
     0.0838596500519017    0.6676938492382123    0.3120999156130878
     0.6732595714444608    0.3323278736106713    0.1870716554020323
     0.3385510950127248    0.6730210907567301    0.8146370194183709
     0.1658120195473637    0.5912227228743002    0.4363410537150972
     0.9134073908501535    0.5904365490979819    0.6920958367452683
     0.9132847023203208    0.3402206821174805    0.1846826795345464
     0.4217981209470362    0.3286149155975749    0.9394894880435255
     0.4092708557901943    0.8306825739983318    0.9392938658904219
     0.8397122232220541    0.1776040088138166    0.0654670050384195
     0.0784100917377339    0.6645021314676824    0.0592361152062417
     0.1670561857462932    0.3277974163265149    0.4354130045175547
     0.4167835188248824    0.0784870308455126    0.6909508946584857
     0.5825058556631578    0.1689447346947445    0.8141090696165172
     0.3334180754329368    0.9193157796440461    0.5655444756494913
     0.3304807862049507    0.9166072428466492    0.0580053677970544
     0.3313441898334131    0.1619308291842534    0.0589583003585244
     0.0846294900547138    0.9132977910189093    0.3154630704280840
     0.0815207499708632    0.1593034792022241    0.0629004796745405
     0.9181237527571641    0.0829283599535263    0.4366519792155071
     0.3249968373122117    0.6673650483520018    0.3114923900889627
     0.8413276398558367    0.4214618019933066    0.8111576113982332
     0.8389198873148940    0.6686949050142326    0.0601344448524483
     0.9205180926605202    0.3298453785307892    0.6877844703973246
     0.1591481411710644    0.0767482853930776    0.4340536379123694
     0.4150677059144980    0.3320587970625868    0.6888408444663252
     0.8343639434811613    0.6676018782097387    0.8147741511158209
     0.9123008556346859    0.0786372440732708    0.1830977888358220
     0.0842130028619682    0.1668681931285419    0.3142114437051315
     0.5861380086582211    0.6669209139580304    0.0638130373531280
     0.3353517229272380    0.4139774332910781    0.5646743389304316
     0.0841793326465800    0.9105357288466228    0.8132753935255140
     0.5866125275136512    0.6639607223021142    0.8135341492292081
     0.5889552337015254    0.6663227665137417    0.5608046748805541
     0.5856947038735422    0.1646616142930801    0.3099725050092401
     0.1687157412269153    0.0790450720222000    0.9401272866638020
 
  0.00000000E+00  0.00000000E+00  0.00000000E+00
  0.00000000E+00  0.00000000E+00  0.00000000E+00
  0.00000000E+00  0.00000000E+00  0.00000000E+00
  0.00000000E+00  0.00000000E+00  0.00000000E+00
  0.00000000E+00  0.00000000E+00  0.00000000E+00
  0.00000000E+00  0.00000000E+00  0.00000000E+00
  0.00000000E+00  0.00000000E+00  0.00000000E+00
  0.00000000E+00  0.00000000E+00  0.00000000E+00
  0.00000000E+00  0.00000000E+00  0.00000000E+00
  0.00000000E+00  0.00000000E+00  0.00000000E+00
  0.00000000E+00  0.00000000E+00  0.00000000E+00
  0.00000000E+00  0.00000000E+00  0.00000000E+00
  0.00000000E+00  0.00000000E+00  0.00000000E+00
  0.00000000E+00  0.00000000E+00  0.00000000E+00
  0.00000000E+00  0.00000000E+00  0.00000000E+00
  0.00000000E+00  0.00000000E+00  0.00000000E+00
  0.00000000E+00  0.00000000E+00  0.00000000E+00
  0.00000000E+00  0.00000000E+00  0.00000000E+00
  0.00000000E+00  0.00000000E+00  0.00000000E+00
  0.00000000E+00  0.00000000E+00  0.00000000E+00
  0.00000000E+00  0.00000000E+00  0.00000000E+00
  0.00000000E+00  0.00000000E+00  0.00000000E+00
  0.00000000E+00  0.00000000E+00  0.00000000E+00
  0.00000000E+00  0.00000000E+00  0.00000000E+00
  0.00000000E+00  0.00000000E+00  0.00000000E+00
  0.00000000E+00  0.00000000E+00  0.00000000E+00
  0.00000000E+00  0.00000000E+00  0.00000000E+00
  0.00000000E+00  0.00000000E+00  0.00000000E+00
  0.00000000E+00  0.00000000E+00  0.00000000E+00
  0.00000000E+00  0.00000000E+00  0.00000000E+00
  0.00000000E+00  0.00000000E+00  0.00000000E+00
  0.00000000E+00  0.00000000E+00  0.00000000E+00
  0.00000000E+00  0.00000000E+00  0.00000000E+00
  0.00000000E+00  0.00000000E+00  0.00000000E+00
  0.00000000E+00  0.00000000E+00  0.00000000E+00
  0.00000000E+00  0.00000000E+00  0.00000000E+00
  0.00000000E+00  0.00000000E+00  0.00000000E+00
  0.00000000E+00  0.00000000E+00  0.00000000E+00
  0.00000000E+00  0.00000000E+00  0.00000000E+00
  0.00000000E+00  0.00000000E+00  0.00000000E+00
  0.00000000E+00  0.00000000E+00  0.00000000E+00
  0.00000000E+00  0.00000000E+00  0.00000000E+00
  0.00000000E+00  0.00000000E+00  0.00000000E+00
  0.00000000E+00  0.00000000E+00  0.00000000E+00
  0.00000000E+00  0.00000000E+00  0.00000000E+00
  0.00000000E+00  0.00000000E+00  0.00000000E+00
  0.00000000E+00  0.00000000E+00  0.00000000E+00
  0.00000000E+00  0.00000000E+00  0.00000000E+00
  0.00000000E+00  0.00000000E+00  0.00000000E+00
  0.00000000E+00  0.00000000E+00  0.00000000E+00
  0.00000000E+00  0.00000000E+00  0.00000000E+00
  0.00000000E+00  0.00000000E+00  0.00000000E+00
  0.00000000E+00  0.00000000E+00  0.00000000E+00
  0.00000000E+00  0.00000000E+00  0.00000000E+00
  0.00000000E+00  0.00000000E+00  0.00000000E+00
  0.00000000E+00  0.00000000E+00  0.00000000E+00
  0.00000000E+00  0.00000000E+00  0.00000000E+00
  0.00000000E+00  0.00000000E+00  0.00000000E+00
  0.00000000E+00  0.00000000E+00  0.00000000E+00
  0.00000000E+00  0.00000000E+00  0.00000000E+00
  0.00000000E+00  0.00000000E+00  0.00000000E+00
  0.00000000E+00  0.00000000E+00  0.00000000E+00
  0.00000000E+00  0.00000000E+00  0.00000000E+00
  0.00000000E+00  0.00000000E+00  0.00000000E+00
  0.00000000E+00  0.00000000E+00  0.00000000E+00
  0.00000000E+00  0.00000000E+00  0.00000000E+00
  0.00000000E+00  0.00000000E+00  0.00000000E+00
  0.00000000E+00  0.00000000E+00  0.00000000E+00
  0.00000000E+00  0.00000000E+00  0.00000000E+00
  0.00000000E+00  0.00000000E+00  0.00000000E+00
  0.00000000E+00  0.00000000E+00  0.00000000E+00
  0.00000000E+00  0.00000000E+00  0.00000000E+00
  0.00000000E+00  0.00000000E+00  0.00000000E+00
  0.00000000E+00  0.00000000E+00  0.00000000E+00
  0.00000000E+00  0.00000000E+00  0.00000000E+00
  0.00000000E+00  0.00000000E+00  0.00000000E+00
  0.00000000E+00  0.00000000E+00  0.00000000E+00
  0.00000000E+00  0.00000000E+00  0.00000000E+00
  0.00000000E+00  0.00000000E+00  0.00000000E+00
  0.00000000E+00  0.00000000E+00  0.00000000E+00
  0.00000000E+00  0.00000000E+00  0.00000000E+00
  0.00000000E+00  0.00000000E+00  0.00000000E+00
  0.00000000E+00  0.00000000E+00  0.00000000E+00
  0.00000000E+00  0.00000000E+00  0.00000000E+00
  0.00000000E+00  0.00000000E+00  0.00000000E+00
  0.00000000E+00  0.00000000E+00  0.00000000E+00
  0.00000000E+00  0.00000000E+00  0.00000000E+00
  0.00000000E+00  0.00000000E+00  0.00000000E+00
  0.00000000E+00  0.00000000E+00  0.00000000E+00
  0.00000000E+00  0.00000000E+00  0.00000000E+00
  0.00000000E+00  0.00000000E+00  0.00000000E+00
  0.00000000E+00  0.00000000E+00  0.00000000E+00
  0.00000000E+00  0.00000000E+00  0.00000000E+00
  0.00000000E+00  0.00000000E+00  0.00000000E+00
  0.00000000E+00  0.00000000E+00  0.00000000E+00
  0.00000000E+00  0.00000000E+00  0.00000000E+00
  0.00000000E+00  0.00000000E+00  0.00000000E+00
  0.00000000E+00  0.00000000E+00  0.00000000E+00
  0.00000000E+00  0.00000000E+00  0.00000000E+00
  0.00000000E+00  0.00000000E+00  0.00000000E+00
  0.00000000E+00  0.00000000E+00  0.00000000E+00
  0.00000000E+00  0.00000000E+00  0.00000000E+00
  0.00000000E+00  0.00000000E+00  0.00000000E+00
  0.00000000E+00  0.00000000E+00  0.00000000E+00
  0.00000000E+00  0.00000000E+00  0.00000000E+00
  0.00000000E+00  0.00000000E+00  0.00000000E+00
  0.00000000E+00  0.00000000E+00  0.00000000E+00
  0.00000000E+00  0.00000000E+00  0.00000000E+00
  0.00000000E+00  0.00000000E+00  0.00000000E+00
  0.00000000E+00  0.00000000E+00  0.00000000E+00
  0.00000000E+00  0.00000000E+00  0.00000000E+00
  0.00000000E+00  0.00000000E+00  0.00000000E+00
  0.00000000E+00  0.00000000E+00  0.00000000E+00
  0.00000000E+00  0.00000000E+00  0.00000000E+00
  0.00000000E+00  0.00000000E+00  0.00000000E+00
  0.00000000E+00  0.00000000E+00  0.00000000E+00
  0.00000000E+00  0.00000000E+00  0.00000000E+00
  0.00000000E+00  0.00000000E+00  0.00000000E+00
  0.00000000E+00  0.00000000E+00  0.00000000E+00
  0.00000000E+00  0.00000000E+00  0.00000000E+00
  0.00000000E+00  0.00000000E+00  0.00000000E+00
  0.00000000E+00  0.00000000E+00  0.00000000E+00
  0.00000000E+00  0.00000000E+00  0.00000000E+00
  0.00000000E+00  0.00000000E+00  0.00000000E+00
  0.00000000E+00  0.00000000E+00  0.00000000E+00
  0.00000000E+00  0.00000000E+00  0.00000000E+00
  0.00000000E+00  0.00000000E+00  0.00000000E+00
  0.00000000E+00  0.00000000E+00  0.00000000E+00
