Hf Nb                                   
    1.000000000000000     
    13.4215062546785635   -0.0696337022986325   -0.1418372050609295
    -6.6495465615540921    9.5714036137593617    0.0654172384065924
     0.1732970468201868    0.0802420082594799   18.9917982745641716
  Hf             Nb           
              32              96
Direct
  0.4381277964685034  0.6306128573596278  0.4335851944511896
  0.1902664417973748  0.8729455369429274  0.1867908217187726
  0.5537153724064106  0.3676039372691501  0.3126339610289812
  0.6930492199534473  0.3689385246429897  0.6793415361148477
  0.6828969048230289  0.6208014125415807  0.6912864219113369
  0.5630014723955945  0.8735104122093628  0.3109763088173905
  0.6889973790257270  0.1142457824057098  0.6897829963549186
  0.5719333119695368  0.3925151449141873  0.0735967740133064
  0.5592254382594912  0.3789891407264790  0.5573719852301172
  0.3130132258640301  0.6290691116206006  0.5723706099979323
  0.5599795971196033  0.1193410010404017  0.0603121905319418
  0.0613353184462072  0.3742564239506365  0.8137043196189243
  0.5620248011201038  0.3786021006477026  0.8073950306298834
  0.3211611183593653  0.8956131946624455  0.5599320793945066
  0.0593277644990010  0.6255482760878373  0.5744904761922708
  0.6823162702884995  0.1183616762327501  0.4366504543775299
  0.8215172574704712  0.3912159408601729  0.0665871665170467
  0.0598453353005366  0.1185011124067566  0.5632439416482288
  0.1819897619407000  0.1286161649588287  0.1859557680796656
  0.6764835353928542  0.3636863082441741  0.9390166280590704
  0.9443527616966437  0.6279806925271282  0.4373700967750468
  0.3114087283682460  0.8744831219197815  0.8139841516828148
  0.0594984527971937  0.3719580237020782  0.5568155300730538
  0.8186889374650808  0.3737569954122738  0.8139709567834195
  0.5681315223292962  0.8832005057952655  0.5605596195857157
  0.1809295796617932  0.6195592171083529  0.4340381398622423
  0.4421115597305287  0.1324618164505278  0.4364899041716284
  0.8108738589001439  0.1224097317853304  0.0624503979422932
  0.8121538024087166  0.6284963825001617  0.3098657333728303
  0.4336198500270407  0.3707705913044890  0.9396478502640114
  0.4469024006721185  0.6250500750717336  0.6945824420173462
  0.3152519398011477  0.1203835600738052  0.0579594296017240
  0.9383426336422461  0.3682040820275775  0.9426956110401072
  0.3145446060521279  0.3762184561647881  0.5621953359539329
  0.3043367841845918  0.1159485347633277  0.3101609135508993
  0.5613160388160876  0.1214685465448970  0.3054385174645882
  0.5746548493141546  0.1443812499700180  0.5699501103530910
  0.9318810231878930  0.3630043127275838  0.4286250749169120
  0.6880383591716683  0.1223613210398850  0.1906457156185027
  0.4267061231817486  0.3764437646096351  0.4359350518580915
  0.3000591715575888  0.1274508629278750  0.5640109993394143
  0.0619223676126586  0.8732317318688587  0.5616010197288616
  0.0589417945333762  0.1235909166013296  0.3135063999371651
  0.8206854707666795  0.6410137764500454  0.0612554078369411
  0.6996684565793790  0.8699132355264994  0.4356871177074355
  0.1870919981261371  0.1228629704917045  0.4336610249409273
  0.3103358307230896  0.8617261886822033  0.0586349644963451
  0.5638933916771987  0.1224782938434313  0.8155734638031610
  0.0616533066071337  0.1195292396154415  0.8131167948215230
  0.1862159600491326  0.3814982499495352  0.1870423010359839
  0.9365679470164844  0.6194286640836074  0.1827625618034262
  0.0570338403947613  0.1257073730131107  0.0593894819200056
  0.5639609243194128  0.6304955273206235  0.8241563914136034
  0.9375645318814073  0.1281173555358380  0.6916827439224185
  0.4328615552603297  0.1183813822359568  0.6889223049914469
  0.8162696176462160  0.1259220243147705  0.3086433285206597
  0.1865622150644715  0.6213802192204009  0.9373225957772318
  0.0625205341324001  0.6313480158923400  0.8172413813936137
  0.9399257624465335  0.3869712748653980  0.6831568327280748
  0.4389065620918702  0.8708610489389182  0.9397064461826744
  0.1839747225913304  0.8743991343742684  0.9405715001783945
  0.6851239983497647  0.6265265532897881  0.1842701039204031
  0.4221478275474433  0.8709310943206602  0.4290549840099783
  0.1842992933376440  0.3603421353164496  0.4322238340681159
  0.8092589001995905  0.8665641547414528  0.5646464678779212
  0.9357835972844634  0.1244178571729567  0.4344871769747409
  0.4273107340749725  0.8643692648324364  0.6864274794087261
  0.0651578768564242  0.8759885688523417  0.8154783319496064
  0.4400432366165419  0.6311433835484613  0.1879228287381853
  0.1873469773867778  0.6236407000854818  0.6999160295435046
  0.6896872647756943  0.6310831396860760  0.9403066928562713
  0.1877985804410345  0.8860703960524904  0.4333619804933114
  0.3099442581292920  0.3764016847822928  0.0668747761506526
  0.9375456604350828  0.8778137563256014  0.9377871685965288
  0.5598679095501438  0.8707687972262370  0.8131183075575703
  0.6841487487118408  0.6232324013892118  0.4380143543096430
  0.6891140346235030  0.8763810354974628  0.9403075838471653
  0.1796828309136874  0.1219531150974500  0.9351221328199050
  0.1811349088981545  0.8742604058484068  0.6869875986553847
  0.0625182092647716  0.6286076324152119  0.3043957319214011
  0.8146617610405122  0.8740388152278309  0.8152299165519979
  0.9389431012139597  0.8795333726671654  0.4379242102274318
  0.8141038357348934  0.8744079857944023  0.0634270458898824
  0.6918840653130173  0.8799164070573917  0.1850000516976867
  0.9407759851271986  0.3711960406274897  0.1894560373239826
  0.9431319036729980  0.1287212280870534  0.9369195908881502
  0.4327927086693273  0.3838835879493933  0.1898985613442701
  0.4222878670134851  0.3573618925052631  0.6853984856370532
  0.8188156016776046  0.6329439248042023  0.5648521012975616
  0.8131517722539693  0.3732284838491249  0.3119128099050591
  0.9413804736990256  0.8787254649294507  0.6875650411797768
  0.0569346106930140  0.8767086290711523  0.0618690424232002
  0.3151647262220840  0.6234316070112357  0.8190801155756201
  0.8102777732052270  0.1093783336531715  0.8173314208273215
  0.3149602904744502  0.8731778530515663  0.3121535368093742
  0.0712852775429259  0.6324296017416909  0.0617769195739668
  0.4434729872744798  0.1363510576858853  0.1912335369977498
  0.0644964349028238  0.3774749324489646  0.3097835348235987
  0.5690341849606301  0.6284194234918108  0.3089271006503842
  0.0628577492434534  0.8792202870673088  0.3128048070296999
  0.5613552544193464  0.6317089857030767  0.0625646225854002
  0.9363585982972223  0.6334843568556937  0.6955674266452868
  0.3069527628469060  0.1270132301769679  0.8123048557695020
  0.9341179861835799  0.8704410837513835  0.1897844810409170
  0.8132608100744625  0.3708477035168384  0.5528124312388798
  0.8193508888195620  0.6341804484465536  0.8197926505076649
  0.6949832747160440  0.3765898233522107  0.1945148312227923
  0.1873018268063281  0.6203634198536484  0.1853797826947480
  0.4347592174237175  0.8763796182545206  0.1839628672296099
  0.7013907813187906  0.8791044554469498  0.6908907687689910
  0.1851142553309060  0.1219278401760629  0.6908453064162914
  0.4283410453396350  0.1059789658199716  0.9271976132819809
  0.3089670711133577  0.3752331069343288  0.8119300064728764
  0.3082647691511087  0.6235732795875227  0.3053700015248715
  0.5631739267458468  0.6271464284584901  0.5602284069943292
  0.0644214048669035  0.3766484950135165  0.0621385145434258
  0.9423400248074471  0.1241989325589919  0.1876272458413853
  0.8111971659328198  0.8790353146558121  0.3101019030664495
  0.3128551610284599  0.3764927076382685  0.3097241374281869
  0.5596410244843190  0.8663704322981512  0.0636933658480029
  0.4370239265760725  0.6280760930866319  0.9399193422163247
  0.9405062598194343  0.6246200633001063  0.9388646654759443
  0.1868510267377164  0.3682757486049659  0.6861936025280735
  0.1921955371543829  0.3754703148512809  0.9401917026433303
  0.6895801863980109  0.1195123131568886  0.9320121947688895
  0.3120840454206398  0.6229459131370119  0.0621638231076982
  0.8211220938046931  0.1165612322585136  0.5623927958112870
  0.6975954696639999  0.3889530089286004  0.4325329139186365
 
  0.00000000E+00  0.00000000E+00  0.00000000E+00
  0.00000000E+00  0.00000000E+00  0.00000000E+00
  0.00000000E+00  0.00000000E+00  0.00000000E+00
  0.00000000E+00  0.00000000E+00  0.00000000E+00
  0.00000000E+00  0.00000000E+00  0.00000000E+00
  0.00000000E+00  0.00000000E+00  0.00000000E+00
  0.00000000E+00  0.00000000E+00  0.00000000E+00
  0.00000000E+00  0.00000000E+00  0.00000000E+00
  0.00000000E+00  0.00000000E+00  0.00000000E+00
  0.00000000E+00  0.00000000E+00  0.00000000E+00
  0.00000000E+00  0.00000000E+00  0.00000000E+00
  0.00000000E+00  0.00000000E+00  0.00000000E+00
  0.00000000E+00  0.00000000E+00  0.00000000E+00
  0.00000000E+00  0.00000000E+00  0.00000000E+00
  0.00000000E+00  0.00000000E+00  0.00000000E+00
  0.00000000E+00  0.00000000E+00  0.00000000E+00
  0.00000000E+00  0.00000000E+00  0.00000000E+00
  0.00000000E+00  0.00000000E+00  0.00000000E+00
  0.00000000E+00  0.00000000E+00  0.00000000E+00
  0.00000000E+00  0.00000000E+00  0.00000000E+00
  0.00000000E+00  0.00000000E+00  0.00000000E+00
  0.00000000E+00  0.00000000E+00  0.00000000E+00
  0.00000000E+00  0.00000000E+00  0.00000000E+00
  0.00000000E+00  0.00000000E+00  0.00000000E+00
  0.00000000E+00  0.00000000E+00  0.00000000E+00
  0.00000000E+00  0.00000000E+00  0.00000000E+00
  0.00000000E+00  0.00000000E+00  0.00000000E+00
  0.00000000E+00  0.00000000E+00  0.00000000E+00
  0.00000000E+00  0.00000000E+00  0.00000000E+00
  0.00000000E+00  0.00000000E+00  0.00000000E+00
  0.00000000E+00  0.00000000E+00  0.00000000E+00
  0.00000000E+00  0.00000000E+00  0.00000000E+00
  0.00000000E+00  0.00000000E+00  0.00000000E+00
  0.00000000E+00  0.00000000E+00  0.00000000E+00
  0.00000000E+00  0.00000000E+00  0.00000000E+00
  0.00000000E+00  0.00000000E+00  0.00000000E+00
  0.00000000E+00  0.00000000E+00  0.00000000E+00
  0.00000000E+00  0.00000000E+00  0.00000000E+00
  0.00000000E+00  0.00000000E+00  0.00000000E+00
  0.00000000E+00  0.00000000E+00  0.00000000E+00
  0.00000000E+00  0.00000000E+00  0.00000000E+00
  0.00000000E+00  0.00000000E+00  0.00000000E+00
  0.00000000E+00  0.00000000E+00  0.00000000E+00
  0.00000000E+00  0.00000000E+00  0.00000000E+00
  0.00000000E+00  0.00000000E+00  0.00000000E+00
  0.00000000E+00  0.00000000E+00  0.00000000E+00
  0.00000000E+00  0.00000000E+00  0.00000000E+00
  0.00000000E+00  0.00000000E+00  0.00000000E+00
  0.00000000E+00  0.00000000E+00  0.00000000E+00
  0.00000000E+00  0.00000000E+00  0.00000000E+00
  0.00000000E+00  0.00000000E+00  0.00000000E+00
  0.00000000E+00  0.00000000E+00  0.00000000E+00
  0.00000000E+00  0.00000000E+00  0.00000000E+00
  0.00000000E+00  0.00000000E+00  0.00000000E+00
  0.00000000E+00  0.00000000E+00  0.00000000E+00
  0.00000000E+00  0.00000000E+00  0.00000000E+00
  0.00000000E+00  0.00000000E+00  0.00000000E+00
  0.00000000E+00  0.00000000E+00  0.00000000E+00
  0.00000000E+00  0.00000000E+00  0.00000000E+00
  0.00000000E+00  0.00000000E+00  0.00000000E+00
  0.00000000E+00  0.00000000E+00  0.00000000E+00
  0.00000000E+00  0.00000000E+00  0.00000000E+00
  0.00000000E+00  0.00000000E+00  0.00000000E+00
  0.00000000E+00  0.00000000E+00  0.00000000E+00
  0.00000000E+00  0.00000000E+00  0.00000000E+00
  0.00000000E+00  0.00000000E+00  0.00000000E+00
  0.00000000E+00  0.00000000E+00  0.00000000E+00
  0.00000000E+00  0.00000000E+00  0.00000000E+00
  0.00000000E+00  0.00000000E+00  0.00000000E+00
  0.00000000E+00  0.00000000E+00  0.00000000E+00
  0.00000000E+00  0.00000000E+00  0.00000000E+00
  0.00000000E+00  0.00000000E+00  0.00000000E+00
  0.00000000E+00  0.00000000E+00  0.00000000E+00
  0.00000000E+00  0.00000000E+00  0.00000000E+00
  0.00000000E+00  0.00000000E+00  0.00000000E+00
  0.00000000E+00  0.00000000E+00  0.00000000E+00
  0.00000000E+00  0.00000000E+00  0.00000000E+00
  0.00000000E+00  0.00000000E+00  0.00000000E+00
  0.00000000E+00  0.00000000E+00  0.00000000E+00
  0.00000000E+00  0.00000000E+00  0.00000000E+00
  0.00000000E+00  0.00000000E+00  0.00000000E+00
  0.00000000E+00  0.00000000E+00  0.00000000E+00
  0.00000000E+00  0.00000000E+00  0.00000000E+00
  0.00000000E+00  0.00000000E+00  0.00000000E+00
  0.00000000E+00  0.00000000E+00  0.00000000E+00
  0.00000000E+00  0.00000000E+00  0.00000000E+00
  0.00000000E+00  0.00000000E+00  0.00000000E+00
  0.00000000E+00  0.00000000E+00  0.00000000E+00
  0.00000000E+00  0.00000000E+00  0.00000000E+00
  0.00000000E+00  0.00000000E+00  0.00000000E+00
  0.00000000E+00  0.00000000E+00  0.00000000E+00
  0.00000000E+00  0.00000000E+00  0.00000000E+00
  0.00000000E+00  0.00000000E+00  0.00000000E+00
  0.00000000E+00  0.00000000E+00  0.00000000E+00
  0.00000000E+00  0.00000000E+00  0.00000000E+00
  0.00000000E+00  0.00000000E+00  0.00000000E+00
  0.00000000E+00  0.00000000E+00  0.00000000E+00
  0.00000000E+00  0.00000000E+00  0.00000000E+00
  0.00000000E+00  0.00000000E+00  0.00000000E+00
  0.00000000E+00  0.00000000E+00  0.00000000E+00
  0.00000000E+00  0.00000000E+00  0.00000000E+00
  0.00000000E+00  0.00000000E+00  0.00000000E+00
  0.00000000E+00  0.00000000E+00  0.00000000E+00
  0.00000000E+00  0.00000000E+00  0.00000000E+00
  0.00000000E+00  0.00000000E+00  0.00000000E+00
  0.00000000E+00  0.00000000E+00  0.00000000E+00
  0.00000000E+00  0.00000000E+00  0.00000000E+00
  0.00000000E+00  0.00000000E+00  0.00000000E+00
  0.00000000E+00  0.00000000E+00  0.00000000E+00
  0.00000000E+00  0.00000000E+00  0.00000000E+00
  0.00000000E+00  0.00000000E+00  0.00000000E+00
  0.00000000E+00  0.00000000E+00  0.00000000E+00
  0.00000000E+00  0.00000000E+00  0.00000000E+00
  0.00000000E+00  0.00000000E+00  0.00000000E+00
  0.00000000E+00  0.00000000E+00  0.00000000E+00
  0.00000000E+00  0.00000000E+00  0.00000000E+00
  0.00000000E+00  0.00000000E+00  0.00000000E+00
  0.00000000E+00  0.00000000E+00  0.00000000E+00
  0.00000000E+00  0.00000000E+00  0.00000000E+00
  0.00000000E+00  0.00000000E+00  0.00000000E+00
  0.00000000E+00  0.00000000E+00  0.00000000E+00
  0.00000000E+00  0.00000000E+00  0.00000000E+00
  0.00000000E+00  0.00000000E+00  0.00000000E+00
  0.00000000E+00  0.00000000E+00  0.00000000E+00
  0.00000000E+00  0.00000000E+00  0.00000000E+00
  0.00000000E+00  0.00000000E+00  0.00000000E+00
  0.00000000E+00  0.00000000E+00  0.00000000E+00
  0.00000000E+00  0.00000000E+00  0.00000000E+00
