Ta                                      
    1.000000000000000     
    13.2801354791386359   -0.0000001309445913    0.0000002709557281
    -0.0000001271847306   13.2801356782215869    0.0000001308659826
     0.0000002672482949    0.0000001297581166   13.2801355693635177
   Ta
   128
Direct
  0.6249999888070766  0.8749999919658997  0.8750000074519677
  0.7500000317652216  0.4999999992535876  0.7500000126292691
 -0.0000000041921412  0.5000000330109085  0.4999999783811695
  0.6249999492727396  0.8749999803265951  0.1249999831919747
  0.6250000093885245  0.3749999793247643  0.6249999927071286
  0.7499999976767803  0.5000000282830871  0.0000000113723932
 -0.0000000025384920  0.5000000067609779  0.2500000236764293
  0.3750000213534583  0.1249999801196652  0.8750000009873520
 -0.0000000338739072  0.7499999558824796  0.2500000232774759
  0.4999999834036767  0.7499999696969051  0.7500000079866160
  0.1249999742583691  0.3750000405928119  0.6250000117675026
  0.6249999819193859  0.3749999720371912  0.3749999876914226
  0.8749999836025099  0.6249999569746112  0.1249999815723302
  0.4999999852551087  0.2500000218469488  0.5000000011865938
  0.3750000085832985  0.6250000413943597  0.1249999881500354
  0.8749999819396125  0.1250000018359307  0.8750000046197456
  0.8749999912660761  0.8750000024701898  0.1249999500581363
  0.1249999633181023  0.1249999881140911  0.8750000239070027
  0.3750000018135270  0.6250000140752069  0.3749999724337878
  0.3750000068907098  0.8749999503360576  0.8750000300802744
 -0.0000000223230310  0.7500000149226586 -0.0000000432120253
  0.1250000044707777  0.1250000224933464  0.3749999630180463
 -0.0000000034608806 -0.0000000464249199  0.7500000452226900
  0.3750000196277817  0.1250000149193261  0.6249999968845614
  0.4999999932939801  0.5000000204687053 -0.0000000032482528
  0.3750000182535289  0.1250000078005659  0.3749999601967771
  0.7500000057350248  0.2500000053046877  0.4999999828510613
  0.1250000069910032  0.6249999882671686  0.1250000005353029
  0.7500000193666347 -0.0000000048100544  0.2500000242737517
  0.7500000286283376  0.7499999650551615  0.0000000162779072
  0.5000000104054135  0.7499999865385993  0.5000000088141060
  0.1249999658963395  0.3750000179547016  0.3749999601977188
  0.6250000003832510  0.8749999777935303  0.6250000391324055
  0.2500000277576087  0.2500000296181562  0.7500000254389119
  0.2500000158924649  0.2500000267095153  0.4999999937219792
  0.4999999841307023  0.4999999817110806  0.5000000007102373
  0.2499999986603569  0.4999999903595822  0.7500000321370235
  0.3749999965075413  0.1249999600282033  0.1250000425563605
  0.2499999756923483  0.4999999817352256  0.2500000041826779
  0.1249999917952866  0.8749999537807990  0.6250000354631251
  0.1249999862164754  0.1250000110045162  0.1250000043012182
  0.4999999973829203  0.0000000122398344  0.7500000010252773
  0.8750000369744773  0.6249999923517835  0.6250000106544005
  0.6249999651997195  0.8750000015666415  0.3749999672677807
  0.7500000290714536 -0.0000000164834424  0.7500000089284014
  0.0000000227916193  0.2500000075261049  0.2499999973779848
  0.0000000058059473 -0.0000000018248813 -0.0000000278735801
  0.3750000161436897  0.8749999835171001  0.1250000101083356
  0.6250000307116552  0.1250000018061176  0.8749999758725500
 -0.0000000071418300  0.7500000066535094  0.7500000115375752
  0.6249999960347916  0.1249999978626138  0.1250000164917147
  0.2499999756034827 -0.0000000036891939  0.7500000196059079
  0.8749999984173272  0.8749999891317073  0.3750000081540945
  0.4999999856323233  0.2500000220632314 -0.0000000279117486
  0.0000000361806657  0.2499999982120854 -0.0000000058814214
  0.7500000027180320  0.2499999856604943  0.2500000277755068
  0.3750000041134570  0.6250000320678338  0.8750000135311135
  0.8749999703437641  0.1250000292786115  0.6250000239618640
  0.1249999751500752  0.3750000229550781  0.8750000037002572
  0.8749999879313692  0.3750000028794037  0.6250000161878044
  0.8750000279036099  0.3750000121815631  0.3749999975426478
  0.8750000282391205  0.8749999889406228  0.8749999833697005
  0.3749999891322550  0.8749999832837209  0.3749999474298978
  0.8750000034340982  0.8749999742002146  0.6250000590402568
  0.1249999944521166  0.1249999962905065  0.6250000031768490
  0.7500000273129183  0.2500000239121470 -0.0000000267331150
 -0.0000000099678690  0.2500000197052100  0.4999999721783107
  0.8749999820528812  0.1250000460620610  0.3749999717230543
  0.4999999890489922  0.2500000235883647  0.2500000349144970
  0.2500000356878834  0.7500000092893022  0.2500000072375841
  0.0000000152205370  0.5000000018092001  0.7500000106879543
  0.4999999842846278  0.7499999825870511  0.0000000113601216
  0.5000000071658887  0.4999999974642210  0.2499999984277141
  0.4999999945010499  0.0000000077434680  0.4999999924043700
  0.7500000309066285  0.7499999837538309  0.4999999958992225
  0.1249999877140065  0.6249999748380228  0.3750000016387302
  0.3750000109201171  0.8749999668287675  0.6250000170462240
  0.2500000122735310 -0.0000000007228172  0.4999999937720877
  0.6249999890585175  0.6250000120457103  0.6250000081000038
  0.2499999714076700  0.7499999851732950  0.5000000016749045
 -0.0000000210468199  0.7499999688164947  0.5000000119708270
  0.3750000229508093  0.3750000063114478  0.6249999903868170
  0.1250000026957205  0.6250000115300091  0.8749999735681168
  0.6250000459810438  0.3750000009596975  0.8750000169048184
  0.1249999717466822  0.3749999987628959  0.1250000241343529
  0.1250000555390721  0.8749999835097669  0.3749999882068693
  0.3750000028542493  0.6250000079424610  0.6250000245403360
  0.8749999968151148  0.3750000102676670  0.1249999941863461
  0.7499999985839184  0.7499999792198400  0.2499999910205179
  0.7500000130997247  0.5000000229190842  0.4999999921232416
  0.0000000070017262  0.2500000331800706  0.7500000396253738
  0.2499999546203815  0.2500000280649415 -0.0000000175913940
  0.6249999941493731  0.6250000018264749  0.8750000252415653
  0.3749999894623454  0.3750000446362504  0.8749999904133020
  0.7499999951071462  0.2500000038124112  0.7500000165524574
  0.8749999851314112  0.3750000054853533  0.8749999985834953
  0.4999999822691877 -0.0000000238968473  0.0000000055420291
  0.6250000161168304  0.3750000300651288  0.1250000034151678
  0.1249999775798094  0.6250000092336907  0.6250000103730149
  0.3750000119178839  0.3750000168327039  0.1250000272744705
  0.2500000129609764  0.4999999842102033 -0.0000000432512988
  0.2500000111532472  0.7499999853209103 -0.0000000254188585
  0.8750000313395637  0.6249999532516016  0.3750000030306974
  0.7500000221512231  0.5000000413204625  0.2499999814009745
  0.7500000035093191 -0.0000000069909655  0.4999999865415427
  0.2499999909057982  0.7499999772016578  0.7500000228509767
  0.4999999717514383  0.2500000166445091  0.7499999908111133
  0.7500000308900516 -0.0000000170185314 -0.0000000185181569
 -0.0000000148466203 -0.0000000120244319  0.4999999881928682
  0.4999999575565344  0.4999999977874155  0.7500000053816503
  0.3750000252900497  0.3749999968946742  0.3749999944882120
  0.1249999755490211  0.8749999772194389  0.8750000018929440
  0.2499999864171345  0.2500000073751919  0.2499999978474290
  0.4999999949475795  0.7499999983429640  0.2499999783700728
 -0.0000000027454060  0.4999999905791566 -0.0000000127219252
  0.6249999986033540  0.6249999910562918  0.1249999670739204
  0.6249999947563796  0.1250000461820581  0.3749999860451198
  0.8749999983483314  0.6250000003610093  0.8750000090010441
  0.4999999869071221 -0.0000000198408491  0.2499999997373506
  0.8750000204163247  0.1250000279756534  0.1249999920375558
  0.2500000085346598  0.4999999892020697  0.5000000075177303
  0.6250000159827989  0.1250000299801103  0.6250000206281271
  0.6249999885121069  0.6249999829564339  0.3749999970687031
  0.1250000446961694  0.8750000065072692  0.1249999698322051
 -0.0000000186471995  0.0000000357803987  0.2499999997057654
  0.2500000036107181  0.0000000006365160  0.2499999890960233
  0.7500000291572222  0.7500000102721218  0.7499999948212683
  0.2499999860723889 -0.0000000029448016 -0.0000000039238036
 
  0.00000000E+00  0.00000000E+00  0.00000000E+00
  0.00000000E+00  0.00000000E+00  0.00000000E+00
  0.00000000E+00  0.00000000E+00  0.00000000E+00
  0.00000000E+00  0.00000000E+00  0.00000000E+00
  0.00000000E+00  0.00000000E+00  0.00000000E+00
  0.00000000E+00  0.00000000E+00  0.00000000E+00
  0.00000000E+00  0.00000000E+00  0.00000000E+00
  0.00000000E+00  0.00000000E+00  0.00000000E+00
  0.00000000E+00  0.00000000E+00  0.00000000E+00
  0.00000000E+00  0.00000000E+00  0.00000000E+00
  0.00000000E+00  0.00000000E+00  0.00000000E+00
  0.00000000E+00  0.00000000E+00  0.00000000E+00
  0.00000000E+00  0.00000000E+00  0.00000000E+00
  0.00000000E+00  0.00000000E+00  0.00000000E+00
  0.00000000E+00  0.00000000E+00  0.00000000E+00
  0.00000000E+00  0.00000000E+00  0.00000000E+00
  0.00000000E+00  0.00000000E+00  0.00000000E+00
  0.00000000E+00  0.00000000E+00  0.00000000E+00
  0.00000000E+00  0.00000000E+00  0.00000000E+00
  0.00000000E+00  0.00000000E+00  0.00000000E+00
  0.00000000E+00  0.00000000E+00  0.00000000E+00
  0.00000000E+00  0.00000000E+00  0.00000000E+00
  0.00000000E+00  0.00000000E+00  0.00000000E+00
  0.00000000E+00  0.00000000E+00  0.00000000E+00
  0.00000000E+00  0.00000000E+00  0.00000000E+00
  0.00000000E+00  0.00000000E+00  0.00000000E+00
  0.00000000E+00  0.00000000E+00  0.00000000E+00
  0.00000000E+00  0.00000000E+00  0.00000000E+00
  0.00000000E+00  0.00000000E+00  0.00000000E+00
  0.00000000E+00  0.00000000E+00  0.00000000E+00
  0.00000000E+00  0.00000000E+00  0.00000000E+00
  0.00000000E+00  0.00000000E+00  0.00000000E+00
  0.00000000E+00  0.00000000E+00  0.00000000E+00
  0.00000000E+00  0.00000000E+00  0.00000000E+00
  0.00000000E+00  0.00000000E+00  0.00000000E+00
  0.00000000E+00  0.00000000E+00  0.00000000E+00
  0.00000000E+00  0.00000000E+00  0.00000000E+00
  0.00000000E+00  0.00000000E+00  0.00000000E+00
  0.00000000E+00  0.00000000E+00  0.00000000E+00
  0.00000000E+00  0.00000000E+00  0.00000000E+00
  0.00000000E+00  0.00000000E+00  0.00000000E+00
  0.00000000E+00  0.00000000E+00  0.00000000E+00
  0.00000000E+00  0.00000000E+00  0.00000000E+00
  0.00000000E+00  0.00000000E+00  0.00000000E+00
  0.00000000E+00  0.00000000E+00  0.00000000E+00
  0.00000000E+00  0.00000000E+00  0.00000000E+00
  0.00000000E+00  0.00000000E+00  0.00000000E+00
  0.00000000E+00  0.00000000E+00  0.00000000E+00
  0.00000000E+00  0.00000000E+00  0.00000000E+00
  0.00000000E+00  0.00000000E+00  0.00000000E+00
  0.00000000E+00  0.00000000E+00  0.00000000E+00
  0.00000000E+00  0.00000000E+00  0.00000000E+00
  0.00000000E+00  0.00000000E+00  0.00000000E+00
  0.00000000E+00  0.00000000E+00  0.00000000E+00
  0.00000000E+00  0.00000000E+00  0.00000000E+00
  0.00000000E+00  0.00000000E+00  0.00000000E+00
  0.00000000E+00  0.00000000E+00  0.00000000E+00
  0.00000000E+00  0.00000000E+00  0.00000000E+00
  0.00000000E+00  0.00000000E+00  0.00000000E+00
  0.00000000E+00  0.00000000E+00  0.00000000E+00
  0.00000000E+00  0.00000000E+00  0.00000000E+00
  0.00000000E+00  0.00000000E+00  0.00000000E+00
  0.00000000E+00  0.00000000E+00  0.00000000E+00
  0.00000000E+00  0.00000000E+00  0.00000000E+00
  0.00000000E+00  0.00000000E+00  0.00000000E+00
  0.00000000E+00  0.00000000E+00  0.00000000E+00
  0.00000000E+00  0.00000000E+00  0.00000000E+00
  0.00000000E+00  0.00000000E+00  0.00000000E+00
  0.00000000E+00  0.00000000E+00  0.00000000E+00
  0.00000000E+00  0.00000000E+00  0.00000000E+00
  0.00000000E+00  0.00000000E+00  0.00000000E+00
  0.00000000E+00  0.00000000E+00  0.00000000E+00
  0.00000000E+00  0.00000000E+00  0.00000000E+00
  0.00000000E+00  0.00000000E+00  0.00000000E+00
  0.00000000E+00  0.00000000E+00  0.00000000E+00
  0.00000000E+00  0.00000000E+00  0.00000000E+00
  0.00000000E+00  0.00000000E+00  0.00000000E+00
  0.00000000E+00  0.00000000E+00  0.00000000E+00
  0.00000000E+00  0.00000000E+00  0.00000000E+00
  0.00000000E+00  0.00000000E+00  0.00000000E+00
  0.00000000E+00  0.00000000E+00  0.00000000E+00
  0.00000000E+00  0.00000000E+00  0.00000000E+00
  0.00000000E+00  0.00000000E+00  0.00000000E+00
  0.00000000E+00  0.00000000E+00  0.00000000E+00
  0.00000000E+00  0.00000000E+00  0.00000000E+00
  0.00000000E+00  0.00000000E+00  0.00000000E+00
  0.00000000E+00  0.00000000E+00  0.00000000E+00
  0.00000000E+00  0.00000000E+00  0.00000000E+00
  0.00000000E+00  0.00000000E+00  0.00000000E+00
  0.00000000E+00  0.00000000E+00  0.00000000E+00
  0.00000000E+00  0.00000000E+00  0.00000000E+00
  0.00000000E+00  0.00000000E+00  0.00000000E+00
  0.00000000E+00  0.00000000E+00  0.00000000E+00
  0.00000000E+00  0.00000000E+00  0.00000000E+00
  0.00000000E+00  0.00000000E+00  0.00000000E+00
  0.00000000E+00  0.00000000E+00  0.00000000E+00
  0.00000000E+00  0.00000000E+00  0.00000000E+00
  0.00000000E+00  0.00000000E+00  0.00000000E+00
  0.00000000E+00  0.00000000E+00  0.00000000E+00
  0.00000000E+00  0.00000000E+00  0.00000000E+00
  0.00000000E+00  0.00000000E+00  0.00000000E+00
  0.00000000E+00  0.00000000E+00  0.00000000E+00
  0.00000000E+00  0.00000000E+00  0.00000000E+00
  0.00000000E+00  0.00000000E+00  0.00000000E+00
  0.00000000E+00  0.00000000E+00  0.00000000E+00
  0.00000000E+00  0.00000000E+00  0.00000000E+00
  0.00000000E+00  0.00000000E+00  0.00000000E+00
  0.00000000E+00  0.00000000E+00  0.00000000E+00
  0.00000000E+00  0.00000000E+00  0.00000000E+00
  0.00000000E+00  0.00000000E+00  0.00000000E+00
  0.00000000E+00  0.00000000E+00  0.00000000E+00
  0.00000000E+00  0.00000000E+00  0.00000000E+00
  0.00000000E+00  0.00000000E+00  0.00000000E+00
  0.00000000E+00  0.00000000E+00  0.00000000E+00
  0.00000000E+00  0.00000000E+00  0.00000000E+00
  0.00000000E+00  0.00000000E+00  0.00000000E+00
  0.00000000E+00  0.00000000E+00  0.00000000E+00
  0.00000000E+00  0.00000000E+00  0.00000000E+00
  0.00000000E+00  0.00000000E+00  0.00000000E+00
  0.00000000E+00  0.00000000E+00  0.00000000E+00
  0.00000000E+00  0.00000000E+00  0.00000000E+00
  0.00000000E+00  0.00000000E+00  0.00000000E+00
  0.00000000E+00  0.00000000E+00  0.00000000E+00
  0.00000000E+00  0.00000000E+00  0.00000000E+00
  0.00000000E+00  0.00000000E+00  0.00000000E+00
  0.00000000E+00  0.00000000E+00  0.00000000E+00
  0.00000000E+00  0.00000000E+00  0.00000000E+00
  0.00000000E+00  0.00000000E+00  0.00000000E+00
