Hf Ta                                   
    1.000000000000000     
    13.3340580379952875   -0.0311104176104789    0.0651925957339915
    -6.7001623901580594    9.4210233540698649   -0.0213276526029872
    -0.0923742594556006   -0.0268520680674553   18.8141607614052937
  Hf             Ta           
               4             124
Direct
  0.6864830006351782  0.3732858583218137  0.6875310671667100
  0.4373359539249205  0.6250434788719315  0.9379971818554615
  0.1886385378309582  0.1306866906538409  0.6870224826896629
  0.1879371879240678  0.8708410245280320  0.6876214468643489
  0.6879610349528806  0.1257952331351863  0.4372805637860740
  0.8124118914981366  0.1244628412285566  0.3120463139622956
  0.4381864673052633  0.8745332853774954  0.4364796834722787
  0.8152418569775617  0.3749193354024500  0.8153431435825537
  0.6872962506078941  0.8746874993294206  0.1876866943609476
  0.0633943551711700  0.6265962444126697  0.8126533235492650
  0.6881446863071502  0.3756690576209772  0.4369316986046108
  0.5624559792381711  0.1248638770669816  0.3120825127386838
  0.4374314785975687  0.6249833427044391  0.1879808409020082
  0.6876138336155582  0.6245781900251659  0.4373275961540904
  0.3121052364079217  0.3739155013491176  0.5624157297788830
  0.8125095401918023  0.6249305508697514  0.0627709288871396
  0.8120366794674352  0.1244946974101434  0.8126114781442735
  0.3155296498149578  0.8749475946996687  0.8157059222080346
  0.6881603914915889  0.1262859128355305  0.9376860954617118
  0.9384516710133879  0.3754860183252475  0.4365577520285857
  0.5625026087879577  0.1248514035236226  0.0631697394559555
  0.0615228206845713  0.3747046213724149  0.0629581706154568
  0.4367071867012374  0.3750633238336429  0.4363924225951293
  0.1875893143444592  0.1246510285022282  0.1877681325900940
  0.9385926303381058  0.1252110798529303  0.6874701107088510
  0.3126157837053830  0.6243340196284842  0.3124472471637552
  0.9375365624959333  0.8757581015828154  0.1875075145426794
  0.9375488915299195  0.6249075910079201  0.9382632511993109
  0.5645415465699549  0.6241724470474300  0.0656657671838446
  0.8128064793640274  0.8747550802766453  0.0629233874908081
  0.0624551254748491  0.6250988673345864  0.0627990009796866
  0.5620496850807664  0.6257856003582318  0.5613691036071078
  0.3128194227452690  0.3756315370008536  0.0622313948789581
  0.6881182816395454  0.6246801558050152  0.1881667926036646
  0.4380064760219256  0.6261149088117564  0.6868610040432731
  0.3097592991203970  0.6247551042770191  0.0656199051400553
  0.9370604284631550  0.8755679411167776  0.4364195386135808
  0.5608050326111441  0.3760356411053340  0.5591061484099907
  0.0606529529257085  0.1259107474592224  0.8153835372879629
  0.6922934279495021  0.8796725331040806  0.9378666014398094
  0.1822238767502386  0.3695480464611062  0.9378130130123393
  0.8120269346135468  0.6237342889569274  0.8127266257230984
  0.3157927061642670  0.8748190572751647  0.5590985940373259
  0.3138384657944602  0.1232487710009448  0.5597311717964808
  0.0623819164524736  0.3755361502330399  0.5618315201386408
  0.8119696785203067  0.1244345716620146  0.0632388170378780
  0.3133608005993002  0.1227390297574935  0.8148989487252205
  0.5622833669366067  0.8740235220627470  0.8133158130175364
  0.5620284903938663  0.6250487887714613  0.3124046055473116
  0.5638486743158976  0.1263435768581296  0.8120048276012239
  0.9370461695937440  0.1252120657244176  0.4367678376408481
  0.1874962286685757  0.3748512507488241  0.1876972647421158
  0.6886662072601843  0.3761620652936565  0.9381509640668882
  0.9371026150401174  0.1250559707060673  0.1875810844420606
  0.8120232690029536  0.8750020033835029  0.5617912532745571
  0.1875207343410733  0.8755161883091603  0.1875716116247500
  0.4372005121304958  0.3751363539385658  0.1874867260257445
  0.5605910783256055  0.3753976829242669  0.8156244500861169
  0.6873169823974339  0.8753135784720646  0.6872047929447005
  0.6885354970941235  0.6307706499917872  0.6867603362120182
  0.8124287970000428  0.3749559734666862  0.0632627505613297
  0.4379667517476232  0.1247060677749408  0.9384999560664342
  0.0617409106992874  0.3750608741834354  0.8127042199598797
  0.1871929703104518  0.3803430513477001  0.6871747713943058
  0.9349922435130819  0.3727964870417347  0.6875310947653175
  0.4382499802933441  0.1249854650739381  0.4364312281484017
  0.6877947794224619  0.1196627576098710  0.6872058209324455
  0.9368714701653832  0.8743423784457351  0.9386964269264287
  0.9367840978362635  0.1248334696821755  0.9382367258663233
  0.4370424950359547  0.8751274585988953  0.6874508145844009
  0.0638969322350725  0.6267846731106188  0.5623551299934778
  0.0603600769521395  0.1261545607674293  0.5592652058704906
  0.4377950997690359  0.8745580248256909  0.1874992650363823
  0.5626851560745292  0.3746640354198109  0.3123165408939856
  0.9366672462869101  0.6241208237038587  0.6874770389166845
  0.8124663280518477  0.1246819991117540  0.5621008500959594
  0.9377915986534200  0.6251889254251272  0.4368571344976022
  0.1871010653606538  0.1244630755855741  0.4368661427689178
  0.3120603253962356  0.1250162997807464  0.0633146257629033
  0.8124187553160443  0.6252787594625683  0.3123911280165232
  0.3122608253245852  0.8755591907260470  0.0632142098049309
  0.4367683739088055  0.3697522944560375  0.9386587994909196
  0.8123529893139441  0.8746788639845325  0.3123706510964276
  0.5618100996409867  0.8741507550789573  0.0622456983890609
  0.9381326191910557  0.3759870712157451  0.9385108141613012
  0.0622559507482426  0.8742923090550921  0.0631807663987898
  0.1874543268473358  0.6198823943574975  0.6867661834559111
  0.3130117971823385  0.6245753405067574  0.5614592049852003
  0.1876310944368259  0.6257880008097011  0.4371769487944848
  0.3125251735025154  0.8754425543792589  0.3121720929577370
  0.5626807962350650  0.3741280217445302  0.0630760342401308
  0.0628153470072603  0.1253922408949281  0.3118152059995643
  0.6859404792098784  0.6242281422928788  0.9376398210232280
  0.5628632169169114  0.8754495937279984  0.5617677474935990
  0.4375069001478374  0.6252062295850733  0.4370795258333529
  0.8118808911226154  0.6240266752905516  0.5622196633748701
  0.1887749516071462  0.6253999748078610  0.9378192312425494
  0.0597912808646184  0.8758479080868717  0.8150236859421912
  0.8153496042019449  0.3752673271191250  0.5593097633362006
  0.1864731237505880  0.1233922247217642  0.9381260741493702
  0.4356875564543897  0.1252023301197803  0.6872722886774607
  0.6871683488691963  0.1250141332681343  0.1877515269846612
  0.4451398296143959  0.3814953010529009  0.6874450778035043
  0.0624005911751639  0.3752595525805211  0.3123661679306461
  0.0628012869593066  0.1249250137372470  0.0634832344574537
  0.9370530161890428  0.3740338229450453  0.1875474508782396
  0.6871595504245673  0.3743303569806943  0.1875563975213575
  0.3122637853861011  0.3748335906438234  0.8127048132508943
  0.5626717045600642  0.8756634564829554  0.3123152766106234
  0.1865135184067654  0.8739757624764195  0.9382360061563386
  0.8124081677545015  0.8750185410980924  0.8127894650555028
  0.3123311888077374  0.1253556964882892  0.3119618630567430
  0.1867178078770551  0.6250957917539114  0.1882122955194460
  0.4376237630948786  0.1246737100387217  0.1877837619137552
  0.9373308395405285  0.6247127831222582  0.1877504395999094
  0.8125528356426862  0.3754834078184980  0.3122596704132349
  0.6873202010340073  0.8746340905888736  0.4369960202371906
  0.1874491328929198  0.8751209137651993  0.4369025193015831
  0.3104958472380914  0.6249814281042384  0.8103006384535429
  0.0624082513512486  0.8742220083219686  0.3123222949137398
  0.4376530815846277  0.8792951131509149  0.9385528671549050
  0.1876687355164725  0.3751596592614189  0.4370739184542985
  0.0628653327103445  0.6252307154740573  0.3124165627881365
  0.9344441463649321  0.8713123954169872  0.6875548528778130
  0.3124244586389891  0.3746588144066442  0.3123914061808614
  0.5641907102993468  0.6249980716038916  0.8104033031702345
  0.0601259509623989  0.8761182443172355  0.5598616793967757
  0.5639804434474057  0.1264622900211190  0.5626977235687440
 
  0.00000000E+00  0.00000000E+00  0.00000000E+00
  0.00000000E+00  0.00000000E+00  0.00000000E+00
  0.00000000E+00  0.00000000E+00  0.00000000E+00
  0.00000000E+00  0.00000000E+00  0.00000000E+00
  0.00000000E+00  0.00000000E+00  0.00000000E+00
  0.00000000E+00  0.00000000E+00  0.00000000E+00
  0.00000000E+00  0.00000000E+00  0.00000000E+00
  0.00000000E+00  0.00000000E+00  0.00000000E+00
  0.00000000E+00  0.00000000E+00  0.00000000E+00
  0.00000000E+00  0.00000000E+00  0.00000000E+00
  0.00000000E+00  0.00000000E+00  0.00000000E+00
  0.00000000E+00  0.00000000E+00  0.00000000E+00
  0.00000000E+00  0.00000000E+00  0.00000000E+00
  0.00000000E+00  0.00000000E+00  0.00000000E+00
  0.00000000E+00  0.00000000E+00  0.00000000E+00
  0.00000000E+00  0.00000000E+00  0.00000000E+00
  0.00000000E+00  0.00000000E+00  0.00000000E+00
  0.00000000E+00  0.00000000E+00  0.00000000E+00
  0.00000000E+00  0.00000000E+00  0.00000000E+00
  0.00000000E+00  0.00000000E+00  0.00000000E+00
  0.00000000E+00  0.00000000E+00  0.00000000E+00
  0.00000000E+00  0.00000000E+00  0.00000000E+00
  0.00000000E+00  0.00000000E+00  0.00000000E+00
  0.00000000E+00  0.00000000E+00  0.00000000E+00
  0.00000000E+00  0.00000000E+00  0.00000000E+00
  0.00000000E+00  0.00000000E+00  0.00000000E+00
  0.00000000E+00  0.00000000E+00  0.00000000E+00
  0.00000000E+00  0.00000000E+00  0.00000000E+00
  0.00000000E+00  0.00000000E+00  0.00000000E+00
  0.00000000E+00  0.00000000E+00  0.00000000E+00
  0.00000000E+00  0.00000000E+00  0.00000000E+00
  0.00000000E+00  0.00000000E+00  0.00000000E+00
  0.00000000E+00  0.00000000E+00  0.00000000E+00
  0.00000000E+00  0.00000000E+00  0.00000000E+00
  0.00000000E+00  0.00000000E+00  0.00000000E+00
  0.00000000E+00  0.00000000E+00  0.00000000E+00
  0.00000000E+00  0.00000000E+00  0.00000000E+00
  0.00000000E+00  0.00000000E+00  0.00000000E+00
  0.00000000E+00  0.00000000E+00  0.00000000E+00
  0.00000000E+00  0.00000000E+00  0.00000000E+00
  0.00000000E+00  0.00000000E+00  0.00000000E+00
  0.00000000E+00  0.00000000E+00  0.00000000E+00
  0.00000000E+00  0.00000000E+00  0.00000000E+00
  0.00000000E+00  0.00000000E+00  0.00000000E+00
  0.00000000E+00  0.00000000E+00  0.00000000E+00
  0.00000000E+00  0.00000000E+00  0.00000000E+00
  0.00000000E+00  0.00000000E+00  0.00000000E+00
  0.00000000E+00  0.00000000E+00  0.00000000E+00
  0.00000000E+00  0.00000000E+00  0.00000000E+00
  0.00000000E+00  0.00000000E+00  0.00000000E+00
  0.00000000E+00  0.00000000E+00  0.00000000E+00
  0.00000000E+00  0.00000000E+00  0.00000000E+00
  0.00000000E+00  0.00000000E+00  0.00000000E+00
  0.00000000E+00  0.00000000E+00  0.00000000E+00
  0.00000000E+00  0.00000000E+00  0.00000000E+00
  0.00000000E+00  0.00000000E+00  0.00000000E+00
  0.00000000E+00  0.00000000E+00  0.00000000E+00
  0.00000000E+00  0.00000000E+00  0.00000000E+00
  0.00000000E+00  0.00000000E+00  0.00000000E+00
  0.00000000E+00  0.00000000E+00  0.00000000E+00
  0.00000000E+00  0.00000000E+00  0.00000000E+00
  0.00000000E+00  0.00000000E+00  0.00000000E+00
  0.00000000E+00  0.00000000E+00  0.00000000E+00
  0.00000000E+00  0.00000000E+00  0.00000000E+00
  0.00000000E+00  0.00000000E+00  0.00000000E+00
  0.00000000E+00  0.00000000E+00  0.00000000E+00
  0.00000000E+00  0.00000000E+00  0.00000000E+00
  0.00000000E+00  0.00000000E+00  0.00000000E+00
  0.00000000E+00  0.00000000E+00  0.00000000E+00
  0.00000000E+00  0.00000000E+00  0.00000000E+00
  0.00000000E+00  0.00000000E+00  0.00000000E+00
  0.00000000E+00  0.00000000E+00  0.00000000E+00
  0.00000000E+00  0.00000000E+00  0.00000000E+00
  0.00000000E+00  0.00000000E+00  0.00000000E+00
  0.00000000E+00  0.00000000E+00  0.00000000E+00
  0.00000000E+00  0.00000000E+00  0.00000000E+00
  0.00000000E+00  0.00000000E+00  0.00000000E+00
  0.00000000E+00  0.00000000E+00  0.00000000E+00
  0.00000000E+00  0.00000000E+00  0.00000000E+00
  0.00000000E+00  0.00000000E+00  0.00000000E+00
  0.00000000E+00  0.00000000E+00  0.00000000E+00
  0.00000000E+00  0.00000000E+00  0.00000000E+00
  0.00000000E+00  0.00000000E+00  0.00000000E+00
  0.00000000E+00  0.00000000E+00  0.00000000E+00
  0.00000000E+00  0.00000000E+00  0.00000000E+00
  0.00000000E+00  0.00000000E+00  0.00000000E+00
  0.00000000E+00  0.00000000E+00  0.00000000E+00
  0.00000000E+00  0.00000000E+00  0.00000000E+00
  0.00000000E+00  0.00000000E+00  0.00000000E+00
  0.00000000E+00  0.00000000E+00  0.00000000E+00
  0.00000000E+00  0.00000000E+00  0.00000000E+00
  0.00000000E+00  0.00000000E+00  0.00000000E+00
  0.00000000E+00  0.00000000E+00  0.00000000E+00
  0.00000000E+00  0.00000000E+00  0.00000000E+00
  0.00000000E+00  0.00000000E+00  0.00000000E+00
  0.00000000E+00  0.00000000E+00  0.00000000E+00
  0.00000000E+00  0.00000000E+00  0.00000000E+00
  0.00000000E+00  0.00000000E+00  0.00000000E+00
  0.00000000E+00  0.00000000E+00  0.00000000E+00
  0.00000000E+00  0.00000000E+00  0.00000000E+00
  0.00000000E+00  0.00000000E+00  0.00000000E+00
  0.00000000E+00  0.00000000E+00  0.00000000E+00
  0.00000000E+00  0.00000000E+00  0.00000000E+00
  0.00000000E+00  0.00000000E+00  0.00000000E+00
  0.00000000E+00  0.00000000E+00  0.00000000E+00
  0.00000000E+00  0.00000000E+00  0.00000000E+00
  0.00000000E+00  0.00000000E+00  0.00000000E+00
  0.00000000E+00  0.00000000E+00  0.00000000E+00
  0.00000000E+00  0.00000000E+00  0.00000000E+00
  0.00000000E+00  0.00000000E+00  0.00000000E+00
  0.00000000E+00  0.00000000E+00  0.00000000E+00
  0.00000000E+00  0.00000000E+00  0.00000000E+00
  0.00000000E+00  0.00000000E+00  0.00000000E+00
  0.00000000E+00  0.00000000E+00  0.00000000E+00
  0.00000000E+00  0.00000000E+00  0.00000000E+00
  0.00000000E+00  0.00000000E+00  0.00000000E+00
  0.00000000E+00  0.00000000E+00  0.00000000E+00
  0.00000000E+00  0.00000000E+00  0.00000000E+00
  0.00000000E+00  0.00000000E+00  0.00000000E+00
  0.00000000E+00  0.00000000E+00  0.00000000E+00
  0.00000000E+00  0.00000000E+00  0.00000000E+00
  0.00000000E+00  0.00000000E+00  0.00000000E+00
  0.00000000E+00  0.00000000E+00  0.00000000E+00
  0.00000000E+00  0.00000000E+00  0.00000000E+00
  0.00000000E+00  0.00000000E+00  0.00000000E+00
  0.00000000E+00  0.00000000E+00  0.00000000E+00
  0.00000000E+00  0.00000000E+00  0.00000000E+00
  0.00000000E+00  0.00000000E+00  0.00000000E+00
