Hf Ti                                   
    1.000000000000000     
    12.7269233357888005   -0.0110962892985046    0.0010170741079723
    -6.3730742420624011   11.0220206840976420    0.0005649007260878
     0.0016048166704604    0.0019692459847911   20.0829228744313539
  Hf              Ti            
   116    12
Direct
     0.3384427462511501    0.6695547706339464    0.3127858979369244
     0.9173320338342169    0.3317143849113739    0.9378960636195159
     0.5833149689684408    0.1646465535767989    0.0633911896106188
     0.0848353510384070    0.4152648091229325    0.8129163423845502
     0.6643049552824420    0.8351582298735776    0.1890052818054659
     0.4165989951290213    0.0838976218278966    0.4376796012523758
     0.5824829119420031    0.1676890843420936    0.8123090647409359
     0.0869807699541720    0.1701550043062630    0.8128086207044833
     0.4165173599771012    0.0838275680851508    0.1879108468827904
     0.4207615462820996    0.8356017929078261    0.1875619359608204
     0.6661157569604355    0.0818248877317458    0.9388458502644551
     0.6672982190744062    0.3341745939192962    0.6869409070305355
     0.0815836296649390    0.9137534525709166    0.3132706828030221
     0.1631576042326357    0.0820382805969717    0.1881133240547963
     0.5853976323270578    0.1660360108076515    0.3122094313456950
     0.8356199658070049    0.9163390549152454    0.8115548737853849
     0.3332341118704409    0.1666243856990534    0.0625834036703627
     0.6659248405706111    0.5831241062181237    0.9377026039662409
     0.1653156948399249    0.0845403218569732    0.6869665868553441
     0.3352090760998342    0.4177973577979638    0.3128497453221697
     0.3323609205335626    0.9181036737082752    0.8123264459102112
     0.6691238042783079    0.3337769383351695    0.1889555032629351
     0.9122467577031984    0.5831462330063671    0.4351517763295918
     0.8350007463291849    0.4193803173300005    0.5615631302261873
     0.3332197402307195    0.6670835301753284    0.8120553105708108
     0.9161558275825212    0.8330609297595081    0.1890651603831205
     0.9197049979093614    0.0817056730351499    0.6860996001337689
     0.1678047717222080    0.5825595838367714    0.9378508107600405
     0.1639609622536124    0.3318072672853176    0.1882017489852119
     0.5829099772988081    0.4170942094536501    0.0632978999569161
     0.1665450158018837    0.8330354242676578    0.9375978493417890
     0.8332572412681620    0.1664363799840250    0.8117445305326931
     0.3358331167697827    0.9174155728645010    0.0626046951824740
     0.0831342438333544    0.6661317965028886    0.0632887305090188
     0.8305015490163451    0.9148620040857971    0.3116638823638758
     0.3361594341432382    0.6685169384332749    0.0631160054216062
     0.6703588004983689    0.5869734646639574    0.6859387259851306
     0.5830724177214212    0.6682015113750942    0.0635093526791533
     0.6694763769158917    0.5871398897265518    0.4359606336003634
     0.4142061571907573    0.5812719619959950    0.9374664427031409
     0.9169653700872029    0.5832019076829370    0.9379210780559463
     0.5837301992084252    0.9173722581276584    0.8124922821034454
     0.5853316679300927    0.6673736085957062    0.5613102258332499
     0.8386167017193208    0.1692138650719812    0.5619656966305296
     0.4147278840480368    0.0843095674947916    0.6879660698194690
     0.9167629152543689    0.3356018671641312    0.4365608817353314
     0.5874622073276518    0.4206249576002519    0.3125888618330142
     0.3299042244437997    0.4133135056319093    0.8129643982423441
     0.8318058263536821    0.1629339845765967    0.3118786233761779
     0.9191161425702390    0.3354037323385994    0.6858853342527634
     0.9140063279165298    0.5821706060952597    0.1910489319588804
     0.1693167626370900    0.0864174319886607    0.9360771592460702
     0.0834646981887249    0.9173359289787718    0.0623916811758544
     0.6644748809724256    0.8328793134184145    0.4346417998481921
     0.0804856943108541    0.6651165570931585    0.5613200571040965
     0.3320714606154534    0.6638910705531385    0.5619857462805561
     0.5827953964335216    0.6656704838811451    0.8127476990735459
     0.9162228738185779    0.5878676505739904    0.6855804548246234
     0.1637216422117989    0.3316279770321289    0.4395386974996853
     0.1649292214956715    0.8324986635857465    0.6868618704839872
     0.8329866914371018    0.6668348023138992    0.0636105412384981
     0.9182087457010305    0.0854121366903227    0.9375567371381773
     0.0820157869870985    0.6656351702333784    0.3132558021581596
     0.0831566684500894    0.9174610646697993    0.8110503476842653
     0.6665096338555625    0.0811354793105944    0.4363833587863998
     0.3316870556458102    0.4157000258969113    0.5621782871461574
     0.1668084319988275    0.8331909068721127    0.1879044021777268
     0.8339604499733403    0.4173776206390575    0.8120285274330876
     0.1672047309566865    0.8338079914621869    0.4377058108684352
     0.4155901842998788    0.0849847200946022    0.9365356186877323
     0.4180666587382517    0.8341769084681534    0.4371567697394746
     0.5859497354084292    0.4187847157256039    0.5619227185085914
     0.6670343508389507    0.3333088806883312    0.9381552319843591
     0.6683684301692305    0.8330603034697934    0.6873701729170797
     0.4137303128064491    0.3308545261987755    0.9362570635804153
     0.1641808485567362    0.0836580038823157    0.4390211249689559
     0.3334175984065229    0.1667075774918780    0.3128786083603232
     0.3312601476278346    0.1673423026228202    0.5629151614641129
     0.3310657785044139    0.4154303910174502    0.0618886994874848
     0.4183069086061435    0.5833423378592807    0.1889129688565564
     0.1674081392018105    0.5836031302548761    0.1882776145301711
     0.4174014204530277    0.3338930250180766    0.4376275645580907
     0.6679755793421535    0.5874542382738214    0.1902200431026526
     0.0834447529037463    0.6660041446618871    0.8120682745060793
     0.3324425473445201    0.9166077480047700    0.5625472795269668
     0.8347828216364769    0.6689509849314933    0.8112253635627270
     0.4161283464694278    0.8332240531493775    0.6869389259579531
     0.3358731652385528    0.9169437662876896    0.3125323042778984
     0.9180534581631132    0.0827131228984247    0.4380067405754552
     0.6663300279788895    0.8349676059613955    0.9388715101609636
     0.0845260724812288    0.4154958508475824    0.0619718455724022
     0.6662615314411507    0.0778443521753626    0.1880405673085260
     0.0820560900515781    0.1672997596158167    0.0625238255499148
     0.0831046857396782    0.4180805667782415    0.3131770938177596
     0.8339322838493954    0.4162369711540880    0.0636006906421478
     0.4158321837781095    0.3323321687725082    0.6880926709649922
     0.0780811865101901    0.9141767913687271    0.5636656179871362
     0.4172877658560789    0.5827835914461238    0.6871081734446647
     0.5824965948665073    0.4154691381147734    0.8121996261830585
     0.6687367009540640    0.3336191118777627    0.4358762920800578
     0.8348776663179421    0.9135677144322304    0.5626371088327643
     0.5854837403944079    0.9168239129694659    0.5619192164952743
     0.8329646468848836    0.1635169107698235    0.0645296999965090
     0.1659570820441686    0.5809990555787000    0.4383544917613390
     0.9158067502526948    0.3329004030693103    0.1894947887253406
     0.4189756007695650    0.5834983661922121    0.4364362319502441
     0.1646988173193607    0.5806551015844574    0.6854660654049093
     0.4163369107569687    0.3335141804695919    0.1881382176316478
     0.1638783415691810    0.3320300497004959    0.6846727367590405
     0.9142084025561898    0.8287974320679274    0.4372136114698851
     0.0802856758879215    0.1648844800217821    0.3123438650986389
     0.6675387537945373    0.0838895628997752    0.6867295951907602
     0.9166582858480427    0.8347696872282317    0.9375217174566576
     0.8329428539707793    0.9196414507213660    0.0646164482232809
     0.5845168157494435    0.1676142566473834    0.5620648639861169
     0.4188646072750971    0.8344417201204655    0.9383248155366822
     0.5850006538397740    0.6686176600458316    0.3123835836841152
     0.1666180790745454    0.3334803491681982    0.9375891060088662
     0.9173658602840260    0.0836622625608925    0.1885223873144175
     0.3331542982179093    0.1658906231055874    0.8117800428278134
     0.5820271608827061    0.9144646546742180    0.3120962994321869
     0.0821304609453011    0.1664561870207795    0.5623547922034670
     0.9150063603655373    0.8309703706625500    0.6862189531816656
     0.8303602177434914    0.6666140099807784    0.3129468972671523
     0.5834316876629999    0.9162577115393502    0.0634166495963050
     0.8347100215349939    0.6688228126072661    0.5621448928026930
     0.0814816351527657    0.4145131172984369    0.5617380304510292
     0.8316818310262392    0.4165103086508746    0.3125968750033414
 
  0.00000000E+00  0.00000000E+00  0.00000000E+00
  0.00000000E+00  0.00000000E+00  0.00000000E+00
  0.00000000E+00  0.00000000E+00  0.00000000E+00
  0.00000000E+00  0.00000000E+00  0.00000000E+00
  0.00000000E+00  0.00000000E+00  0.00000000E+00
  0.00000000E+00  0.00000000E+00  0.00000000E+00
  0.00000000E+00  0.00000000E+00  0.00000000E+00
  0.00000000E+00  0.00000000E+00  0.00000000E+00
  0.00000000E+00  0.00000000E+00  0.00000000E+00
  0.00000000E+00  0.00000000E+00  0.00000000E+00
  0.00000000E+00  0.00000000E+00  0.00000000E+00
  0.00000000E+00  0.00000000E+00  0.00000000E+00
  0.00000000E+00  0.00000000E+00  0.00000000E+00
  0.00000000E+00  0.00000000E+00  0.00000000E+00
  0.00000000E+00  0.00000000E+00  0.00000000E+00
  0.00000000E+00  0.00000000E+00  0.00000000E+00
  0.00000000E+00  0.00000000E+00  0.00000000E+00
  0.00000000E+00  0.00000000E+00  0.00000000E+00
  0.00000000E+00  0.00000000E+00  0.00000000E+00
  0.00000000E+00  0.00000000E+00  0.00000000E+00
  0.00000000E+00  0.00000000E+00  0.00000000E+00
  0.00000000E+00  0.00000000E+00  0.00000000E+00
  0.00000000E+00  0.00000000E+00  0.00000000E+00
  0.00000000E+00  0.00000000E+00  0.00000000E+00
  0.00000000E+00  0.00000000E+00  0.00000000E+00
  0.00000000E+00  0.00000000E+00  0.00000000E+00
  0.00000000E+00  0.00000000E+00  0.00000000E+00
  0.00000000E+00  0.00000000E+00  0.00000000E+00
  0.00000000E+00  0.00000000E+00  0.00000000E+00
  0.00000000E+00  0.00000000E+00  0.00000000E+00
  0.00000000E+00  0.00000000E+00  0.00000000E+00
  0.00000000E+00  0.00000000E+00  0.00000000E+00
  0.00000000E+00  0.00000000E+00  0.00000000E+00
  0.00000000E+00  0.00000000E+00  0.00000000E+00
  0.00000000E+00  0.00000000E+00  0.00000000E+00
  0.00000000E+00  0.00000000E+00  0.00000000E+00
  0.00000000E+00  0.00000000E+00  0.00000000E+00
  0.00000000E+00  0.00000000E+00  0.00000000E+00
  0.00000000E+00  0.00000000E+00  0.00000000E+00
  0.00000000E+00  0.00000000E+00  0.00000000E+00
  0.00000000E+00  0.00000000E+00  0.00000000E+00
  0.00000000E+00  0.00000000E+00  0.00000000E+00
  0.00000000E+00  0.00000000E+00  0.00000000E+00
  0.00000000E+00  0.00000000E+00  0.00000000E+00
  0.00000000E+00  0.00000000E+00  0.00000000E+00
  0.00000000E+00  0.00000000E+00  0.00000000E+00
  0.00000000E+00  0.00000000E+00  0.00000000E+00
  0.00000000E+00  0.00000000E+00  0.00000000E+00
  0.00000000E+00  0.00000000E+00  0.00000000E+00
  0.00000000E+00  0.00000000E+00  0.00000000E+00
  0.00000000E+00  0.00000000E+00  0.00000000E+00
  0.00000000E+00  0.00000000E+00  0.00000000E+00
  0.00000000E+00  0.00000000E+00  0.00000000E+00
  0.00000000E+00  0.00000000E+00  0.00000000E+00
  0.00000000E+00  0.00000000E+00  0.00000000E+00
  0.00000000E+00  0.00000000E+00  0.00000000E+00
  0.00000000E+00  0.00000000E+00  0.00000000E+00
  0.00000000E+00  0.00000000E+00  0.00000000E+00
  0.00000000E+00  0.00000000E+00  0.00000000E+00
  0.00000000E+00  0.00000000E+00  0.00000000E+00
  0.00000000E+00  0.00000000E+00  0.00000000E+00
  0.00000000E+00  0.00000000E+00  0.00000000E+00
  0.00000000E+00  0.00000000E+00  0.00000000E+00
  0.00000000E+00  0.00000000E+00  0.00000000E+00
  0.00000000E+00  0.00000000E+00  0.00000000E+00
  0.00000000E+00  0.00000000E+00  0.00000000E+00
  0.00000000E+00  0.00000000E+00  0.00000000E+00
  0.00000000E+00  0.00000000E+00  0.00000000E+00
  0.00000000E+00  0.00000000E+00  0.00000000E+00
  0.00000000E+00  0.00000000E+00  0.00000000E+00
  0.00000000E+00  0.00000000E+00  0.00000000E+00
  0.00000000E+00  0.00000000E+00  0.00000000E+00
  0.00000000E+00  0.00000000E+00  0.00000000E+00
  0.00000000E+00  0.00000000E+00  0.00000000E+00
  0.00000000E+00  0.00000000E+00  0.00000000E+00
  0.00000000E+00  0.00000000E+00  0.00000000E+00
  0.00000000E+00  0.00000000E+00  0.00000000E+00
  0.00000000E+00  0.00000000E+00  0.00000000E+00
  0.00000000E+00  0.00000000E+00  0.00000000E+00
  0.00000000E+00  0.00000000E+00  0.00000000E+00
  0.00000000E+00  0.00000000E+00  0.00000000E+00
  0.00000000E+00  0.00000000E+00  0.00000000E+00
  0.00000000E+00  0.00000000E+00  0.00000000E+00
  0.00000000E+00  0.00000000E+00  0.00000000E+00
  0.00000000E+00  0.00000000E+00  0.00000000E+00
  0.00000000E+00  0.00000000E+00  0.00000000E+00
  0.00000000E+00  0.00000000E+00  0.00000000E+00
  0.00000000E+00  0.00000000E+00  0.00000000E+00
  0.00000000E+00  0.00000000E+00  0.00000000E+00
  0.00000000E+00  0.00000000E+00  0.00000000E+00
  0.00000000E+00  0.00000000E+00  0.00000000E+00
  0.00000000E+00  0.00000000E+00  0.00000000E+00
  0.00000000E+00  0.00000000E+00  0.00000000E+00
  0.00000000E+00  0.00000000E+00  0.00000000E+00
  0.00000000E+00  0.00000000E+00  0.00000000E+00
  0.00000000E+00  0.00000000E+00  0.00000000E+00
  0.00000000E+00  0.00000000E+00  0.00000000E+00
  0.00000000E+00  0.00000000E+00  0.00000000E+00
  0.00000000E+00  0.00000000E+00  0.00000000E+00
  0.00000000E+00  0.00000000E+00  0.00000000E+00
  0.00000000E+00  0.00000000E+00  0.00000000E+00
  0.00000000E+00  0.00000000E+00  0.00000000E+00
  0.00000000E+00  0.00000000E+00  0.00000000E+00
  0.00000000E+00  0.00000000E+00  0.00000000E+00
  0.00000000E+00  0.00000000E+00  0.00000000E+00
  0.00000000E+00  0.00000000E+00  0.00000000E+00
  0.00000000E+00  0.00000000E+00  0.00000000E+00
  0.00000000E+00  0.00000000E+00  0.00000000E+00
  0.00000000E+00  0.00000000E+00  0.00000000E+00
  0.00000000E+00  0.00000000E+00  0.00000000E+00
  0.00000000E+00  0.00000000E+00  0.00000000E+00
  0.00000000E+00  0.00000000E+00  0.00000000E+00
  0.00000000E+00  0.00000000E+00  0.00000000E+00
  0.00000000E+00  0.00000000E+00  0.00000000E+00
  0.00000000E+00  0.00000000E+00  0.00000000E+00
  0.00000000E+00  0.00000000E+00  0.00000000E+00
  0.00000000E+00  0.00000000E+00  0.00000000E+00
  0.00000000E+00  0.00000000E+00  0.00000000E+00
  0.00000000E+00  0.00000000E+00  0.00000000E+00
  0.00000000E+00  0.00000000E+00  0.00000000E+00
  0.00000000E+00  0.00000000E+00  0.00000000E+00
  0.00000000E+00  0.00000000E+00  0.00000000E+00
  0.00000000E+00  0.00000000E+00  0.00000000E+00
  0.00000000E+00  0.00000000E+00  0.00000000E+00
  0.00000000E+00  0.00000000E+00  0.00000000E+00
  0.00000000E+00  0.00000000E+00  0.00000000E+00
  0.00000000E+00  0.00000000E+00  0.00000000E+00
  0.00000000E+00  0.00000000E+00  0.00000000E+00
