Hf Ti                                   
    1.000000000000000     
    11.9336252734032016   -0.0062775239437211   -0.0004843652820982
    -5.9722419955409016   10.3408340806645942   -0.0010652587103199
    -0.0007218237112674   -0.0023903959320981   18.8206427750991736
  Hf              Ti            
    20   108
Direct
     0.0848510350382849    0.1638024658002359    0.0638231035830447
     0.3266274827135322    0.9102275375165079    0.0631295097377179
     0.0838595301023809    0.9198065652998098    0.8104715683512498
     0.4175103581104713    0.5819992620698167    0.9337568049922171
     0.8349550156383030    0.4159574146652538    0.5654028093801358
     0.4190114323795393    0.3372900973988929    0.4394546360930468
     0.8391316617496489    0.4199195321953278    0.8071271335327596
     0.6670990082355470    0.3351104937960613    0.9350999188463186
     0.1611333014753767    0.5793223506749364    0.6877576156399656
     0.5783566865471506    0.1610259781434237    0.0608127696125486
     0.1669294028900823    0.5858887803667436    0.1881794369507213
     0.4167667929473602    0.8327352868135891    0.4384888046931337
     0.5827691285273294    0.6657807455792583    0.5609599292334507
     0.8370452091454637    0.4191761698688231    0.3155953186238247
     0.6651325899652688    0.3304623507043506    0.1879709142560166
     0.6670282220033587    0.5863618765675280    0.1919488376674871
     0.8313363775722880    0.1645050580466203    0.0619987208245813
     0.1638479539558269    0.0803369296715006    0.4390754640674022
     0.1647012858021501    0.5859848684862206    0.9358700725543921
     0.5865715034443526    0.6702442149963520    0.0625242563151753
     0.9150590606051698    0.0793666313813591    0.1913649583128983
     0.5816301972379622    0.9145984232717991    0.8096146438796545
     0.3332715981638493    0.1663516113809693    0.0622722412163022
     0.1696345787235855    0.0845934958198976    0.9362090418887492
     0.3303795426705492    0.6633490359206673    0.5632627658316586
     0.1671544667961172    0.3333414502329602    0.1894598177914307
     0.9202087850335566    0.5977767203031821    0.6859841996709660
     0.6687945007652663    0.8371068459744511    0.6866393067571073
     0.5882378684502032    0.6690983789433607    0.8080073901686916
     0.9205761280615345    0.5894828544077249    0.4392649534701693
     0.3328062045503727    0.4167316175806274    0.3114205726061279
     0.0801658174447278    0.9128367716176975    0.5652713498428675
     0.9164022532043105    0.0796207157527131    0.6873437152284372
     0.5790968382598448    0.4136832965436268    0.3140246314996032
     0.0839199139934026    0.1683938003938497    0.3117761106141865
     0.5805136085056193    0.4195233691431021    0.0609183889934865
     0.8437510794011727    0.4261979808505713    0.0620481350965043
     0.5768619006803839    0.4193020607724561    0.8110153647577741
     0.9178145411247445    0.5900047552950848    0.9362862542455643
     0.0751722195559957    0.6682510170317031    0.0624351620195212
     0.5836412663324887    0.9139395948081848    0.0624751285630505
     0.1686901592740541    0.0801498229542150    0.1899976503379709
     0.5803186811290583    0.6696131580926148    0.3184293976577375
     0.9139607101048846    0.8305308997154991    0.4384050718724304
     0.4129150512720544    0.0810288244586171    0.1908748479356527
     0.3269196234059231    0.4142030048839897    0.5647306105806666
     0.6633569421585882    0.0766229935863148    0.9324741858823687
     0.4202686297701405    0.8362376820245258    0.6852930518210988
     0.9153991241627513    0.0850346216537580    0.4369172966861710
     0.6707764682311201    0.8386945755915565    0.9341549841130433
     0.8328176863508155    0.1625868374947682    0.8120959568113502
     0.1641923357357991    0.3283171678339132    0.9362966578518932
     0.4181344701103966    0.3362465971209717    0.6868201288278362
     0.6554790588155528    0.3271846547266893    0.6880627544855176
     0.3314331161196691    0.9200701569431499    0.5633917092518014
     0.0828020211878141    0.6725649378505241    0.8106209139385882
     0.0874340388942076    0.6724455258340267    0.5611758522661060
     0.0849072033428509    0.4130192400296291    0.3138752836473163
     0.8361466231916406    0.6712583931648539    0.5621793329596252
     0.0851562355248807    0.1687164556760119    0.8106986529298634
     0.3359725322112582    0.1654988551758153    0.5661462729744209
     0.8400759633908456    0.6740501438352945    0.3144452829327686
     0.8345879099610085    0.1632287137280969    0.5629146868181710
     0.9093728333821698    0.8320088999448731    0.6866084790647039
     0.5798970411210478    0.1638388958318791    0.5635422509931547
     0.3332496752414275    0.6643813865013283    0.3141739444023922
     0.9204516413887147    0.3310531578788437    0.1885592213460850
     0.5794142482983637    0.1604896907862516    0.3154993424802644
     0.1710221662798400    0.8360593407461847    0.6852112662917192
     0.4115478928615006    0.3293910389434428    0.9373243458036385
     0.5859667832417097    0.4165676525328776    0.5644179753456945
     0.9190146122274427    0.3218598386053242    0.6872902227200899
     0.1644863809409841    0.8324089017275877    0.4383248859280331
     0.4212864692348423    0.8365967035843180    0.9351138804721640
     0.9128924360922471    0.8330943052696335    0.9383112263766619
     0.0812535459579785    0.9141796220405182    0.0621015788789995
     0.1606473221503049    0.5788200344659956    0.4378954852631430
     0.6735986243289864    0.8405334129047007    0.4377323586321754
     0.4175285368787806    0.5821611480755278    0.6881555317285096
     0.1676467829112844    0.0873925441293649    0.6846413323132698
     0.5794120588906482    0.1615792326888628    0.8099641618561629
     0.3295102769890382    0.4121987767614614    0.8099424825957579
     0.3343559111719079    0.9128750672173147    0.8112013698643217
     0.6703285246369677    0.5873737861862182    0.9348440172040946
     0.0836423856029433    0.4126525276759873    0.5613284364182414
     0.3364274154903102    0.1714135113067330    0.8100832498108704
     0.1646471154327904    0.3350432145294017    0.4372890546008883
     0.6719724107433553    0.0890836183590257    0.4388177901582861
     0.1663055353780648    0.3294317659541926    0.6866229242845420
     0.9210802306119493    0.5898548794063937    0.1886777906786484
     0.0871737666488246    0.6723643245414859    0.3155676397521948
     0.3362508614350356    0.6677435988870357    0.0632678589854942
     0.5883073821895833    0.9197982677355890    0.3144536611999828
     0.6673641457036724    0.8379660087093533    0.1915502237608094
     0.3347367252218378    0.1666420893147336    0.3115448096993172
     0.4164189313961135    0.5846787917328240    0.1907969349143765
     0.4153994039291369    0.0798514423113471    0.6875543792399889
     0.4108940513296950    0.3303359875308010    0.1867422513388907
     0.0842181849975589    0.4161471157987701    0.0624437107214216
     0.6698037414803180    0.5801285088091864    0.6873410898498679
     0.4221149477927832    0.8338868174607474    0.1911027416404497
     0.0810144164029670    0.9155781903058754    0.3122159713238972
     0.3302005594384120    0.9178178751281213    0.3122086042035258
     0.6643920605721141    0.3303839317909325    0.4390727281425914
     0.4078439168868304    0.5787923788542028    0.4374451237480588
     0.4096710753063014    0.0804342556355401    0.9329303020127659
     0.8330021965339109    0.1641759634840200    0.3130701808702701
     0.6625432938840881    0.0771222023896663    0.1910840247798834
     0.8353359355961110    0.9151300318826884    0.3134182580177248
     0.9183993700659479    0.0792280981339552    0.9340860134477015
     0.9185215927646992    0.3314274199618636    0.9358461973711414
     0.8297416635126301    0.9161989597175828    0.8116356144693825
     0.4183241706840364    0.0833731204046453    0.4386232536417674
     0.6693502691393679    0.0866511515519155    0.6873034723103144
     0.3312245281079094    0.4174139412045406    0.0638458707250351
     0.8323150642497882    0.9150764145972932    0.0629047610479828
     0.0814976838645540    0.1691528403862202    0.5634240689549141
     0.0854085893163303    0.4082523607967663    0.8121820375553248
     0.8341722922112164    0.6629079805631454    0.0618045242659552
     0.8391406523389195    0.9221011353068617    0.5618828692074040
     0.8296604468695635    0.6676913127787057    0.8117194123005761
     0.6750290824750282    0.5823012685644392    0.4361648511533089
     0.9197226337056567    0.8376490959865596    0.1870691759891720
     0.5887525983991206    0.9232613120240235    0.5634320158096628
     0.9198742139493558    0.3295213366020857    0.4383766901833989
     0.1628591642460447    0.8328821197847182    0.9360335932417414
     0.1615505172222106    0.8333633934987451    0.1905827305615825
     0.3393109284969310    0.6734351813168425    0.8090554080572651
 
  0.00000000E+00  0.00000000E+00  0.00000000E+00
  0.00000000E+00  0.00000000E+00  0.00000000E+00
  0.00000000E+00  0.00000000E+00  0.00000000E+00
  0.00000000E+00  0.00000000E+00  0.00000000E+00
  0.00000000E+00  0.00000000E+00  0.00000000E+00
  0.00000000E+00  0.00000000E+00  0.00000000E+00
  0.00000000E+00  0.00000000E+00  0.00000000E+00
  0.00000000E+00  0.00000000E+00  0.00000000E+00
  0.00000000E+00  0.00000000E+00  0.00000000E+00
  0.00000000E+00  0.00000000E+00  0.00000000E+00
  0.00000000E+00  0.00000000E+00  0.00000000E+00
  0.00000000E+00  0.00000000E+00  0.00000000E+00
  0.00000000E+00  0.00000000E+00  0.00000000E+00
  0.00000000E+00  0.00000000E+00  0.00000000E+00
  0.00000000E+00  0.00000000E+00  0.00000000E+00
  0.00000000E+00  0.00000000E+00  0.00000000E+00
  0.00000000E+00  0.00000000E+00  0.00000000E+00
  0.00000000E+00  0.00000000E+00  0.00000000E+00
  0.00000000E+00  0.00000000E+00  0.00000000E+00
  0.00000000E+00  0.00000000E+00  0.00000000E+00
  0.00000000E+00  0.00000000E+00  0.00000000E+00
  0.00000000E+00  0.00000000E+00  0.00000000E+00
  0.00000000E+00  0.00000000E+00  0.00000000E+00
  0.00000000E+00  0.00000000E+00  0.00000000E+00
  0.00000000E+00  0.00000000E+00  0.00000000E+00
  0.00000000E+00  0.00000000E+00  0.00000000E+00
  0.00000000E+00  0.00000000E+00  0.00000000E+00
  0.00000000E+00  0.00000000E+00  0.00000000E+00
  0.00000000E+00  0.00000000E+00  0.00000000E+00
  0.00000000E+00  0.00000000E+00  0.00000000E+00
  0.00000000E+00  0.00000000E+00  0.00000000E+00
  0.00000000E+00  0.00000000E+00  0.00000000E+00
  0.00000000E+00  0.00000000E+00  0.00000000E+00
  0.00000000E+00  0.00000000E+00  0.00000000E+00
  0.00000000E+00  0.00000000E+00  0.00000000E+00
  0.00000000E+00  0.00000000E+00  0.00000000E+00
  0.00000000E+00  0.00000000E+00  0.00000000E+00
  0.00000000E+00  0.00000000E+00  0.00000000E+00
  0.00000000E+00  0.00000000E+00  0.00000000E+00
  0.00000000E+00  0.00000000E+00  0.00000000E+00
  0.00000000E+00  0.00000000E+00  0.00000000E+00
  0.00000000E+00  0.00000000E+00  0.00000000E+00
  0.00000000E+00  0.00000000E+00  0.00000000E+00
  0.00000000E+00  0.00000000E+00  0.00000000E+00
  0.00000000E+00  0.00000000E+00  0.00000000E+00
  0.00000000E+00  0.00000000E+00  0.00000000E+00
  0.00000000E+00  0.00000000E+00  0.00000000E+00
  0.00000000E+00  0.00000000E+00  0.00000000E+00
  0.00000000E+00  0.00000000E+00  0.00000000E+00
  0.00000000E+00  0.00000000E+00  0.00000000E+00
  0.00000000E+00  0.00000000E+00  0.00000000E+00
  0.00000000E+00  0.00000000E+00  0.00000000E+00
  0.00000000E+00  0.00000000E+00  0.00000000E+00
  0.00000000E+00  0.00000000E+00  0.00000000E+00
  0.00000000E+00  0.00000000E+00  0.00000000E+00
  0.00000000E+00  0.00000000E+00  0.00000000E+00
  0.00000000E+00  0.00000000E+00  0.00000000E+00
  0.00000000E+00  0.00000000E+00  0.00000000E+00
  0.00000000E+00  0.00000000E+00  0.00000000E+00
  0.00000000E+00  0.00000000E+00  0.00000000E+00
  0.00000000E+00  0.00000000E+00  0.00000000E+00
  0.00000000E+00  0.00000000E+00  0.00000000E+00
  0.00000000E+00  0.00000000E+00  0.00000000E+00
  0.00000000E+00  0.00000000E+00  0.00000000E+00
  0.00000000E+00  0.00000000E+00  0.00000000E+00
  0.00000000E+00  0.00000000E+00  0.00000000E+00
  0.00000000E+00  0.00000000E+00  0.00000000E+00
  0.00000000E+00  0.00000000E+00  0.00000000E+00
  0.00000000E+00  0.00000000E+00  0.00000000E+00
  0.00000000E+00  0.00000000E+00  0.00000000E+00
  0.00000000E+00  0.00000000E+00  0.00000000E+00
  0.00000000E+00  0.00000000E+00  0.00000000E+00
  0.00000000E+00  0.00000000E+00  0.00000000E+00
  0.00000000E+00  0.00000000E+00  0.00000000E+00
  0.00000000E+00  0.00000000E+00  0.00000000E+00
  0.00000000E+00  0.00000000E+00  0.00000000E+00
  0.00000000E+00  0.00000000E+00  0.00000000E+00
  0.00000000E+00  0.00000000E+00  0.00000000E+00
  0.00000000E+00  0.00000000E+00  0.00000000E+00
  0.00000000E+00  0.00000000E+00  0.00000000E+00
  0.00000000E+00  0.00000000E+00  0.00000000E+00
  0.00000000E+00  0.00000000E+00  0.00000000E+00
  0.00000000E+00  0.00000000E+00  0.00000000E+00
  0.00000000E+00  0.00000000E+00  0.00000000E+00
  0.00000000E+00  0.00000000E+00  0.00000000E+00
  0.00000000E+00  0.00000000E+00  0.00000000E+00
  0.00000000E+00  0.00000000E+00  0.00000000E+00
  0.00000000E+00  0.00000000E+00  0.00000000E+00
  0.00000000E+00  0.00000000E+00  0.00000000E+00
  0.00000000E+00  0.00000000E+00  0.00000000E+00
  0.00000000E+00  0.00000000E+00  0.00000000E+00
  0.00000000E+00  0.00000000E+00  0.00000000E+00
  0.00000000E+00  0.00000000E+00  0.00000000E+00
  0.00000000E+00  0.00000000E+00  0.00000000E+00
  0.00000000E+00  0.00000000E+00  0.00000000E+00
  0.00000000E+00  0.00000000E+00  0.00000000E+00
  0.00000000E+00  0.00000000E+00  0.00000000E+00
  0.00000000E+00  0.00000000E+00  0.00000000E+00
  0.00000000E+00  0.00000000E+00  0.00000000E+00
  0.00000000E+00  0.00000000E+00  0.00000000E+00
  0.00000000E+00  0.00000000E+00  0.00000000E+00
  0.00000000E+00  0.00000000E+00  0.00000000E+00
  0.00000000E+00  0.00000000E+00  0.00000000E+00
  0.00000000E+00  0.00000000E+00  0.00000000E+00
  0.00000000E+00  0.00000000E+00  0.00000000E+00
  0.00000000E+00  0.00000000E+00  0.00000000E+00
  0.00000000E+00  0.00000000E+00  0.00000000E+00
  0.00000000E+00  0.00000000E+00  0.00000000E+00
  0.00000000E+00  0.00000000E+00  0.00000000E+00
  0.00000000E+00  0.00000000E+00  0.00000000E+00
  0.00000000E+00  0.00000000E+00  0.00000000E+00
  0.00000000E+00  0.00000000E+00  0.00000000E+00
  0.00000000E+00  0.00000000E+00  0.00000000E+00
  0.00000000E+00  0.00000000E+00  0.00000000E+00
  0.00000000E+00  0.00000000E+00  0.00000000E+00
  0.00000000E+00  0.00000000E+00  0.00000000E+00
  0.00000000E+00  0.00000000E+00  0.00000000E+00
  0.00000000E+00  0.00000000E+00  0.00000000E+00
  0.00000000E+00  0.00000000E+00  0.00000000E+00
  0.00000000E+00  0.00000000E+00  0.00000000E+00
  0.00000000E+00  0.00000000E+00  0.00000000E+00
  0.00000000E+00  0.00000000E+00  0.00000000E+00
  0.00000000E+00  0.00000000E+00  0.00000000E+00
  0.00000000E+00  0.00000000E+00  0.00000000E+00
  0.00000000E+00  0.00000000E+00  0.00000000E+00
  0.00000000E+00  0.00000000E+00  0.00000000E+00
  0.00000000E+00  0.00000000E+00  0.00000000E+00
  0.00000000E+00  0.00000000E+00  0.00000000E+00
