Hf Nb                                   
    1.000000000000000     
    12.7472532298418368   -0.0608570248252158    0.0075692768053420
    -6.4262714446861748   11.0779817570173709   -0.0029432624245416
     0.0119706315020801    0.0015408269529090   20.1703577131233800
  Hf             Nb           
             120               8
Direct
  0.9134425041606492  0.0803922708427643  0.4374796084576560
  0.3353934663788306  0.6665105813017081  0.5628021721729198
  0.8413003561385369  0.6696369603199748  0.8129765409365292
  0.9167472184958393  0.8332066498781663  0.1874117210356413
  0.4162376352450887  0.8323172705593350  0.6873176293647214
  0.4111848917291692  0.0820819509420140  0.6892106202309447
  0.0826992517025068  0.6665900223348226  0.8132137910432832
  0.6680883320591958  0.3324100821157828  0.1870080029413357
  0.4040607461269209  0.0787472528635772  0.9350270673229540
  0.3326967701846302  0.1662522260390934  0.5626221293263628
  0.6634622215898758  0.0840457662830214  0.6883972065921775
  0.8347079664436995  0.1707810355688193  0.3116918371216617
  0.1650841153519620  0.0834639883512505  0.1879508955583217
  0.1614002446692057  0.8298567831229982  0.4375197239835454
  0.4154092374014983  0.0832588625843607  0.1878943113050767
  0.3365112810882067  0.6672084288346555  0.0626695719185432
  0.3335290180797257  0.9163937243496864  0.5625013173537721
  0.4158344579803322  0.3327229954899263  0.9373961281919596
  0.3339800591460348  0.1669464269941193  0.3128858396024938
  0.4179544048829923  0.8355663108981574  0.1863813327538434
  0.3330776382853727  0.9158738249134025  0.3130035737048803
  0.5846449863632394  0.4174969962804523  0.8129199292381172
  0.8309623572433700  0.1634095963283184  0.5625268540967955
  0.4165979891939625  0.3340129756959623  0.1883645294719877
  0.4168772605824030  0.3339566083671719  0.4369162955379772
  0.0857682392055604  0.6685402884181775  0.0622364778721745
  0.9234067909415430  0.8365801319256757  0.9353865945011314
  0.0819127740829400  0.1635165870591324  0.5625975234849226
  0.4176894244313989  0.5843533086408076  0.4376198325223896
  0.0809220302551648  0.4152649074153211  0.3123194375408697
  0.1657860297541071  0.8323987324555598  0.1876368889772726
  0.6645684031863159  0.8361535727331503  0.1860871877544668
  0.8336848601906652  0.9169508908594487  0.0619406173100512
  0.8380034822915527  0.6707412553274708  0.5622844693891542
  0.6652880874158781  0.0838965829002981  0.4370378367274146
  0.0807683755715801  0.9138387409438957  0.3128493519079843
  0.3338756001504749  0.4173491653167647  0.3125364156986227
  0.5786062685155242  0.1608175459958082  0.0611339243566875
  0.6673552373810788  0.5850996338559378  0.1868090841223534
  0.0803448282432147  0.4143492431241050  0.0630535435306486
  0.8350561168551258  0.6688496216442084  0.0616841237284021
  0.5834718632425435  0.9164562724902965  0.8128324732230803
  0.0867778230880678  0.9164744437936961  0.0607183914881538
  0.5875085318758648  0.9185143763478474  0.5627644944691989
  0.6703224989992826  0.8357360597193967  0.6875758512515883
  0.9123429778304870  0.0808643487496400  0.6864455384296596
  0.3324606799258932  0.4147450611268282  0.8124127312972038
  0.1656007263368361  0.3328117492467609  0.6873675938602973
  0.9202592649257061  0.8355711095142014  0.6884388193945461
  0.8328989067434579  0.1660775999072868  0.8126400377250109
  0.1668551994318078  0.5832827461180031  0.4377097834270943
  0.5834499198284340  0.6686585443580041  0.0620550367023083
  0.5846786137944930  0.4184012907641698  0.0625956211691710
  0.8315104440812324  0.4149907663977661  0.8127423364506500
  0.6680592828277593  0.5878426560836889  0.4378516309546144
  0.4182106238647126  0.5835383856887782  0.6875782239678487
  0.9148420257573323  0.3321885071839481  0.9380799782779704
  0.1630341299123384  0.8304145613242090  0.6886377104311771
  0.5830201970856695  0.9178015463497271  0.3119819737231084
  0.8323290949247286  0.4156317697597552  0.5617782249560606
  0.3347487360541440  0.4167044726482890  0.5624033069277481
  0.3353171164904430  0.1688733803450025  0.0628208754444673
  0.8327263386589221  0.4141190405401889  0.0634981706180232
  0.4154685481908292  0.8330237609695512  0.4379276346620405
  0.6648937943789200  0.0835723048199710  0.1866240355911235
  0.9177213973961493  0.0873651883689262  0.1871218546948578
  0.6639607837939728  0.3314249058927398  0.6877534713850846
  0.8350216472107250  0.6683944943213100  0.3131341791554983
  0.6685075194013049  0.5842420828966008  0.6881086194940811
  0.6684816117928547  0.3361067119885953  0.4368044416346155
  0.0818140593739570  0.6619240641218801  0.3120778088090129
  0.5885459694333126  0.4199157670740161  0.3121540679477827
  0.0839861394836805  0.6644262135538602  0.5627900001679189
  0.3313473430248747  0.9160370845637319  0.0614291346325590
  0.8398553485739063  0.9208301431651214  0.8121252604592466
  0.1674370965429572  0.0854042051901895  0.9368424250712940
  0.9158807451048598  0.5821085801004149  0.4367902361461274
  0.1671208378869395  0.0834185544542028  0.6891454258913831
  0.5850976672948712  0.1684404750442477  0.3124578453965100
  0.4141221508843712  0.0823771450609467  0.4374428225531643
  0.6689918189211559  0.8355233801836991  0.4370833124221147
  0.1659993081762605  0.3320447573528585  0.4377497661438929
  0.3341964220490672  0.4181290386041433  0.0627082598955374
  0.6616561483861700  0.0795540904762592  0.9379172977331515
  0.0836483664623433  0.1665410181658997  0.3130795371561600
  0.8338696304500232  0.9172583807588379  0.3121222346037859
  0.9145661538687606  0.5801318049144439  0.6871826479701311
  0.9147005342088048  0.0839643521647643  0.9380509011863996
  0.0834498739473391  0.4147000406149284  0.5627287914729535
  0.5791349515295729  0.1659946720937628  0.8134857845731116
  0.9153568597957612  0.5811674226023115  0.9382159455530448
  0.9157553043672649  0.3323027255579741  0.6874821250181010
  0.6663220632076560  0.8341787851119389  0.9373246221686526
  0.0805789499469400  0.9146736444668737  0.5629189255726974
  0.5820046235089240  0.1657824000481553  0.5624401293608284
  0.6631172065489885  0.3310132408748429  0.9379376073015233
  0.5852149590851753  0.4186352609006808  0.5621771620607741
  0.0832273902537775  0.4162524357171310  0.8130503373952161
  0.9127497347833626  0.5793324518681119  0.1878704561786059
  0.5877346768885305  0.6692215725138064  0.5627921561373508
  0.1678298353913383  0.5856235827578888  0.9377852086650389
  0.0830371616206257  0.1661419026571823  0.8124125014421546
  0.4168323249860567  0.5832256293624937  0.9367220294704388
  0.8330110898038190  0.1670921916450025  0.0630609412252077
  0.4148671852650239  0.5824282592414792  0.1876556314590266
  0.3348180845663919  0.6658458310203408  0.8124326397658744
  0.1631752881025439  0.3313520603741615  0.1873964388001407
  0.5840509196251761  0.6667377957403200  0.3120572669130264
  0.3300538874862327  0.9113686954018605  0.8133744822596315
  0.6690185586137950  0.5856412849428000  0.9370879082894533
  0.4176359640264135  0.8330473654488204  0.9388837639272913
  0.1657441847124940  0.3345171008274057  0.9377350433676896
  0.5870608873959752  0.6674980848594241  0.8121917462870585
  0.1668102550766457  0.5821331122865452  0.6881488723718966
  0.3330179740541621  0.6664871739315552  0.3121385682430948
  0.0832556677856809  0.1659646550913708  0.0619108507388871
  0.9156769540605544  0.3333629437787270  0.4371705861930359
  0.1640886968568861  0.5816063019325940  0.1869114509919918
  0.4160532696211126  0.3320730036398657  0.6877302711346683
  0.1631861605774500  0.0815197441514955  0.4376310252139068
  0.8405179644707071  0.9081823559629429  0.5602228276951171
  0.8369554598798310  0.4115089644586160  0.3116938312918976
  0.5892929362622265  0.9177373691147546  0.0619643132841457
  0.1151849994030474  0.9358547731416892  0.8150126609890065
  0.9105654295167056  0.8410075341266189  0.4382090077740236
  0.9115458388465686  0.3403572103001101  0.1895305249971864
  0.1544272421412144  0.8231099621627549  0.9369194341438785
  0.3354030370215856  0.1716243147308340  0.8127321665918833
 
  0.00000000E+00  0.00000000E+00  0.00000000E+00
  0.00000000E+00  0.00000000E+00  0.00000000E+00
  0.00000000E+00  0.00000000E+00  0.00000000E+00
  0.00000000E+00  0.00000000E+00  0.00000000E+00
  0.00000000E+00  0.00000000E+00  0.00000000E+00
  0.00000000E+00  0.00000000E+00  0.00000000E+00
  0.00000000E+00  0.00000000E+00  0.00000000E+00
  0.00000000E+00  0.00000000E+00  0.00000000E+00
  0.00000000E+00  0.00000000E+00  0.00000000E+00
  0.00000000E+00  0.00000000E+00  0.00000000E+00
  0.00000000E+00  0.00000000E+00  0.00000000E+00
  0.00000000E+00  0.00000000E+00  0.00000000E+00
  0.00000000E+00  0.00000000E+00  0.00000000E+00
  0.00000000E+00  0.00000000E+00  0.00000000E+00
  0.00000000E+00  0.00000000E+00  0.00000000E+00
  0.00000000E+00  0.00000000E+00  0.00000000E+00
  0.00000000E+00  0.00000000E+00  0.00000000E+00
  0.00000000E+00  0.00000000E+00  0.00000000E+00
  0.00000000E+00  0.00000000E+00  0.00000000E+00
  0.00000000E+00  0.00000000E+00  0.00000000E+00
  0.00000000E+00  0.00000000E+00  0.00000000E+00
  0.00000000E+00  0.00000000E+00  0.00000000E+00
  0.00000000E+00  0.00000000E+00  0.00000000E+00
  0.00000000E+00  0.00000000E+00  0.00000000E+00
  0.00000000E+00  0.00000000E+00  0.00000000E+00
  0.00000000E+00  0.00000000E+00  0.00000000E+00
  0.00000000E+00  0.00000000E+00  0.00000000E+00
  0.00000000E+00  0.00000000E+00  0.00000000E+00
  0.00000000E+00  0.00000000E+00  0.00000000E+00
  0.00000000E+00  0.00000000E+00  0.00000000E+00
  0.00000000E+00  0.00000000E+00  0.00000000E+00
  0.00000000E+00  0.00000000E+00  0.00000000E+00
  0.00000000E+00  0.00000000E+00  0.00000000E+00
  0.00000000E+00  0.00000000E+00  0.00000000E+00
  0.00000000E+00  0.00000000E+00  0.00000000E+00
  0.00000000E+00  0.00000000E+00  0.00000000E+00
  0.00000000E+00  0.00000000E+00  0.00000000E+00
  0.00000000E+00  0.00000000E+00  0.00000000E+00
  0.00000000E+00  0.00000000E+00  0.00000000E+00
  0.00000000E+00  0.00000000E+00  0.00000000E+00
  0.00000000E+00  0.00000000E+00  0.00000000E+00
  0.00000000E+00  0.00000000E+00  0.00000000E+00
  0.00000000E+00  0.00000000E+00  0.00000000E+00
  0.00000000E+00  0.00000000E+00  0.00000000E+00
  0.00000000E+00  0.00000000E+00  0.00000000E+00
  0.00000000E+00  0.00000000E+00  0.00000000E+00
  0.00000000E+00  0.00000000E+00  0.00000000E+00
  0.00000000E+00  0.00000000E+00  0.00000000E+00
  0.00000000E+00  0.00000000E+00  0.00000000E+00
  0.00000000E+00  0.00000000E+00  0.00000000E+00
  0.00000000E+00  0.00000000E+00  0.00000000E+00
  0.00000000E+00  0.00000000E+00  0.00000000E+00
  0.00000000E+00  0.00000000E+00  0.00000000E+00
  0.00000000E+00  0.00000000E+00  0.00000000E+00
  0.00000000E+00  0.00000000E+00  0.00000000E+00
  0.00000000E+00  0.00000000E+00  0.00000000E+00
  0.00000000E+00  0.00000000E+00  0.00000000E+00
  0.00000000E+00  0.00000000E+00  0.00000000E+00
  0.00000000E+00  0.00000000E+00  0.00000000E+00
  0.00000000E+00  0.00000000E+00  0.00000000E+00
  0.00000000E+00  0.00000000E+00  0.00000000E+00
  0.00000000E+00  0.00000000E+00  0.00000000E+00
  0.00000000E+00  0.00000000E+00  0.00000000E+00
  0.00000000E+00  0.00000000E+00  0.00000000E+00
  0.00000000E+00  0.00000000E+00  0.00000000E+00
  0.00000000E+00  0.00000000E+00  0.00000000E+00
  0.00000000E+00  0.00000000E+00  0.00000000E+00
  0.00000000E+00  0.00000000E+00  0.00000000E+00
  0.00000000E+00  0.00000000E+00  0.00000000E+00
  0.00000000E+00  0.00000000E+00  0.00000000E+00
  0.00000000E+00  0.00000000E+00  0.00000000E+00
  0.00000000E+00  0.00000000E+00  0.00000000E+00
  0.00000000E+00  0.00000000E+00  0.00000000E+00
  0.00000000E+00  0.00000000E+00  0.00000000E+00
  0.00000000E+00  0.00000000E+00  0.00000000E+00
  0.00000000E+00  0.00000000E+00  0.00000000E+00
  0.00000000E+00  0.00000000E+00  0.00000000E+00
  0.00000000E+00  0.00000000E+00  0.00000000E+00
  0.00000000E+00  0.00000000E+00  0.00000000E+00
  0.00000000E+00  0.00000000E+00  0.00000000E+00
  0.00000000E+00  0.00000000E+00  0.00000000E+00
  0.00000000E+00  0.00000000E+00  0.00000000E+00
  0.00000000E+00  0.00000000E+00  0.00000000E+00
  0.00000000E+00  0.00000000E+00  0.00000000E+00
  0.00000000E+00  0.00000000E+00  0.00000000E+00
  0.00000000E+00  0.00000000E+00  0.00000000E+00
  0.00000000E+00  0.00000000E+00  0.00000000E+00
  0.00000000E+00  0.00000000E+00  0.00000000E+00
  0.00000000E+00  0.00000000E+00  0.00000000E+00
  0.00000000E+00  0.00000000E+00  0.00000000E+00
  0.00000000E+00  0.00000000E+00  0.00000000E+00
  0.00000000E+00  0.00000000E+00  0.00000000E+00
  0.00000000E+00  0.00000000E+00  0.00000000E+00
  0.00000000E+00  0.00000000E+00  0.00000000E+00
  0.00000000E+00  0.00000000E+00  0.00000000E+00
  0.00000000E+00  0.00000000E+00  0.00000000E+00
  0.00000000E+00  0.00000000E+00  0.00000000E+00
  0.00000000E+00  0.00000000E+00  0.00000000E+00
  0.00000000E+00  0.00000000E+00  0.00000000E+00
  0.00000000E+00  0.00000000E+00  0.00000000E+00
  0.00000000E+00  0.00000000E+00  0.00000000E+00
  0.00000000E+00  0.00000000E+00  0.00000000E+00
  0.00000000E+00  0.00000000E+00  0.00000000E+00
  0.00000000E+00  0.00000000E+00  0.00000000E+00
  0.00000000E+00  0.00000000E+00  0.00000000E+00
  0.00000000E+00  0.00000000E+00  0.00000000E+00
  0.00000000E+00  0.00000000E+00  0.00000000E+00
  0.00000000E+00  0.00000000E+00  0.00000000E+00
  0.00000000E+00  0.00000000E+00  0.00000000E+00
  0.00000000E+00  0.00000000E+00  0.00000000E+00
  0.00000000E+00  0.00000000E+00  0.00000000E+00
  0.00000000E+00  0.00000000E+00  0.00000000E+00
  0.00000000E+00  0.00000000E+00  0.00000000E+00
  0.00000000E+00  0.00000000E+00  0.00000000E+00
  0.00000000E+00  0.00000000E+00  0.00000000E+00
  0.00000000E+00  0.00000000E+00  0.00000000E+00
  0.00000000E+00  0.00000000E+00  0.00000000E+00
  0.00000000E+00  0.00000000E+00  0.00000000E+00
  0.00000000E+00  0.00000000E+00  0.00000000E+00
  0.00000000E+00  0.00000000E+00  0.00000000E+00
  0.00000000E+00  0.00000000E+00  0.00000000E+00
  0.00000000E+00  0.00000000E+00  0.00000000E+00
  0.00000000E+00  0.00000000E+00  0.00000000E+00
  0.00000000E+00  0.00000000E+00  0.00000000E+00
  0.00000000E+00  0.00000000E+00  0.00000000E+00
  0.00000000E+00  0.00000000E+00  0.00000000E+00
  0.00000000E+00  0.00000000E+00  0.00000000E+00
  0.00000000E+00  0.00000000E+00  0.00000000E+00
