Nb                                      
    1.000000000000000     
    11.6073800167381211    0.9338348768417767    0.0012468769441270
    -4.9949535592682457   10.5191475057198360   -0.0012698272880875
    -0.0008965850474363    0.0004168704849607   18.1968020949475751
  Nb            
   128
Direct
     0.6875065496679981    0.0624887543411943    0.4375012894084024
     0.5624899617236904    0.6875073603997983    0.8124998489871916
     0.0624887950471304    0.6875069544855467    0.3124989115774053
     0.1875067611326443    0.5624894613324601    0.9375025494945329
     0.6875064485885172    0.0624882715600723    0.1875033336416743
     0.4375121937502687    0.8124939406151936    0.9375029159967584
     0.3124946150364870    0.1875064106638640    0.0624960234696005
     0.5624912278723976    0.9375108072023753    0.8124996850084866
     0.4375124514148536    0.8124945606339602    0.4375003278016520
     0.0624872592515672    0.1875055971658021    0.3124991524611411
     0.3124942588988741    0.1875064727409609    0.3124992261191682
     0.3124948196464053    0.1875070660820527    0.5624954955882705
     0.0624889085445047    0.4375092466953869    0.8124999176866826
     0.1875061906422164    0.3124935562604945    0.1875023162497844
     0.5624911144223269    0.9375102740160424    0.3124993223921626
     0.9375083987769528    0.3124921126155669    0.1875024974490470
     0.4375117428702825    0.8124945821530439    0.6875024632745201
     0.3124943703654241    0.9375111630358741    0.3124988940221315
     0.9375081140087336    0.8124935377842086    0.1875030737024340
     0.8124927032557794    0.6875051187821305    0.5624950467195710
     0.9375083599324927    0.8124925526052943    0.9375025146757956
     0.0624891071722810    0.4375100156205320    0.0624954686019952
     0.1875062255207802    0.0624894711662608    0.4375008401121468
     0.9375081899373369    0.5624896165495699    0.9375020507638305
     0.0624887832627946    0.1875064576796882    0.8124999380646130
     0.8124909590367907    0.1875064989277932    0.5624957872196656
     0.3124952217896270    0.4375121813244915    0.3124994502613871
     0.5624910023484402    0.1875072837117567    0.8124992702252916
     0.8124927763828539    0.4375097071464887    0.3124997278934147
     0.3124952062700792    0.1875068855662398    0.8124998699719196
     0.1875063818274974    0.0624892529567580    0.9375023664201069
     0.6875069708614492    0.8124940886289630    0.1875038221129631
     0.9375088129434154    0.3124926784327663    0.9375014191636942
     0.1875071540989902    0.0624897955503106    0.6875033589457044
     0.3124937654326166    0.4375109400864787    0.8124998998133899
     0.6875077099929817    0.3124927915968718    0.9375012460361062
     0.9375079446969893    0.5624884935953045    0.6875033085700998
     0.9375087022385677    0.3124923315464062    0.6875033661761981
     0.8124906163696942    0.1875065948011548    0.0624955899852865
     0.0624909730041519    0.9375075370157850    0.8125003919800681
     0.5624913047281159    0.9375102231191922    0.0624969923348461
     0.1875070645624374    0.5624901690893097    0.4375008559890521
     0.0624885663517876    0.6875054408345520    0.8125005649559869
     0.4375116099728362    0.0624899070047437    0.9375024460200688
     0.0624876034663480    0.1875064457634672    0.0624955819884893
     0.6875066172322418    0.8124933515322769    0.6875024588847618
     0.9375055750080729    0.0624892965032826    0.1875027311260952
     0.5624907148770603    0.1875073768602966    0.5624955479403478
     0.5624906137670546    0.6875076110061772    0.5624945412267588
     0.4375116763344187    0.3124945802692363    0.9375016789150417
     0.8124926139272396    0.4375100900937134    0.0624955994548526
     0.5624911009681614    0.1875061173672805    0.0624960875991897
     0.9375085136340697    0.8124924804671936    0.4375005794158570
     0.4375117386928822    0.0624913892765785    0.6875029388702958
     0.0624895205267445    0.9375082640793212    0.0624964224325808
     0.0624885577445725    0.1875058216362962    0.5624959570039461
     0.4375131517191538    0.8124943716460580    0.1875038173931070
     0.0624889135826544    0.4375103703171205    0.3124992413925816
     0.1875076066849130    0.8124933546401162    0.1875032162824294
     0.9375087760989244    0.8124917486688044    0.6875030394502801
     0.0624904229993062    0.9375076957355399    0.5624949799294002
     0.6875069462820450    0.8124932818764126    0.4375007075075008
     0.0624889463551161    0.9375084394800715    0.3124986450237211
     0.6875063055217402    0.5624893357432044    0.6875028189326641
     0.0624889515500772    0.4375096135060383    0.5624957001353689
     0.9375078996050060    0.0624898837481681    0.6875034327048053
     0.6875066256056349    0.5624902780303921    0.9375018408217516
     0.8124901936370730    0.1875059974393261    0.3124995773898002
     0.8124925335544042    0.6875050143075958    0.8124999395228133
     0.8124922083521646    0.9375101795131429    0.8124999016460739
     0.6875076387697870    0.3124921022912822    0.1875030283279744
     0.8124912205776448    0.1875069307270555    0.8124992703354809
     0.1875054546934184    0.0624890656608817    0.1875027214891588
     0.8124918596459691    0.4375099271051483    0.8124993458099329
     0.1875074733401584    0.8124920741988599    0.6875030165667898
     0.4375122339791627    0.3124939649183771    0.1875028390691197
     0.8124913842094246    0.9375103143538349    0.0624965565879117
     0.9375083086950078    0.5624893280443145    0.4375012505290542
     0.0624884961297856    0.6875057352833187    0.5624949835656470
     0.5624906894484184    0.1875061067747676    0.3124997670614385
     0.3124944908737070    0.4375116007557115    0.5624956695151689
     0.4375098262833264    0.5624915637223782    0.6875028093719935
     0.3124934264314254    0.6875078592711243    0.8125003655953562
     0.6875067614321843    0.0624899950311746    0.6875027971723531
     0.8124910563090498    0.9375093432223958    0.3124991882497329
     0.3124948854621257    0.9375102998197843    0.0624970132687520
     0.4375121581927136    0.3124941210732978    0.4375015671863976
     0.4375111824456776    0.0624910504864078    0.4375009014291595
     0.9375069795804604    0.0624901597699775    0.9375018955271819
     0.9375065685254247    0.0624890981542853    0.4375013237070443
     0.1875065247448494    0.3124936187235791    0.9375020097457979
     0.3124950922464307    0.9375105913522279    0.8125005400395328
     0.9375085232759185    0.3124921375019217    0.4375017103999379
     0.1875078021402804    0.8124918990234457    0.9375031091638665
     0.1875066565784093    0.3124935589454281    0.4375014189269759
     0.1875062997850248    0.5624892475528281    0.6875031278586301
     0.3124944090461964    0.4375114360174128    0.0624958841392641
     0.4375116323615937    0.3124948015574394    0.6875032675453663
     0.3124942050532286    0.6875093799555413    0.3124990873506466
     0.3124940416983468    0.6875083854040064    0.0624969051234686
     0.6875075328709406    0.3124928872031171    0.6875031058027261
     0.4375119775081588    0.5624928472498465    0.1875034910604115
     0.1875069564254996    0.3124933928484132    0.6875036996389938
     0.4375114449638181    0.5624925316279167    0.4375010736885065
     0.1875077318252137    0.5624903224554020    0.1875028288416229
     0.6875065290342092    0.8124938007639894    0.9375024947757584
     0.6875076568413078    0.5624906994427812    0.1875033164044173
     0.6875066572647235    0.0624893420581571    0.9375017417513007
     0.3124934258496971    0.6875084871982560    0.5624944815367424
     0.5624910905967712    0.9375108862302793    0.5624944584523714
     0.5624928751155304    0.4375096487801089    0.0624958010348568
     0.5624910133140074    0.6875079489147822    0.0624969560959661
     0.8124924644027948    0.6875063994588806    0.0624962295472764
     0.6875073937592072    0.5624898224944704    0.4375012372704553
     0.4375110939495056    0.0624899124803039    0.1875034381883149
     0.8124918919916063    0.9375093666311685    0.5624949437964327
     0.9375084359478836    0.5624902800044567    0.1875028427347670
     0.8124922468095885    0.4375096108077415    0.5624958360832644
     0.3124944492133013    0.9375113098726949    0.5624945756662572
     0.5624925721724409    0.4375094930995466    0.5624955587168723
     0.6875076503022307    0.3124922510543169    0.4375019216260037
     0.1875071522078333    0.8124931301609369    0.4375002962839373
     0.0624889577390119    0.6875064502693642    0.0624963521131909
     0.8124925454631445    0.6875065536944247    0.3124991748198447
     0.4375101690771637    0.5624917299561693    0.9375024118158304
     0.5624933358790778    0.4375098619857589    0.3124997793559278
     0.5624916886609760    0.6875083067751678    0.3124995179997129
     0.5624920054801622    0.4375093251536317    0.8124992439043427
 
  0.00000000E+00  0.00000000E+00  0.00000000E+00
  0.00000000E+00  0.00000000E+00  0.00000000E+00
  0.00000000E+00  0.00000000E+00  0.00000000E+00
  0.00000000E+00  0.00000000E+00  0.00000000E+00
  0.00000000E+00  0.00000000E+00  0.00000000E+00
  0.00000000E+00  0.00000000E+00  0.00000000E+00
  0.00000000E+00  0.00000000E+00  0.00000000E+00
  0.00000000E+00  0.00000000E+00  0.00000000E+00
  0.00000000E+00  0.00000000E+00  0.00000000E+00
  0.00000000E+00  0.00000000E+00  0.00000000E+00
  0.00000000E+00  0.00000000E+00  0.00000000E+00
  0.00000000E+00  0.00000000E+00  0.00000000E+00
  0.00000000E+00  0.00000000E+00  0.00000000E+00
  0.00000000E+00  0.00000000E+00  0.00000000E+00
  0.00000000E+00  0.00000000E+00  0.00000000E+00
  0.00000000E+00  0.00000000E+00  0.00000000E+00
  0.00000000E+00  0.00000000E+00  0.00000000E+00
  0.00000000E+00  0.00000000E+00  0.00000000E+00
  0.00000000E+00  0.00000000E+00  0.00000000E+00
  0.00000000E+00  0.00000000E+00  0.00000000E+00
  0.00000000E+00  0.00000000E+00  0.00000000E+00
  0.00000000E+00  0.00000000E+00  0.00000000E+00
  0.00000000E+00  0.00000000E+00  0.00000000E+00
  0.00000000E+00  0.00000000E+00  0.00000000E+00
  0.00000000E+00  0.00000000E+00  0.00000000E+00
  0.00000000E+00  0.00000000E+00  0.00000000E+00
  0.00000000E+00  0.00000000E+00  0.00000000E+00
  0.00000000E+00  0.00000000E+00  0.00000000E+00
  0.00000000E+00  0.00000000E+00  0.00000000E+00
  0.00000000E+00  0.00000000E+00  0.00000000E+00
  0.00000000E+00  0.00000000E+00  0.00000000E+00
  0.00000000E+00  0.00000000E+00  0.00000000E+00
  0.00000000E+00  0.00000000E+00  0.00000000E+00
  0.00000000E+00  0.00000000E+00  0.00000000E+00
  0.00000000E+00  0.00000000E+00  0.00000000E+00
  0.00000000E+00  0.00000000E+00  0.00000000E+00
  0.00000000E+00  0.00000000E+00  0.00000000E+00
  0.00000000E+00  0.00000000E+00  0.00000000E+00
  0.00000000E+00  0.00000000E+00  0.00000000E+00
  0.00000000E+00  0.00000000E+00  0.00000000E+00
  0.00000000E+00  0.00000000E+00  0.00000000E+00
  0.00000000E+00  0.00000000E+00  0.00000000E+00
  0.00000000E+00  0.00000000E+00  0.00000000E+00
  0.00000000E+00  0.00000000E+00  0.00000000E+00
  0.00000000E+00  0.00000000E+00  0.00000000E+00
  0.00000000E+00  0.00000000E+00  0.00000000E+00
  0.00000000E+00  0.00000000E+00  0.00000000E+00
  0.00000000E+00  0.00000000E+00  0.00000000E+00
  0.00000000E+00  0.00000000E+00  0.00000000E+00
  0.00000000E+00  0.00000000E+00  0.00000000E+00
  0.00000000E+00  0.00000000E+00  0.00000000E+00
  0.00000000E+00  0.00000000E+00  0.00000000E+00
  0.00000000E+00  0.00000000E+00  0.00000000E+00
  0.00000000E+00  0.00000000E+00  0.00000000E+00
  0.00000000E+00  0.00000000E+00  0.00000000E+00
  0.00000000E+00  0.00000000E+00  0.00000000E+00
  0.00000000E+00  0.00000000E+00  0.00000000E+00
  0.00000000E+00  0.00000000E+00  0.00000000E+00
  0.00000000E+00  0.00000000E+00  0.00000000E+00
  0.00000000E+00  0.00000000E+00  0.00000000E+00
  0.00000000E+00  0.00000000E+00  0.00000000E+00
  0.00000000E+00  0.00000000E+00  0.00000000E+00
  0.00000000E+00  0.00000000E+00  0.00000000E+00
  0.00000000E+00  0.00000000E+00  0.00000000E+00
  0.00000000E+00  0.00000000E+00  0.00000000E+00
  0.00000000E+00  0.00000000E+00  0.00000000E+00
  0.00000000E+00  0.00000000E+00  0.00000000E+00
  0.00000000E+00  0.00000000E+00  0.00000000E+00
  0.00000000E+00  0.00000000E+00  0.00000000E+00
  0.00000000E+00  0.00000000E+00  0.00000000E+00
  0.00000000E+00  0.00000000E+00  0.00000000E+00
  0.00000000E+00  0.00000000E+00  0.00000000E+00
  0.00000000E+00  0.00000000E+00  0.00000000E+00
  0.00000000E+00  0.00000000E+00  0.00000000E+00
  0.00000000E+00  0.00000000E+00  0.00000000E+00
  0.00000000E+00  0.00000000E+00  0.00000000E+00
  0.00000000E+00  0.00000000E+00  0.00000000E+00
  0.00000000E+00  0.00000000E+00  0.00000000E+00
  0.00000000E+00  0.00000000E+00  0.00000000E+00
  0.00000000E+00  0.00000000E+00  0.00000000E+00
  0.00000000E+00  0.00000000E+00  0.00000000E+00
  0.00000000E+00  0.00000000E+00  0.00000000E+00
  0.00000000E+00  0.00000000E+00  0.00000000E+00
  0.00000000E+00  0.00000000E+00  0.00000000E+00
  0.00000000E+00  0.00000000E+00  0.00000000E+00
  0.00000000E+00  0.00000000E+00  0.00000000E+00
  0.00000000E+00  0.00000000E+00  0.00000000E+00
  0.00000000E+00  0.00000000E+00  0.00000000E+00
  0.00000000E+00  0.00000000E+00  0.00000000E+00
  0.00000000E+00  0.00000000E+00  0.00000000E+00
  0.00000000E+00  0.00000000E+00  0.00000000E+00
  0.00000000E+00  0.00000000E+00  0.00000000E+00
  0.00000000E+00  0.00000000E+00  0.00000000E+00
  0.00000000E+00  0.00000000E+00  0.00000000E+00
  0.00000000E+00  0.00000000E+00  0.00000000E+00
  0.00000000E+00  0.00000000E+00  0.00000000E+00
  0.00000000E+00  0.00000000E+00  0.00000000E+00
  0.00000000E+00  0.00000000E+00  0.00000000E+00
  0.00000000E+00  0.00000000E+00  0.00000000E+00
  0.00000000E+00  0.00000000E+00  0.00000000E+00
  0.00000000E+00  0.00000000E+00  0.00000000E+00
  0.00000000E+00  0.00000000E+00  0.00000000E+00
  0.00000000E+00  0.00000000E+00  0.00000000E+00
  0.00000000E+00  0.00000000E+00  0.00000000E+00
  0.00000000E+00  0.00000000E+00  0.00000000E+00
  0.00000000E+00  0.00000000E+00  0.00000000E+00
  0.00000000E+00  0.00000000E+00  0.00000000E+00
  0.00000000E+00  0.00000000E+00  0.00000000E+00
  0.00000000E+00  0.00000000E+00  0.00000000E+00
  0.00000000E+00  0.00000000E+00  0.00000000E+00
  0.00000000E+00  0.00000000E+00  0.00000000E+00
  0.00000000E+00  0.00000000E+00  0.00000000E+00
  0.00000000E+00  0.00000000E+00  0.00000000E+00
  0.00000000E+00  0.00000000E+00  0.00000000E+00
  0.00000000E+00  0.00000000E+00  0.00000000E+00
  0.00000000E+00  0.00000000E+00  0.00000000E+00
  0.00000000E+00  0.00000000E+00  0.00000000E+00
  0.00000000E+00  0.00000000E+00  0.00000000E+00
  0.00000000E+00  0.00000000E+00  0.00000000E+00
  0.00000000E+00  0.00000000E+00  0.00000000E+00
  0.00000000E+00  0.00000000E+00  0.00000000E+00
  0.00000000E+00  0.00000000E+00  0.00000000E+00
  0.00000000E+00  0.00000000E+00  0.00000000E+00
  0.00000000E+00  0.00000000E+00  0.00000000E+00
  0.00000000E+00  0.00000000E+00  0.00000000E+00
  0.00000000E+00  0.00000000E+00  0.00000000E+00
  0.00000000E+00  0.00000000E+00  0.00000000E+00
  0.00000000E+00  0.00000000E+00  0.00000000E+00
