Hf Nb                                   
    1.000000000000000     
    13.2676163666254059    0.0406720744938267   -0.1917539514953011
    -6.4863256247566792    9.3491052052186667    0.0675813726107926
     0.2580471796705405    0.0372757911146893   18.8952853450928941
  Hf             Nb           
              12             116
Direct
  0.1886666687386540  0.8680711629741165  0.9370621471343312
  0.3132665290764807  0.3761267597978312  0.3102493884791394
  0.9379320301694547  0.1259734132623529  0.4362717088576852
  0.6819434984613225  0.6246998729486596  0.6911012822197521
  0.8141177773828076  0.6273575882358219  0.5622002396840123
  0.1796780291937929  0.1238074088301503  0.9377491421874511
  0.1857321168545207  0.6269070715101200  0.6877320225724846
  0.4412232382369352  0.3797263944616391  0.9359210265525399
  0.6899109005640933  0.3746817344955070  0.1882297466844551
  0.0638535376663841  0.6245137043509412  0.3108079277594259
  0.6884635787346838  0.8766430661862793  0.9369392466473825
  0.4388635871085119  0.3727148490449627  0.4420669826652263
  0.8115494284175550  0.1230101665818032  0.8139291870992311
  0.6853881594728768  0.8799075803516805  0.6877559778574270
  0.6894696253100213  0.1324895141527295  0.9377004109374208
  0.9332582198216067  0.6195818963805068  0.9381173213865653
  0.0638886942472116  0.3666191394586265  0.3124226998574149
  0.4321322255772962  0.3711605946886094  0.6880633145471775
  0.1880635693309422  0.3815869853960523  0.9373108963134953
  0.8113899495806475  0.3741015255725939  0.8119172919938513
  0.4373914002161043  0.6308474442580394  0.4359600001551645
  0.6903425632553960  0.6313126736441205  0.4342188011556449
  0.9407374125833692  0.6312535997471406  0.1832613647068269
  0.3091939782955956  0.6299960376479113  0.3120969634345810
  0.8111339174790296  0.1258130260324075  0.5638936631139937
  0.9377379030517615  0.1238709706053621  0.1868349745107509
  0.8106095167540293  0.3683244218345015  0.3152273746699402
  0.5623638094226421  0.6247897995307550  0.0613461959304141
  0.6871178475395989  0.6302482034362425  0.1870544287107891
  0.5614543795090081  0.8752497055747865  0.0652854378764794
  0.1903428473873497  0.1279083677045354  0.1874671268916265
  0.5588792731644703  0.6259711234424540  0.8176382711169440
  0.4390642653252732  0.8766850117252556  0.9378072468065956
  0.0613872208511551  0.1184036436416680  0.3095148015829866
  0.3105046170382816  0.3730444201796988  0.0647079007822300
  0.9344610409804782  0.3716423991247418  0.6875256307466096
  0.3085831078255797  0.3734767749414710  0.8109021158400107
  0.5615257493019489  0.8755615428312131  0.5626666644988694
  0.3147393412224008  0.1235279201414430  0.0629762059443950
  0.4341838800983753  0.1209792505613399  0.1876690510696484
  0.0598655583491697  0.1252301384576690  0.0652348184121147
  0.8121291118268454  0.8832963095145778  0.5613008768122869
  0.5604371305891439  0.8770930080436282  0.8102571808487299
  0.1896297995989625  0.6239229756819198  0.1844394320838047
  0.5616331074640732  0.3706839688765533  0.5680170501550670
  0.6854159160922410  0.3730399015392700  0.9379327330700310
  0.6873902961449191  0.8742403671134351  0.1868089915878239
  0.8128199615297045  0.8757174509343534  0.3125466039023749
  0.5600977399483632  0.3758893922600998  0.3121973158290817
  0.1887548714289494  0.6244334051183216  0.4399182626468298
  0.9375096396432727  0.3773088493904003  0.1877294529816309
  0.1815852387844782  0.1211136487807865  0.4363464975296652
  0.3099853407408563  0.3762952089499923  0.5650289383748009
  0.4412709902732420  0.1219958468098889  0.9376831969560504
  0.8139796809185930  0.8735246322968171  0.0650188666295849
  0.5665910683734368  0.6292939261507779  0.3131989600380853
  0.1925329301249688  0.3808326508417871  0.4404931212474413
  0.4425952719424797  0.3744002405586400  0.1852833775700936
  0.0679865368809389  0.8811314336894457  0.5619677495890770
  0.5610465397922060  0.1231958411944618  0.5621358781361454
  0.9363744063119267  0.6233365676107915  0.4364683137779164
  0.8112553438690074  0.3683412546076608  0.5626293596906088
  0.4381374661749343  0.8739296055792656  0.1878490924273982
  0.0643107033569389  0.1256679786107493  0.5638651365690655
  0.8139800080283337  0.6220315072580739  0.3107232638811171
  0.1856140798931276  0.3753295256846697  0.1848225739691530
  0.0578132740875439  0.1247179172834548  0.8095021079247210
  0.5625494079044281  0.1251521847852229  0.8126809001847063
  0.3142153012952218  0.1200977708533253  0.3145075720558070
  0.3141988904853988  0.1253595785261585  0.8129404394557809
  0.3141473845175713  0.6247715277875362  0.5619202841475001
  0.0577053054617099  0.6270306077532842  0.5604827211554220
  0.1873155870991088  0.8734758766335380  0.1878206464411471
  0.6879012488658620  0.3714724841914473  0.6870863374761024
  0.3132337271782598  0.6244158126506373  0.8134222167176363
  0.0614240170557281  0.6279230134215102  0.8154710425499628
  0.3177804871162477  0.8797274992724727  0.3119469970788906
  0.1877798949510612  0.8731926903191470  0.4371710907398801
  0.5653108757614292  0.3756486069121317  0.8087345016972581
  0.9405592372215142  0.6257401956155465  0.6905506595326935
  0.9387204989784131  0.8752235611331568  0.1871147433231038
  0.4359833412215389  0.1248570354654916  0.6878721150398934
  0.5618772578096251  0.3733844979052247  0.0633961224865653
  0.4376567956902120  0.6226317752137180  0.1887089105858647
  0.0611440567417850  0.3756977802948494  0.8104702900941321
  0.4381592555883930  0.8768430563727602  0.4383621584575704
  0.9361931209225272  0.1254646623964147  0.6875291825039392
  0.4396245783184480  0.8781841396439642  0.6869500581239110
  0.1868633541456602  0.3708184093957180  0.6875695210414602
  0.5645171255677615  0.1267143292181961  0.3122336890378859
  0.4388644438041363  0.1181445181693277  0.4382065459253985
  0.3132601330035278  0.1263237010405539  0.5604011568356170
  0.3114870091634884  0.8729098011829339  0.5640659511572477
  0.0614555020894607  0.3758684870700414  0.5626382968579886
  0.6863228405455316  0.1246191031637962  0.6885231214405245
  0.8111887815339800  0.1248434511603371  0.3097623795801150
  0.3136483320397718  0.8745811168393399  0.8081693543604729
  0.5605746601670173  0.6235793174232638  0.5592578241221520
  0.0617439430512021  0.8791334506815984  0.8116139228878214
  0.0625449331700899  0.8791731848232968  0.3114563106267939
  0.1848473104449920  0.6163199150528897  0.9371256920324800
  0.0607361133445072  0.3736057497535412  0.0631162305338373
  0.1875836353821174  0.8823120791125271  0.6870677145888234
  0.8120986546869777  0.1223030523164737  0.0609387088274797
  0.0642264686407646  0.6270690874541014  0.0615642881361430
  0.9366986130847303  0.3728741747081276  0.9370751959101989
  0.4333227233796416  0.6300965028685049  0.9391165159251065
  0.0634685341258255  0.8792734204323491  0.0635256561359204
  0.8124646533221358  0.6232479668644970  0.0641063074399854
  0.8151350839965810  0.6251968112788268  0.8140843167378399
  0.9424426666816985  0.1286106845971755  0.9372671629435092
  0.5654161901398428  0.1266092764398210  0.0647698057057833
  0.4367419492756193  0.6253622205441689  0.6875855306951534
  0.6843619415743765  0.8728449172403481  0.4377281818351029
  0.5636534178547851  0.8755523850198429  0.3121960081918537
  0.6901626240836602  0.1253926851328662  0.4372751337543971
  0.9370238752043768  0.8683129823083717  0.4384081333107843
  0.3162639584148489  0.8759690555515686  0.0655664406664512
  0.6949275931748995  0.6244068799320396  0.9386409352608844
  0.1877876732854782  0.1251629229002683  0.6881833485210597
  0.6890196794847566  0.1182265507949095  0.1870635742948797
  0.9318220402045412  0.8695009276334719  0.9376588931592650
  0.3127190681941057  0.6249112382170808  0.0633681958323419
  0.8157617413425395  0.3738413724324681  0.0613045084598804
  0.6852717358822001  0.3752179411890533  0.4390299907174755
  0.9389041266982081  0.8771892507221463  0.6851351708515595
  0.9387379006969867  0.3820572397453199  0.4362981517695219
  0.8111620995165139  0.8709500123178114  0.8087618104194324
 
  0.00000000E+00  0.00000000E+00  0.00000000E+00
  0.00000000E+00  0.00000000E+00  0.00000000E+00
  0.00000000E+00  0.00000000E+00  0.00000000E+00
  0.00000000E+00  0.00000000E+00  0.00000000E+00
  0.00000000E+00  0.00000000E+00  0.00000000E+00
  0.00000000E+00  0.00000000E+00  0.00000000E+00
  0.00000000E+00  0.00000000E+00  0.00000000E+00
  0.00000000E+00  0.00000000E+00  0.00000000E+00
  0.00000000E+00  0.00000000E+00  0.00000000E+00
  0.00000000E+00  0.00000000E+00  0.00000000E+00
  0.00000000E+00  0.00000000E+00  0.00000000E+00
  0.00000000E+00  0.00000000E+00  0.00000000E+00
  0.00000000E+00  0.00000000E+00  0.00000000E+00
  0.00000000E+00  0.00000000E+00  0.00000000E+00
  0.00000000E+00  0.00000000E+00  0.00000000E+00
  0.00000000E+00  0.00000000E+00  0.00000000E+00
  0.00000000E+00  0.00000000E+00  0.00000000E+00
  0.00000000E+00  0.00000000E+00  0.00000000E+00
  0.00000000E+00  0.00000000E+00  0.00000000E+00
  0.00000000E+00  0.00000000E+00  0.00000000E+00
  0.00000000E+00  0.00000000E+00  0.00000000E+00
  0.00000000E+00  0.00000000E+00  0.00000000E+00
  0.00000000E+00  0.00000000E+00  0.00000000E+00
  0.00000000E+00  0.00000000E+00  0.00000000E+00
  0.00000000E+00  0.00000000E+00  0.00000000E+00
  0.00000000E+00  0.00000000E+00  0.00000000E+00
  0.00000000E+00  0.00000000E+00  0.00000000E+00
  0.00000000E+00  0.00000000E+00  0.00000000E+00
  0.00000000E+00  0.00000000E+00  0.00000000E+00
  0.00000000E+00  0.00000000E+00  0.00000000E+00
  0.00000000E+00  0.00000000E+00  0.00000000E+00
  0.00000000E+00  0.00000000E+00  0.00000000E+00
  0.00000000E+00  0.00000000E+00  0.00000000E+00
  0.00000000E+00  0.00000000E+00  0.00000000E+00
  0.00000000E+00  0.00000000E+00  0.00000000E+00
  0.00000000E+00  0.00000000E+00  0.00000000E+00
  0.00000000E+00  0.00000000E+00  0.00000000E+00
  0.00000000E+00  0.00000000E+00  0.00000000E+00
  0.00000000E+00  0.00000000E+00  0.00000000E+00
  0.00000000E+00  0.00000000E+00  0.00000000E+00
  0.00000000E+00  0.00000000E+00  0.00000000E+00
  0.00000000E+00  0.00000000E+00  0.00000000E+00
  0.00000000E+00  0.00000000E+00  0.00000000E+00
  0.00000000E+00  0.00000000E+00  0.00000000E+00
  0.00000000E+00  0.00000000E+00  0.00000000E+00
  0.00000000E+00  0.00000000E+00  0.00000000E+00
  0.00000000E+00  0.00000000E+00  0.00000000E+00
  0.00000000E+00  0.00000000E+00  0.00000000E+00
  0.00000000E+00  0.00000000E+00  0.00000000E+00
  0.00000000E+00  0.00000000E+00  0.00000000E+00
  0.00000000E+00  0.00000000E+00  0.00000000E+00
  0.00000000E+00  0.00000000E+00  0.00000000E+00
  0.00000000E+00  0.00000000E+00  0.00000000E+00
  0.00000000E+00  0.00000000E+00  0.00000000E+00
  0.00000000E+00  0.00000000E+00  0.00000000E+00
  0.00000000E+00  0.00000000E+00  0.00000000E+00
  0.00000000E+00  0.00000000E+00  0.00000000E+00
  0.00000000E+00  0.00000000E+00  0.00000000E+00
  0.00000000E+00  0.00000000E+00  0.00000000E+00
  0.00000000E+00  0.00000000E+00  0.00000000E+00
  0.00000000E+00  0.00000000E+00  0.00000000E+00
  0.00000000E+00  0.00000000E+00  0.00000000E+00
  0.00000000E+00  0.00000000E+00  0.00000000E+00
  0.00000000E+00  0.00000000E+00  0.00000000E+00
  0.00000000E+00  0.00000000E+00  0.00000000E+00
  0.00000000E+00  0.00000000E+00  0.00000000E+00
  0.00000000E+00  0.00000000E+00  0.00000000E+00
  0.00000000E+00  0.00000000E+00  0.00000000E+00
  0.00000000E+00  0.00000000E+00  0.00000000E+00
  0.00000000E+00  0.00000000E+00  0.00000000E+00
  0.00000000E+00  0.00000000E+00  0.00000000E+00
  0.00000000E+00  0.00000000E+00  0.00000000E+00
  0.00000000E+00  0.00000000E+00  0.00000000E+00
  0.00000000E+00  0.00000000E+00  0.00000000E+00
  0.00000000E+00  0.00000000E+00  0.00000000E+00
  0.00000000E+00  0.00000000E+00  0.00000000E+00
  0.00000000E+00  0.00000000E+00  0.00000000E+00
  0.00000000E+00  0.00000000E+00  0.00000000E+00
  0.00000000E+00  0.00000000E+00  0.00000000E+00
  0.00000000E+00  0.00000000E+00  0.00000000E+00
  0.00000000E+00  0.00000000E+00  0.00000000E+00
  0.00000000E+00  0.00000000E+00  0.00000000E+00
  0.00000000E+00  0.00000000E+00  0.00000000E+00
  0.00000000E+00  0.00000000E+00  0.00000000E+00
  0.00000000E+00  0.00000000E+00  0.00000000E+00
  0.00000000E+00  0.00000000E+00  0.00000000E+00
  0.00000000E+00  0.00000000E+00  0.00000000E+00
  0.00000000E+00  0.00000000E+00  0.00000000E+00
  0.00000000E+00  0.00000000E+00  0.00000000E+00
  0.00000000E+00  0.00000000E+00  0.00000000E+00
  0.00000000E+00  0.00000000E+00  0.00000000E+00
  0.00000000E+00  0.00000000E+00  0.00000000E+00
  0.00000000E+00  0.00000000E+00  0.00000000E+00
  0.00000000E+00  0.00000000E+00  0.00000000E+00
  0.00000000E+00  0.00000000E+00  0.00000000E+00
  0.00000000E+00  0.00000000E+00  0.00000000E+00
  0.00000000E+00  0.00000000E+00  0.00000000E+00
  0.00000000E+00  0.00000000E+00  0.00000000E+00
  0.00000000E+00  0.00000000E+00  0.00000000E+00
  0.00000000E+00  0.00000000E+00  0.00000000E+00
  0.00000000E+00  0.00000000E+00  0.00000000E+00
  0.00000000E+00  0.00000000E+00  0.00000000E+00
  0.00000000E+00  0.00000000E+00  0.00000000E+00
  0.00000000E+00  0.00000000E+00  0.00000000E+00
  0.00000000E+00  0.00000000E+00  0.00000000E+00
  0.00000000E+00  0.00000000E+00  0.00000000E+00
  0.00000000E+00  0.00000000E+00  0.00000000E+00
  0.00000000E+00  0.00000000E+00  0.00000000E+00
  0.00000000E+00  0.00000000E+00  0.00000000E+00
  0.00000000E+00  0.00000000E+00  0.00000000E+00
  0.00000000E+00  0.00000000E+00  0.00000000E+00
  0.00000000E+00  0.00000000E+00  0.00000000E+00
  0.00000000E+00  0.00000000E+00  0.00000000E+00
  0.00000000E+00  0.00000000E+00  0.00000000E+00
  0.00000000E+00  0.00000000E+00  0.00000000E+00
  0.00000000E+00  0.00000000E+00  0.00000000E+00
  0.00000000E+00  0.00000000E+00  0.00000000E+00
  0.00000000E+00  0.00000000E+00  0.00000000E+00
  0.00000000E+00  0.00000000E+00  0.00000000E+00
  0.00000000E+00  0.00000000E+00  0.00000000E+00
  0.00000000E+00  0.00000000E+00  0.00000000E+00
  0.00000000E+00  0.00000000E+00  0.00000000E+00
  0.00000000E+00  0.00000000E+00  0.00000000E+00
  0.00000000E+00  0.00000000E+00  0.00000000E+00
  0.00000000E+00  0.00000000E+00  0.00000000E+00
  0.00000000E+00  0.00000000E+00  0.00000000E+00
  0.00000000E+00  0.00000000E+00  0.00000000E+00
  0.00000000E+00  0.00000000E+00  0.00000000E+00
