Hf Nb                                   
    1.000000000000000     
    13.6460179161369712   -0.0614280977395900   -0.0290302868045839
    -6.8294637899224613    9.7072697556030842   -0.0168029823520638
     0.0866863481441463   -0.0435953014539002   19.3298880519593581
  Hf             Nb           
              60              68
Direct
  0.9394233878633871  0.6199157348084965  0.6892645296593863
  0.1897216392140503  0.6188247917664884  0.1823169961094322
  0.9398660254496396  0.6341127011389611  0.4424268853812678
  0.1889948893184839  0.1254806723216267  0.1844863936448757
  0.9442616669495553  0.3781046782415125  0.9382992965555265
  0.4449181365535361  0.6190507484207962  0.6958700943502238
  0.0708881441859328  0.6224680124050260  0.8189040544593126
  0.5536386135681255  0.3651293556120503  0.5575585331879490
  0.6915299095708535  0.8770414694790253  0.4372771739493649
  0.1946172097082085  0.8767480189222683  0.1934201506188432
  0.8032261969384832  0.1162855540534105  0.5705794933060854
  0.3161660297818928  0.3860616465550902  0.8092919111480834
  0.2983730782823120  0.6231884969986392  0.8158091454306009
  0.4361497235166699  0.3715290095132180  0.9389649791739876
  0.1767474079581233  0.6159574732931404  0.4392787156266653
  0.0508504699316212  0.6259646814575889  0.0484816183557397
  0.4365042515298175  0.6258260485112205  0.1865374943960319
  0.8251809170934631  0.1256854163482984  0.3099436977749999
  0.9307256420306075  0.6225698040433063  0.1840987880007944
  0.9344956602902423  0.1286788486177939  0.6955257843844564
  0.1862882178869345  0.8745579801672030  0.6928798299356730
  0.0683105754227253  0.3831958484881250  0.0698124862546568
  0.3056614653445905  0.8756414012670201  0.0595828789763836
  0.5670343229987019  0.1154078636866470  0.0555733405288553
  0.6851141471236890  0.8742722095025165  0.9440583874533697
  0.2018238532543123  0.3722090786263609  0.4350255659990924
  0.3100914098245967  0.1285839883960621  0.8149989412596832
  0.0614435281856223  0.1263517096461114  0.3131718689852996
  0.8104636462573664  0.8564866316237388  0.5700505052887623
  0.8110403108002412  0.3732739119640051  0.8124266716458088
  0.0581622369298107  0.8622040373542651  0.5590870243513918
  0.5480856052235812  0.6273211773626999  0.5538451003536153
  0.5671525065324756  0.8779436981711233  0.8101768855825136
  0.3154869250174513  0.6220509746809142  0.5616734247204168
  0.6866566943312172  0.6338007654170054  0.6938984616133927
  0.3112398627863279  0.1192867690898662  0.3130745400913667
  0.4309290492309527  0.3708550102033966  0.4301639074305849
  0.8216053437153419  0.3806839451010086  0.5542444458254862
  0.9421694457183684  0.1641761508195303  0.4446750851300695
  0.0589459490052797  0.1239623751674257  0.0589147200638241
  0.8076888398298518  0.3795133118532015  0.0719183716159566
  0.6818507041918491  0.3724189228966173  0.4229029981830593
  0.6893184153186398  0.3780458766591205  0.6823837184882755
  0.0688359780112285  0.1189852231183116  0.8161007308861044
  0.4271766218044328  0.8627312637894903  0.6812409838210004
  0.8049294965246478  0.8696907628404411  0.8121712828863166
  0.6840139973119507  0.1249386978494113  0.1896196532446415
  0.5597590627935732  0.8725907146299563  0.3069726985497776
  0.4393001093114995  0.1236890413042821  0.6854975775465768
  0.6883372777789393  0.1299360502944953  0.4357830346844281
  0.5650500164376578  0.3771951054985893  0.0671982163653529
  0.0642275649520967  0.6332625863932702  0.3100105634735361
  0.6984083893168617  0.6279253569473495  0.4419748302506947
  0.9398738753752852  0.8983712842786572  0.4286124699349561
  0.8068091503735528  0.1137811249657052  0.0578305691108116
  0.0685913296743427  0.1308354653463493  0.5646991577892219
  0.9659531978144883  0.8933976569803935  0.6953487424302177
  0.4501436489788779  0.8777342113087077  0.9435776479382216
  0.3283519684974906  0.8940471166848417  0.8181221840484951
  0.4348974765734163  0.8706774953753205  0.4399748221455185
  0.1985423555199416  0.8832476681930633  0.4316107318378390
  0.8139638529044527  0.6307244498531309  0.3095206269200647
  0.4398704249402519  0.3684160820453511  0.6900380858625419
  0.6894531873006412  0.6220143512368992  0.9418024291602473
  0.8076397077329838  0.6195319423736857  0.8194551405354289
  0.3095125070885468  0.1312266675341071  0.0564161875098626
  0.8186440737286762  0.1300470076374058  0.8205550836710348
  0.0500622825043242  0.8711737513485374  0.3049078699804798
  0.9412006880633139  0.1283188295552412  0.1842996463477972
  0.9336011817287934  0.8762943183670575  0.1851920752615911
  0.3253647967442235  0.8747101046464635  0.3101845899672677
  0.0645288662697379  0.8812300659079600  0.0607036379007700
  0.8010732260617743  0.8601314593303230  0.3023270960212258
  0.6927834153780326  0.1370064557430974  0.9266485464231603
  0.4407200616078673  0.1315640254926407  0.1842896508120392
  0.3212342982624420  0.3681742382731708  0.5685238334309700
  0.3213568064807913  0.6230865082756080  0.0559140128099341
  0.3028133148184658  0.8747565325496144  0.5585859769629944
  0.6838037627168316  0.1229741290423970  0.6942286460787775
  0.6816122921570453  0.3726368665289477  0.9387836336360534
  0.1851393740142022  0.3678357039293974  0.9391672935732471
  0.1730703743766926  0.6054633386441312  0.6850506578917357
  0.8079494994925701  0.3761800474251190  0.3035043685704106
  0.5560880259967440  0.8583143143240152  0.0738115539731612
  0.4325717006907404  0.6153694037734675  0.9406936069168658
  0.3178275660648438  0.3842188021853025  0.3006103026726479
  0.6800448830763093  0.8887619273230921  0.6810920392817522
  0.5711885832755504  0.3804262458530746  0.8150202507291402
  0.9397895160477360  0.1234046781422772  0.9333538537560522
  0.6948087476977077  0.8759652640773373  0.1844160230864108
  0.7983308963173438  0.6021612459819646  0.5740211236427407
  0.0585445538688569  0.3635179122740559  0.8098336843632110
  0.3075842156480281  0.6213247356076930  0.3140406011827595
  0.4349560913956108  0.1218021617768038  0.9387122290293332
  0.4389035048712878  0.3745184232373794  0.1892761067433627
  0.5628166059933847  0.3822186999437219  0.3042117987201468
  0.5657973805651285  0.1377236951416733  0.8162950054965996
  0.2093593152364504  0.1499519755774096  0.6861851434638954
  0.1860935689013548  0.1215901013327652  0.9412945700277338
  0.0674911906763903  0.3827482636820896  0.3105268806568900
  0.5643584855145743  0.8834214525091901  0.5645341548015749
  0.9372430814566091  0.3700739784586836  0.1977701998085800
  0.0626762360629541  0.3793547608728804  0.5637350793167342
  0.6791160287949148  0.3760334746743183  0.1940907540231365
  0.8113851754269471  0.8655151095378366  0.0666998744655027
  0.4364737878218101  0.1202861410236080  0.4413221307425498
  0.1971803278410452  0.6252183115076505  0.9457919180974800
  0.8141409718672478  0.6349282849681859  0.0595321138716269
  0.5530185733876513  0.1292443623461577  0.3124677325181060
  0.4319046590000246  0.8860844034038807  0.1856647250448182
  0.9380432819408431  0.8800111708264301  0.9421080215242383
  0.0768394771344133  0.6244366351502382  0.5691867694053104
  0.3141982519208113  0.3758078987597670  0.0662467078045147
  0.1881352685870916  0.3764506209407065  0.6836211799671922
  0.6841391890417475  0.6236844323577682  0.1843098335246021
  0.5625051170477813  0.6213638834300087  0.3101280526322283
  0.1881736065182624  0.1065138732701987  0.4434898336802638
  0.3072427023753209  0.1210943442085549  0.5591963459674398
  0.1841958913646548  0.3648899988455605  0.1896283109008863
  0.4381556652205122  0.6291285341249104  0.4217383518145723
  0.9397655148878723  0.3730797570334594  0.6850585574452922
  0.5644668627192144  0.6176088607401278  0.8295225016692012
  0.5572674126047935  0.1087516403520602  0.5632386361987251
  0.1832544020905921  0.8778092607968708  0.9378050503031714
  0.5632408132063899  0.6241879556892785  0.0610017426940605
  0.9293575999870870  0.3885269520942602  0.4203236260781435
  0.0568796377247957  0.8617692442903000  0.8253568991554935
  0.9230049140428402  0.6233071533622775  0.9337162412393593
 
  0.00000000E+00  0.00000000E+00  0.00000000E+00
  0.00000000E+00  0.00000000E+00  0.00000000E+00
  0.00000000E+00  0.00000000E+00  0.00000000E+00
  0.00000000E+00  0.00000000E+00  0.00000000E+00
  0.00000000E+00  0.00000000E+00  0.00000000E+00
  0.00000000E+00  0.00000000E+00  0.00000000E+00
  0.00000000E+00  0.00000000E+00  0.00000000E+00
  0.00000000E+00  0.00000000E+00  0.00000000E+00
  0.00000000E+00  0.00000000E+00  0.00000000E+00
  0.00000000E+00  0.00000000E+00  0.00000000E+00
  0.00000000E+00  0.00000000E+00  0.00000000E+00
  0.00000000E+00  0.00000000E+00  0.00000000E+00
  0.00000000E+00  0.00000000E+00  0.00000000E+00
  0.00000000E+00  0.00000000E+00  0.00000000E+00
  0.00000000E+00  0.00000000E+00  0.00000000E+00
  0.00000000E+00  0.00000000E+00  0.00000000E+00
  0.00000000E+00  0.00000000E+00  0.00000000E+00
  0.00000000E+00  0.00000000E+00  0.00000000E+00
  0.00000000E+00  0.00000000E+00  0.00000000E+00
  0.00000000E+00  0.00000000E+00  0.00000000E+00
  0.00000000E+00  0.00000000E+00  0.00000000E+00
  0.00000000E+00  0.00000000E+00  0.00000000E+00
  0.00000000E+00  0.00000000E+00  0.00000000E+00
  0.00000000E+00  0.00000000E+00  0.00000000E+00
  0.00000000E+00  0.00000000E+00  0.00000000E+00
  0.00000000E+00  0.00000000E+00  0.00000000E+00
  0.00000000E+00  0.00000000E+00  0.00000000E+00
  0.00000000E+00  0.00000000E+00  0.00000000E+00
  0.00000000E+00  0.00000000E+00  0.00000000E+00
  0.00000000E+00  0.00000000E+00  0.00000000E+00
  0.00000000E+00  0.00000000E+00  0.00000000E+00
  0.00000000E+00  0.00000000E+00  0.00000000E+00
  0.00000000E+00  0.00000000E+00  0.00000000E+00
  0.00000000E+00  0.00000000E+00  0.00000000E+00
  0.00000000E+00  0.00000000E+00  0.00000000E+00
  0.00000000E+00  0.00000000E+00  0.00000000E+00
  0.00000000E+00  0.00000000E+00  0.00000000E+00
  0.00000000E+00  0.00000000E+00  0.00000000E+00
  0.00000000E+00  0.00000000E+00  0.00000000E+00
  0.00000000E+00  0.00000000E+00  0.00000000E+00
  0.00000000E+00  0.00000000E+00  0.00000000E+00
  0.00000000E+00  0.00000000E+00  0.00000000E+00
  0.00000000E+00  0.00000000E+00  0.00000000E+00
  0.00000000E+00  0.00000000E+00  0.00000000E+00
  0.00000000E+00  0.00000000E+00  0.00000000E+00
  0.00000000E+00  0.00000000E+00  0.00000000E+00
  0.00000000E+00  0.00000000E+00  0.00000000E+00
  0.00000000E+00  0.00000000E+00  0.00000000E+00
  0.00000000E+00  0.00000000E+00  0.00000000E+00
  0.00000000E+00  0.00000000E+00  0.00000000E+00
  0.00000000E+00  0.00000000E+00  0.00000000E+00
  0.00000000E+00  0.00000000E+00  0.00000000E+00
  0.00000000E+00  0.00000000E+00  0.00000000E+00
  0.00000000E+00  0.00000000E+00  0.00000000E+00
  0.00000000E+00  0.00000000E+00  0.00000000E+00
  0.00000000E+00  0.00000000E+00  0.00000000E+00
  0.00000000E+00  0.00000000E+00  0.00000000E+00
  0.00000000E+00  0.00000000E+00  0.00000000E+00
  0.00000000E+00  0.00000000E+00  0.00000000E+00
  0.00000000E+00  0.00000000E+00  0.00000000E+00
  0.00000000E+00  0.00000000E+00  0.00000000E+00
  0.00000000E+00  0.00000000E+00  0.00000000E+00
  0.00000000E+00  0.00000000E+00  0.00000000E+00
  0.00000000E+00  0.00000000E+00  0.00000000E+00
  0.00000000E+00  0.00000000E+00  0.00000000E+00
  0.00000000E+00  0.00000000E+00  0.00000000E+00
  0.00000000E+00  0.00000000E+00  0.00000000E+00
  0.00000000E+00  0.00000000E+00  0.00000000E+00
  0.00000000E+00  0.00000000E+00  0.00000000E+00
  0.00000000E+00  0.00000000E+00  0.00000000E+00
  0.00000000E+00  0.00000000E+00  0.00000000E+00
  0.00000000E+00  0.00000000E+00  0.00000000E+00
  0.00000000E+00  0.00000000E+00  0.00000000E+00
  0.00000000E+00  0.00000000E+00  0.00000000E+00
  0.00000000E+00  0.00000000E+00  0.00000000E+00
  0.00000000E+00  0.00000000E+00  0.00000000E+00
  0.00000000E+00  0.00000000E+00  0.00000000E+00
  0.00000000E+00  0.00000000E+00  0.00000000E+00
  0.00000000E+00  0.00000000E+00  0.00000000E+00
  0.00000000E+00  0.00000000E+00  0.00000000E+00
  0.00000000E+00  0.00000000E+00  0.00000000E+00
  0.00000000E+00  0.00000000E+00  0.00000000E+00
  0.00000000E+00  0.00000000E+00  0.00000000E+00
  0.00000000E+00  0.00000000E+00  0.00000000E+00
  0.00000000E+00  0.00000000E+00  0.00000000E+00
  0.00000000E+00  0.00000000E+00  0.00000000E+00
  0.00000000E+00  0.00000000E+00  0.00000000E+00
  0.00000000E+00  0.00000000E+00  0.00000000E+00
  0.00000000E+00  0.00000000E+00  0.00000000E+00
  0.00000000E+00  0.00000000E+00  0.00000000E+00
  0.00000000E+00  0.00000000E+00  0.00000000E+00
  0.00000000E+00  0.00000000E+00  0.00000000E+00
  0.00000000E+00  0.00000000E+00  0.00000000E+00
  0.00000000E+00  0.00000000E+00  0.00000000E+00
  0.00000000E+00  0.00000000E+00  0.00000000E+00
  0.00000000E+00  0.00000000E+00  0.00000000E+00
  0.00000000E+00  0.00000000E+00  0.00000000E+00
  0.00000000E+00  0.00000000E+00  0.00000000E+00
  0.00000000E+00  0.00000000E+00  0.00000000E+00
  0.00000000E+00  0.00000000E+00  0.00000000E+00
  0.00000000E+00  0.00000000E+00  0.00000000E+00
  0.00000000E+00  0.00000000E+00  0.00000000E+00
  0.00000000E+00  0.00000000E+00  0.00000000E+00
  0.00000000E+00  0.00000000E+00  0.00000000E+00
  0.00000000E+00  0.00000000E+00  0.00000000E+00
  0.00000000E+00  0.00000000E+00  0.00000000E+00
  0.00000000E+00  0.00000000E+00  0.00000000E+00
  0.00000000E+00  0.00000000E+00  0.00000000E+00
  0.00000000E+00  0.00000000E+00  0.00000000E+00
  0.00000000E+00  0.00000000E+00  0.00000000E+00
  0.00000000E+00  0.00000000E+00  0.00000000E+00
  0.00000000E+00  0.00000000E+00  0.00000000E+00
  0.00000000E+00  0.00000000E+00  0.00000000E+00
  0.00000000E+00  0.00000000E+00  0.00000000E+00
  0.00000000E+00  0.00000000E+00  0.00000000E+00
  0.00000000E+00  0.00000000E+00  0.00000000E+00
  0.00000000E+00  0.00000000E+00  0.00000000E+00
  0.00000000E+00  0.00000000E+00  0.00000000E+00
  0.00000000E+00  0.00000000E+00  0.00000000E+00
  0.00000000E+00  0.00000000E+00  0.00000000E+00
  0.00000000E+00  0.00000000E+00  0.00000000E+00
  0.00000000E+00  0.00000000E+00  0.00000000E+00
  0.00000000E+00  0.00000000E+00  0.00000000E+00
  0.00000000E+00  0.00000000E+00  0.00000000E+00
  0.00000000E+00  0.00000000E+00  0.00000000E+00
  0.00000000E+00  0.00000000E+00  0.00000000E+00
  0.00000000E+00  0.00000000E+00  0.00000000E+00
  0.00000000E+00  0.00000000E+00  0.00000000E+00
