Hf Nb                                   
    1.000000000000000     
    12.7862464704496404   -0.0148445624342701   -0.0003742250324238
    -6.4059758007375009   11.0605199465750275    0.0019030121597390
    -0.0005973908691703    0.0031424896651326   20.2094477932874277
  Hf             Nb           
             124               4
Direct
  0.1667391781673193  0.8316598053856563  0.9376168082807426
  0.5838675431813182  0.9164488975516650  0.3127090826279121
  0.8345086953628854  0.6688813702000238  0.0619234330890266
  0.1672130963606880  0.3330175808467069  0.1874108906064823
  0.5832084368027725  0.6658411254285148  0.8121219888154227
  0.1668033299616961  0.3340086019387647  0.9376573110519781
  0.5811074526947229  0.1658337448115828  0.0628698009484769
  0.1662775532143583  0.8341160417985858  0.6880535323879453
  0.9168818280703528  0.3337988083524133  0.6877778935757110
  0.3331351316034199  0.6667271931401176  0.3122449908180986
  0.6661824337544642  0.5830660643490637  0.6872271802498199
  0.6667502643894695  0.3335457539654275  0.4377180761890777
  0.1666441641008767  0.0837068659577839  0.6878089463896846
  0.4185173261029601  0.5862850586557912  0.9377252025597235
  0.9165149435107725  0.0833460615472210  0.1872005214208035
  0.5835003793094723  0.6665455941382239  0.3123923982765345
  0.6671945026007691  0.8336792725608789  0.4374458661192278
  0.8334173259549991  0.6665818783388345  0.5624780402756087
  0.8329842053239965  0.4163389251498271  0.0623689673037397
  0.4151028787037516  0.8306537828474481  0.4379005037888551
  0.6642841864803307  0.0827188389295280  0.1871969006162689
  0.1665426600916961  0.0836725485733558  0.4374495919852168
  0.1664123172649110  0.3328505008058615  0.6876341886018725
  0.0857379660607623  0.6676499950496139  0.5625335459999498
  0.3334419601278651  0.4161284753661158  0.3121047761485290
  0.5835400536950018  0.4168719190065459  0.3126384721089609
  0.5839884673372184  0.1673939029270756  0.8126363815801612
  0.6662684648674443  0.5826043535331561  0.1875296834113591
  0.1674955110584624  0.5858601194251150  0.9376101604982132
  0.9167508304799722  0.5832474775609323  0.4376167815801247
  0.3346435519226734  0.1652575778982568  0.3119785834379556
  0.5838525566572119  0.4165134349982139  0.8128589280581097
  0.1682771086019668  0.0826885375408869  0.1870793068325152
  0.0855640593504368  0.4179539463318447  0.5626182758680499
  0.0831216092429766  0.4164529300805278  0.3121375533075364
  0.9166928241594722  0.0816234339027478  0.9378096878612100
  0.9168063530404734  0.0837824017783964  0.6877449275551252
  0.4173349539621117  0.3318763434248610  0.1869097576365287
  0.9165695183237350  0.8335459249906609  0.4376551657946579
  0.0811658572219154  0.9154009486747127  0.8137263533951703
  0.0840295570541056  0.9163899056373338  0.5625721233524994
  0.4168720819626067  0.0834614032232281  0.6874114911340160
  0.4163966891420902  0.0809445722484652  0.9375532863967886
  0.3347467574761913  0.9193740738071552  0.3120045292441661
  0.8330523822341660  0.4161845828932911  0.3121168056611583
  0.6674833703805592  0.8341540223319269  0.6880122940134699
  0.4168303638930913  0.5833311862224860  0.1873053150984104
  0.9157816531857492  0.3330261478958608  0.1869633946335545
  0.4167525684550022  0.3337877476519048  0.6878029544467975
  0.4154263629855353  0.8307180243289222  0.6873881045022220
  0.4177583700908640  0.8361415800443575  0.1869045849913784
  0.5821674284820204  0.9141194380236692  0.5626131880860089
  0.8326292901882999  0.9163622846372217  0.5626235996149490
  0.0840284830764968  0.1672875637940170  0.0626689619220627
  0.1644229061137809  0.0816219114093046  0.9376393115798214
  0.1692391845031350  0.5847859496732982  0.6869561807227363
  0.1662797564956715  0.8336987872596604  0.4371973395842102
  0.0837487009820822  0.4167751092672209  0.8127437855255727
  0.6661571176806486  0.5833452599486775  0.4379324530421232
  0.3346259662277833  0.6694144043863253  0.0621828919570917
  0.6657977887782301  0.8318256678406807  0.9372763229685013
  0.9185348538490420  0.5865292513251102  0.9377276845537452
  0.3334040635877073  0.4167014553776897  0.8129902809677991
  0.3328746369005796  0.4180009847808041  0.5625049260123489
  0.8327699678749293  0.1660068879601761  0.0621250800793034
  0.6648149530475292  0.0815352724049298  0.9376511999586681
  0.5809577188127456  0.1653321805129706  0.3121139187928806
  0.9173278841854843  0.8336653747573783  0.1869751817508019
  0.6680222918538529  0.5863408228249650  0.9373005270202719
  0.5813323614649694  0.9147384322993980  0.0613283578247166
  0.0830591770995416  0.9165019351031368  0.3123852575675802
  0.5831346197422008  0.1654973915266184  0.5625668799549376
  0.8347229728253732  0.6689912639620020  0.8129006494532549
  0.6663888761899955  0.8340264836940742  0.1871869574961700
  0.9167301782802386  0.8335154162706603  0.6878752903198689
  0.4166971860394749  0.3337817041264119  0.9375461682131496
  0.0836732439356398  0.1671772761441099  0.8129555137677441
  0.6641222182208627  0.3318021488845864  0.1874417386395744
  0.0836021400494542  0.1669929052252019  0.5624311515377440
  0.8331750988791695  0.1667812470155121  0.3121291943126999
  0.0802266549336239  0.9147545011106688  0.0611551555003397
  0.5840446689479548  0.4173972954691580  0.0619345218357038
  0.3348476930840099  0.6694275634992937  0.8130439854178464
  0.8347185515110017  0.9155731383054686  0.8136504733750894
  0.3358636828321361  0.9180236032966909  0.0622931499652624
  0.6664895018423455  0.0832255785261199  0.4377424533242826
  0.9170886452343978  0.3339139484259839  0.9375330315364142
  0.3341952766272241  0.1644309464686288  0.0624043572834498
  0.1663030927371950  0.3331683109620884  0.4372352017873956
  0.0837047164377847  0.1665810142066199  0.3120281761829698
  0.8329759573051791  0.4166128091134301  0.8130047632817202
  0.6663183685420316  0.0833409082958092  0.6875324219820349
  0.5832176463766297  0.6658555693944262  0.0628238406506997
  0.8343608333979443  0.4169271783930352  0.5625545742592293
  0.6665969605143085  0.3333193551019485  0.6872933349223823
  0.3331995892298244  0.4164129135186867  0.0623107874061261
  0.4153936782672482  0.5847343023553113  0.4377468413862602
  0.4149962680873732  0.5845121168925370  0.6869929055860153
  0.0835803332659928  0.6663076967944439  0.0631605534726096
  0.1684788426379208  0.8365756733897126  0.1872167661737599
  0.9165164431131073  0.0835490820186875  0.4372991913005976
  0.8344382227219400  0.9153284754946970  0.0615363731976791
  0.5817312184553919  0.6675355773798788  0.5626362328124471
  0.6669271441700424  0.3337896186706056  0.9377133508868338
  0.8327869230587236  0.1657269656379433  0.8131485005928725
  0.0828623019114834  0.6657625721180743  0.8122092522947796
  0.9164906657099441  0.5829523082446024  0.6872478141728338
  0.5809604026060368  0.9155242976989635  0.8133377651296374
  0.8332898815296704  0.6662938685425064  0.3126883760168043
  0.9162622664045941  0.5834510723066300  0.1874860403922185
  0.3329511716840248  0.1665167613103678  0.5627757306058999
  0.8335312075242562  0.1663311776954396  0.5626652053016964
  0.0838128543845768  0.4168448119544376  0.0623620982827201
  0.9169158259061012  0.3337345973968049  0.4376939414088429
  0.3328320210364793  0.1658364782909593  0.8131039262910174
  0.3346639735738265  0.9152000066663619  0.8132931901808693
  0.1688996281883136  0.5845510132154976  0.4378767666427556
  0.0835526972940511  0.6669309021187151  0.3121469749628817
  0.4166494430693746  0.0830446380774186  0.4377521599848137
  0.8333204746132837  0.9166527237743147  0.3121592458282607
  0.5826973370205220  0.4167999724525293  0.5625997507521872
  0.1668833996775781  0.5842034018325474  0.1873427709004685
  0.4165067688878012  0.3337066976053989  0.4376533800891399
  0.3320312965696207  0.9138036423146411  0.5628136423655655
  0.9154625854808410  0.8327195196100966  0.9373042872301425
  0.4169980095717302  0.0846272598574096  0.1874411130397182
  0.4160844699789257  0.8342368309143391  0.9377323485232328
  0.3327285507011582  0.6644080567965227  0.5621979417303236
 
  0.00000000E+00  0.00000000E+00  0.00000000E+00
  0.00000000E+00  0.00000000E+00  0.00000000E+00
  0.00000000E+00  0.00000000E+00  0.00000000E+00
  0.00000000E+00  0.00000000E+00  0.00000000E+00
  0.00000000E+00  0.00000000E+00  0.00000000E+00
  0.00000000E+00  0.00000000E+00  0.00000000E+00
  0.00000000E+00  0.00000000E+00  0.00000000E+00
  0.00000000E+00  0.00000000E+00  0.00000000E+00
  0.00000000E+00  0.00000000E+00  0.00000000E+00
  0.00000000E+00  0.00000000E+00  0.00000000E+00
  0.00000000E+00  0.00000000E+00  0.00000000E+00
  0.00000000E+00  0.00000000E+00  0.00000000E+00
  0.00000000E+00  0.00000000E+00  0.00000000E+00
  0.00000000E+00  0.00000000E+00  0.00000000E+00
  0.00000000E+00  0.00000000E+00  0.00000000E+00
  0.00000000E+00  0.00000000E+00  0.00000000E+00
  0.00000000E+00  0.00000000E+00  0.00000000E+00
  0.00000000E+00  0.00000000E+00  0.00000000E+00
  0.00000000E+00  0.00000000E+00  0.00000000E+00
  0.00000000E+00  0.00000000E+00  0.00000000E+00
  0.00000000E+00  0.00000000E+00  0.00000000E+00
  0.00000000E+00  0.00000000E+00  0.00000000E+00
  0.00000000E+00  0.00000000E+00  0.00000000E+00
  0.00000000E+00  0.00000000E+00  0.00000000E+00
  0.00000000E+00  0.00000000E+00  0.00000000E+00
  0.00000000E+00  0.00000000E+00  0.00000000E+00
  0.00000000E+00  0.00000000E+00  0.00000000E+00
  0.00000000E+00  0.00000000E+00  0.00000000E+00
  0.00000000E+00  0.00000000E+00  0.00000000E+00
  0.00000000E+00  0.00000000E+00  0.00000000E+00
  0.00000000E+00  0.00000000E+00  0.00000000E+00
  0.00000000E+00  0.00000000E+00  0.00000000E+00
  0.00000000E+00  0.00000000E+00  0.00000000E+00
  0.00000000E+00  0.00000000E+00  0.00000000E+00
  0.00000000E+00  0.00000000E+00  0.00000000E+00
  0.00000000E+00  0.00000000E+00  0.00000000E+00
  0.00000000E+00  0.00000000E+00  0.00000000E+00
  0.00000000E+00  0.00000000E+00  0.00000000E+00
  0.00000000E+00  0.00000000E+00  0.00000000E+00
  0.00000000E+00  0.00000000E+00  0.00000000E+00
  0.00000000E+00  0.00000000E+00  0.00000000E+00
  0.00000000E+00  0.00000000E+00  0.00000000E+00
  0.00000000E+00  0.00000000E+00  0.00000000E+00
  0.00000000E+00  0.00000000E+00  0.00000000E+00
  0.00000000E+00  0.00000000E+00  0.00000000E+00
  0.00000000E+00  0.00000000E+00  0.00000000E+00
  0.00000000E+00  0.00000000E+00  0.00000000E+00
  0.00000000E+00  0.00000000E+00  0.00000000E+00
  0.00000000E+00  0.00000000E+00  0.00000000E+00
  0.00000000E+00  0.00000000E+00  0.00000000E+00
  0.00000000E+00  0.00000000E+00  0.00000000E+00
  0.00000000E+00  0.00000000E+00  0.00000000E+00
  0.00000000E+00  0.00000000E+00  0.00000000E+00
  0.00000000E+00  0.00000000E+00  0.00000000E+00
  0.00000000E+00  0.00000000E+00  0.00000000E+00
  0.00000000E+00  0.00000000E+00  0.00000000E+00
  0.00000000E+00  0.00000000E+00  0.00000000E+00
  0.00000000E+00  0.00000000E+00  0.00000000E+00
  0.00000000E+00  0.00000000E+00  0.00000000E+00
  0.00000000E+00  0.00000000E+00  0.00000000E+00
  0.00000000E+00  0.00000000E+00  0.00000000E+00
  0.00000000E+00  0.00000000E+00  0.00000000E+00
  0.00000000E+00  0.00000000E+00  0.00000000E+00
  0.00000000E+00  0.00000000E+00  0.00000000E+00
  0.00000000E+00  0.00000000E+00  0.00000000E+00
  0.00000000E+00  0.00000000E+00  0.00000000E+00
  0.00000000E+00  0.00000000E+00  0.00000000E+00
  0.00000000E+00  0.00000000E+00  0.00000000E+00
  0.00000000E+00  0.00000000E+00  0.00000000E+00
  0.00000000E+00  0.00000000E+00  0.00000000E+00
  0.00000000E+00  0.00000000E+00  0.00000000E+00
  0.00000000E+00  0.00000000E+00  0.00000000E+00
  0.00000000E+00  0.00000000E+00  0.00000000E+00
  0.00000000E+00  0.00000000E+00  0.00000000E+00
  0.00000000E+00  0.00000000E+00  0.00000000E+00
  0.00000000E+00  0.00000000E+00  0.00000000E+00
  0.00000000E+00  0.00000000E+00  0.00000000E+00
  0.00000000E+00  0.00000000E+00  0.00000000E+00
  0.00000000E+00  0.00000000E+00  0.00000000E+00
  0.00000000E+00  0.00000000E+00  0.00000000E+00
  0.00000000E+00  0.00000000E+00  0.00000000E+00
  0.00000000E+00  0.00000000E+00  0.00000000E+00
  0.00000000E+00  0.00000000E+00  0.00000000E+00
  0.00000000E+00  0.00000000E+00  0.00000000E+00
  0.00000000E+00  0.00000000E+00  0.00000000E+00
  0.00000000E+00  0.00000000E+00  0.00000000E+00
  0.00000000E+00  0.00000000E+00  0.00000000E+00
  0.00000000E+00  0.00000000E+00  0.00000000E+00
  0.00000000E+00  0.00000000E+00  0.00000000E+00
  0.00000000E+00  0.00000000E+00  0.00000000E+00
  0.00000000E+00  0.00000000E+00  0.00000000E+00
  0.00000000E+00  0.00000000E+00  0.00000000E+00
  0.00000000E+00  0.00000000E+00  0.00000000E+00
  0.00000000E+00  0.00000000E+00  0.00000000E+00
  0.00000000E+00  0.00000000E+00  0.00000000E+00
  0.00000000E+00  0.00000000E+00  0.00000000E+00
  0.00000000E+00  0.00000000E+00  0.00000000E+00
  0.00000000E+00  0.00000000E+00  0.00000000E+00
  0.00000000E+00  0.00000000E+00  0.00000000E+00
  0.00000000E+00  0.00000000E+00  0.00000000E+00
  0.00000000E+00  0.00000000E+00  0.00000000E+00
  0.00000000E+00  0.00000000E+00  0.00000000E+00
  0.00000000E+00  0.00000000E+00  0.00000000E+00
  0.00000000E+00  0.00000000E+00  0.00000000E+00
  0.00000000E+00  0.00000000E+00  0.00000000E+00
  0.00000000E+00  0.00000000E+00  0.00000000E+00
  0.00000000E+00  0.00000000E+00  0.00000000E+00
  0.00000000E+00  0.00000000E+00  0.00000000E+00
  0.00000000E+00  0.00000000E+00  0.00000000E+00
  0.00000000E+00  0.00000000E+00  0.00000000E+00
  0.00000000E+00  0.00000000E+00  0.00000000E+00
  0.00000000E+00  0.00000000E+00  0.00000000E+00
  0.00000000E+00  0.00000000E+00  0.00000000E+00
  0.00000000E+00  0.00000000E+00  0.00000000E+00
  0.00000000E+00  0.00000000E+00  0.00000000E+00
  0.00000000E+00  0.00000000E+00  0.00000000E+00
  0.00000000E+00  0.00000000E+00  0.00000000E+00
  0.00000000E+00  0.00000000E+00  0.00000000E+00
  0.00000000E+00  0.00000000E+00  0.00000000E+00
  0.00000000E+00  0.00000000E+00  0.00000000E+00
  0.00000000E+00  0.00000000E+00  0.00000000E+00
  0.00000000E+00  0.00000000E+00  0.00000000E+00
  0.00000000E+00  0.00000000E+00  0.00000000E+00
  0.00000000E+00  0.00000000E+00  0.00000000E+00
  0.00000000E+00  0.00000000E+00  0.00000000E+00
  0.00000000E+00  0.00000000E+00  0.00000000E+00
  0.00000000E+00  0.00000000E+00  0.00000000E+00
  0.00000000E+00  0.00000000E+00  0.00000000E+00
