Hf Ta                                   
    1.000000000000000     
    12.7120090765801166   -0.0320121522538861    0.0039912542412693
    -6.3838476730988818   11.0368066835864802   -0.0014428694091452
     0.0063709771463544    0.0009766408500250   20.1508023544172019
  Hf             Ta           
             116              12
Direct
  0.3328579739380310  0.6666040491563623  0.3129031786435408
  0.9177702081325474  0.3315258099723681  0.9380149176722963
  0.5845948222441004  0.1620532488584933  0.0638063581764622
  0.0853181141304012  0.4158355211163770  0.8132210079737490
  0.6652333522173431  0.8376085839026066  0.1876231039200635
  0.4157163361969217  0.0820155826978495  0.4381329758743704
  0.5817634301076412  0.1666687507848311  0.8121796794452578
  0.0924620221278684  0.1737344227104153  0.8137414444504713
  0.4156211725064984  0.0814582588983608  0.1877845534705568
  0.4169023414343139  0.8349653593586451  0.1875209590539998
  0.6664455818220126  0.0807485247570003  0.9378568360201175
  0.6667282705084604  0.3323732054722321  0.6870610469479927
  0.0796591733880759  0.9143786251067704  0.3130197715249369
  0.1664539177967562  0.0841280759884077  0.1880367092895618
  0.5834830848352350  0.1606351029326487  0.3117589382725315
  0.8371955697036157  0.9170164958661404  0.8125080079617985
  0.3357413803537191  0.1671275744951398  0.0630364855302373
  0.6642970445060404  0.5820828689841009  0.9379492768990759
  0.1652210060402535  0.0859358176410578  0.6867639608140648
  0.3447849185325081  0.4236510450344727  0.3126568451463599
  0.3318523694082484  0.9188397650097663  0.8120878862589301
  0.6684870528602350  0.3290302350478163  0.1882339145869618
  0.8997070180907779  0.5774613434955345  0.4315369570060236
  0.8379241679010636  0.4201619156155884  0.5614936356712416
  0.3328666408775162  0.6665870687327349  0.8117396769148663
  0.9160731492488761  0.8362003663824793  0.1880661856150529
  0.9219965642665345  0.0793419440661474  0.6868979043049149
  0.1660302611673548  0.5827175562931401  0.9380348253621562
  0.1689701923304215  0.3341818035813208  0.1889552047645533
  0.5830544789860702  0.4157974240270636  0.0628182919017853
  0.1647528973936357  0.8319607801054429  0.9375762122339386
  0.8339468498889402  0.1660728356684975  0.8111652019191875
  0.3333113729497212  0.9153378561873033  0.0623573086842763
  0.0805702676413670  0.6655976196303708  0.0641918182236403
  0.8289464055897093  0.9222809331334790  0.3118750132477891
  0.3342476037392723  0.6686158072348494  0.0630726971973132
  0.6696404862766094  0.5847852808702080  0.6862687130688753
  0.5833195417218175  0.6701619482048035  0.0624575778504576
  0.6683187138547306  0.5902453250079465  0.4372712373187350
  0.4132435213398808  0.5807747493800915  0.9374047393072793
  0.9162058085498429  0.5823407446969163  0.9381961355190351
  0.5834522657115297  0.9170146004709231  0.8117311242113632
  0.5866783391389422  0.6690168113921563  0.5627019062740779
  0.8380292805872533  0.1687869477640103  0.5628418260133167
  0.4133932322821788  0.0825608321320924  0.6868514109018869
  0.9181623021091702  0.3357851109934959  0.4370511901992821
  0.6027798010245181  0.4261729682661587  0.3128011537605407
  0.3307075594012587  0.4128658854604106  0.8130550464224183
  0.8321815083429781  0.1604508988584476  0.3128937168338455
  0.9187343496176845  0.3348146784605289  0.6865348956464268
  0.9063211233090973  0.5792270803768923  0.1929281582167799
  0.1721631006254198  0.0874897689550789  0.9359766157406633
  0.0844175915933152  0.9187663955917390  0.0622313840457820
  0.6642292175171685  0.8352154936481362  0.4359656022623989
  0.0777926803909835  0.6635360820308693  0.5595363460888083
  0.3296879034723903  0.6615509450103761  0.5622712058489500
  0.5825526375079851  0.6650122328458661  0.8128570771601920
  0.9141647518382879  0.5873949724545598  0.6864961879271394
  0.1696967200523067  0.3365767415341208  0.4371052396450810
  0.1621175111943023  0.8309351241954407  0.6865756613397225
  0.8328951410429959  0.6673442626918069  0.0634807452425882
  0.9207277234286635  0.0876456306806008  0.9368499031530138
  0.0777211873504932  0.6649995578642954  0.3134570147563193
  0.0821261601026533  0.9176698830073198  0.8112942021951648
  0.6649419589019891  0.0764261186914630  0.4366041870732074
  0.3351942504767614  0.4177654465593134  0.5622276600250599
  0.1633332125754387  0.8320076053728892  0.1881256677496999
  0.8334605371744248  0.4162405173180944  0.8125901194569942
  0.1642237125840054  0.8327194048979237  0.4383453416627881
  0.4159605171926288  0.0852796502509154  0.9367680466314227
  0.4148443987363296  0.8330665949263765  0.4383057273754800
  0.5887069960544800  0.4185411877690589  0.5616148220582182
  0.6668301992641117  0.3322951777385750  0.9385301559615639
  0.6693186252078108  0.8337471380018243  0.6881467182633136
  0.4105772208032008  0.3294592270058808  0.9363762557834980
  0.1661998946373973  0.0854200682778361  0.4380500013957799
  0.3378042206045192  0.1682181374680621  0.3130215779154378
  0.3324249552088398  0.1696127694013237  0.5621701139590513
  0.3333362405309326  0.4167423484482283  0.0627277669789134
  0.4189837118323026  0.5861434801554014  0.1885314814880299
  0.1635730300549075  0.5831827229510920  0.1883589288732124
  0.4206175001037158  0.3347329632298839  0.4367103732253220
  0.6650466905042633  0.5880347066360813  0.1883705494656000
  0.0838261440093974  0.6666632060240754  0.8121230085814715
  0.3296721903127443  0.9150471487660731  0.5627954390835335
  0.8337176736544760  0.6682579745216478  0.8125520973763549
  0.4138999338889664  0.8316805535878883  0.6868647334540988
  0.3312237459761577  0.9146002462327095  0.3129252314479979
  0.9234868359119492  0.0868623813441242  0.4393311516429191
  0.6657703917932585  0.8358834363352204  0.9381429840741927
  0.0853038960716026  0.4153676747131590  0.0628727303560769
  0.6683881938618236  0.0727432674511240  0.1884881010330343
  0.0852763838881443  0.1702548972736329  0.0625555062328201
  0.0807603103418333  0.4171111857235874  0.3122818841860740
  0.8341194171267631  0.4168307798103441  0.0635109872335097
  0.4171280605806580  0.3314334622936674  0.6878783265694589
  0.0781370269791365  0.9184149096931399  0.5643399250265059
  0.4176131414003260  0.5839887887915877  0.6875662195541242
  0.5826838036161087  0.4145768025658582  0.8128904388043480
  0.6685054812955996  0.3268310334309266  0.4361061847598882
  0.8379607931924838  0.9152999605772646  0.5631236313635402
  0.5846848946751888  0.9164553792845136  0.5629472015599837
  0.8309153513971373  0.1596236182836482  0.0639941772854826
  0.1623292156640264  0.5791213014441819  0.4381513458750100
  0.9145189062295507  0.3291923047679743  0.1880831728057771
  0.4212268352714458  0.5869894344770555  0.4366903181205554
  0.1620109421957605  0.5797682513774917  0.6854003048390785
  0.4195865723245893  0.3337625517325747  0.1891740845356571
  0.1644209784890835  0.3331519853345407  0.6855136262253076
  0.9150968744281464  0.8294090191408696  0.4371930471800054
  0.0838421713809527  0.1667954159004524  0.3123204526166451
  0.6673969881196192  0.0825928470156718  0.6869155339950168
  0.9171281396526703  0.8359068436197572  0.9384192622695978
  0.8327687137610643  0.9232571463616217  0.0642510401436333
  0.5856707882124321  0.1663443516250131  0.5623169032571218
  0.4174166156879402  0.8334772087763811  0.9372857081987535
  0.5886353001122863  0.6758479308321799  0.3120136028339326
  0.1675219122526201  0.3398295630935161  0.9392628627103520
  0.9306727334795050  0.0919723988865419  0.1879967435726027
  0.3362775708261213  0.1625488318185745  0.8102704247751977
  0.5729274846100363  0.9030603393900056  0.3124213661893153
  0.0880917988079455  0.1788710733457011  0.5609393149386093
  0.9080320286745159  0.8236915719192115  0.6870519168036212
  0.8228512843155593  0.6787878270300831  0.3116378314491325
  0.5748778092580012  0.9122709413047883  0.0620866915234896
  0.8418161546817590  0.6735877895542181  0.5616821236991644
  0.0830572997236013  0.4091130896392386  0.5618414509429582
  0.8309270151725503  0.4032157270169312  0.3114506076012396
 
  0.00000000E+00  0.00000000E+00  0.00000000E+00
  0.00000000E+00  0.00000000E+00  0.00000000E+00
  0.00000000E+00  0.00000000E+00  0.00000000E+00
  0.00000000E+00  0.00000000E+00  0.00000000E+00
  0.00000000E+00  0.00000000E+00  0.00000000E+00
  0.00000000E+00  0.00000000E+00  0.00000000E+00
  0.00000000E+00  0.00000000E+00  0.00000000E+00
  0.00000000E+00  0.00000000E+00  0.00000000E+00
  0.00000000E+00  0.00000000E+00  0.00000000E+00
  0.00000000E+00  0.00000000E+00  0.00000000E+00
  0.00000000E+00  0.00000000E+00  0.00000000E+00
  0.00000000E+00  0.00000000E+00  0.00000000E+00
  0.00000000E+00  0.00000000E+00  0.00000000E+00
  0.00000000E+00  0.00000000E+00  0.00000000E+00
  0.00000000E+00  0.00000000E+00  0.00000000E+00
  0.00000000E+00  0.00000000E+00  0.00000000E+00
  0.00000000E+00  0.00000000E+00  0.00000000E+00
  0.00000000E+00  0.00000000E+00  0.00000000E+00
  0.00000000E+00  0.00000000E+00  0.00000000E+00
  0.00000000E+00  0.00000000E+00  0.00000000E+00
  0.00000000E+00  0.00000000E+00  0.00000000E+00
  0.00000000E+00  0.00000000E+00  0.00000000E+00
  0.00000000E+00  0.00000000E+00  0.00000000E+00
  0.00000000E+00  0.00000000E+00  0.00000000E+00
  0.00000000E+00  0.00000000E+00  0.00000000E+00
  0.00000000E+00  0.00000000E+00  0.00000000E+00
  0.00000000E+00  0.00000000E+00  0.00000000E+00
  0.00000000E+00  0.00000000E+00  0.00000000E+00
  0.00000000E+00  0.00000000E+00  0.00000000E+00
  0.00000000E+00  0.00000000E+00  0.00000000E+00
  0.00000000E+00  0.00000000E+00  0.00000000E+00
  0.00000000E+00  0.00000000E+00  0.00000000E+00
  0.00000000E+00  0.00000000E+00  0.00000000E+00
  0.00000000E+00  0.00000000E+00  0.00000000E+00
  0.00000000E+00  0.00000000E+00  0.00000000E+00
  0.00000000E+00  0.00000000E+00  0.00000000E+00
  0.00000000E+00  0.00000000E+00  0.00000000E+00
  0.00000000E+00  0.00000000E+00  0.00000000E+00
  0.00000000E+00  0.00000000E+00  0.00000000E+00
  0.00000000E+00  0.00000000E+00  0.00000000E+00
  0.00000000E+00  0.00000000E+00  0.00000000E+00
  0.00000000E+00  0.00000000E+00  0.00000000E+00
  0.00000000E+00  0.00000000E+00  0.00000000E+00
  0.00000000E+00  0.00000000E+00  0.00000000E+00
  0.00000000E+00  0.00000000E+00  0.00000000E+00
  0.00000000E+00  0.00000000E+00  0.00000000E+00
  0.00000000E+00  0.00000000E+00  0.00000000E+00
  0.00000000E+00  0.00000000E+00  0.00000000E+00
  0.00000000E+00  0.00000000E+00  0.00000000E+00
  0.00000000E+00  0.00000000E+00  0.00000000E+00
  0.00000000E+00  0.00000000E+00  0.00000000E+00
  0.00000000E+00  0.00000000E+00  0.00000000E+00
  0.00000000E+00  0.00000000E+00  0.00000000E+00
  0.00000000E+00  0.00000000E+00  0.00000000E+00
  0.00000000E+00  0.00000000E+00  0.00000000E+00
  0.00000000E+00  0.00000000E+00  0.00000000E+00
  0.00000000E+00  0.00000000E+00  0.00000000E+00
  0.00000000E+00  0.00000000E+00  0.00000000E+00
  0.00000000E+00  0.00000000E+00  0.00000000E+00
  0.00000000E+00  0.00000000E+00  0.00000000E+00
  0.00000000E+00  0.00000000E+00  0.00000000E+00
  0.00000000E+00  0.00000000E+00  0.00000000E+00
  0.00000000E+00  0.00000000E+00  0.00000000E+00
  0.00000000E+00  0.00000000E+00  0.00000000E+00
  0.00000000E+00  0.00000000E+00  0.00000000E+00
  0.00000000E+00  0.00000000E+00  0.00000000E+00
  0.00000000E+00  0.00000000E+00  0.00000000E+00
  0.00000000E+00  0.00000000E+00  0.00000000E+00
  0.00000000E+00  0.00000000E+00  0.00000000E+00
  0.00000000E+00  0.00000000E+00  0.00000000E+00
  0.00000000E+00  0.00000000E+00  0.00000000E+00
  0.00000000E+00  0.00000000E+00  0.00000000E+00
  0.00000000E+00  0.00000000E+00  0.00000000E+00
  0.00000000E+00  0.00000000E+00  0.00000000E+00
  0.00000000E+00  0.00000000E+00  0.00000000E+00
  0.00000000E+00  0.00000000E+00  0.00000000E+00
  0.00000000E+00  0.00000000E+00  0.00000000E+00
  0.00000000E+00  0.00000000E+00  0.00000000E+00
  0.00000000E+00  0.00000000E+00  0.00000000E+00
  0.00000000E+00  0.00000000E+00  0.00000000E+00
  0.00000000E+00  0.00000000E+00  0.00000000E+00
  0.00000000E+00  0.00000000E+00  0.00000000E+00
  0.00000000E+00  0.00000000E+00  0.00000000E+00
  0.00000000E+00  0.00000000E+00  0.00000000E+00
  0.00000000E+00  0.00000000E+00  0.00000000E+00
  0.00000000E+00  0.00000000E+00  0.00000000E+00
  0.00000000E+00  0.00000000E+00  0.00000000E+00
  0.00000000E+00  0.00000000E+00  0.00000000E+00
  0.00000000E+00  0.00000000E+00  0.00000000E+00
  0.00000000E+00  0.00000000E+00  0.00000000E+00
  0.00000000E+00  0.00000000E+00  0.00000000E+00
  0.00000000E+00  0.00000000E+00  0.00000000E+00
  0.00000000E+00  0.00000000E+00  0.00000000E+00
  0.00000000E+00  0.00000000E+00  0.00000000E+00
  0.00000000E+00  0.00000000E+00  0.00000000E+00
  0.00000000E+00  0.00000000E+00  0.00000000E+00
  0.00000000E+00  0.00000000E+00  0.00000000E+00
  0.00000000E+00  0.00000000E+00  0.00000000E+00
  0.00000000E+00  0.00000000E+00  0.00000000E+00
  0.00000000E+00  0.00000000E+00  0.00000000E+00
  0.00000000E+00  0.00000000E+00  0.00000000E+00
  0.00000000E+00  0.00000000E+00  0.00000000E+00
  0.00000000E+00  0.00000000E+00  0.00000000E+00
  0.00000000E+00  0.00000000E+00  0.00000000E+00
  0.00000000E+00  0.00000000E+00  0.00000000E+00
  0.00000000E+00  0.00000000E+00  0.00000000E+00
  0.00000000E+00  0.00000000E+00  0.00000000E+00
  0.00000000E+00  0.00000000E+00  0.00000000E+00
  0.00000000E+00  0.00000000E+00  0.00000000E+00
  0.00000000E+00  0.00000000E+00  0.00000000E+00
  0.00000000E+00  0.00000000E+00  0.00000000E+00
  0.00000000E+00  0.00000000E+00  0.00000000E+00
  0.00000000E+00  0.00000000E+00  0.00000000E+00
  0.00000000E+00  0.00000000E+00  0.00000000E+00
  0.00000000E+00  0.00000000E+00  0.00000000E+00
  0.00000000E+00  0.00000000E+00  0.00000000E+00
  0.00000000E+00  0.00000000E+00  0.00000000E+00
  0.00000000E+00  0.00000000E+00  0.00000000E+00
  0.00000000E+00  0.00000000E+00  0.00000000E+00
  0.00000000E+00  0.00000000E+00  0.00000000E+00
  0.00000000E+00  0.00000000E+00  0.00000000E+00
  0.00000000E+00  0.00000000E+00  0.00000000E+00
  0.00000000E+00  0.00000000E+00  0.00000000E+00
  0.00000000E+00  0.00000000E+00  0.00000000E+00
  0.00000000E+00  0.00000000E+00  0.00000000E+00
  0.00000000E+00  0.00000000E+00  0.00000000E+00
  0.00000000E+00  0.00000000E+00  0.00000000E+00
  0.00000000E+00  0.00000000E+00  0.00000000E+00
