Nb Ta                                   
    1.000000000000000     
    13.2465627669920902    0.0026560845518861   -0.0040446362967455
     0.0026551205067169   13.2432888856601174   -0.0037744345953304
    -0.0040446537039907   -0.0037756595990735   13.2456582269144221
   Nb   Ta
    96    32
Direct
  0.8758233121610511  0.6245759775333521  0.1245154406204633
  0.2503437481518007  0.5003792441476062 -0.0005938341221935
  0.7484419944646300  0.2487366721129885  0.7493830203938783
  0.1264761510168977  0.3760080672458270  0.1247993670264585
  0.8748582599588506  0.8746254708394745  0.8750317200460068
  0.2517049566847940  0.5007225739727448  0.2503583852586584
  0.1239758155306797  0.1255823531267032  0.8749462269590954
  0.4996808105637701  0.2527310491293175  0.5007067498082995
  0.1273458312025119  0.6248694617889324  0.6254277922333349
  0.7528048312520701  0.2493168755285870  0.2507050925769015
  0.6269914162850769  0.1245068272330090  0.8755194686556012
  0.5000529418753399  0.7507993543779478 -0.0002585691729912
  0.6276954029607479  0.6265438767851619  0.3755204545442294
  0.0005110420480958  0.4988756765100661  0.2509982515179798
 -0.0003001606611947  0.7493420313179682  0.5010686237428003
  0.3758584157134330  0.1238020077639247  0.6252003544024213
  0.3751929607890400  0.6245822514666670  0.1237057550307967
  0.0004709372932201  0.4987524681554478  0.0001608893406172
  0.6241562830396107  0.6250992558375036  0.6254176321403401
  0.1255553763990349  0.3741524365958757  0.6252020193838944
  0.6240690545946529  0.8763966944858526  0.1258002503816873
  0.8741668538225907  0.6250275411190220  0.6252755397573502
  0.1248335986591453  0.8751469288973888  0.1263692071595595
  0.3756610006571199  0.3749592926699257  0.1245449880652097
  0.1268999011612335  0.8749032400052464  0.6231961832819712
  0.0001434610175519  0.7495492818184585  0.2491290628822949
  0.2498724509507996  0.2501494951779824  0.0011573291086984
  0.7496215265179451  0.4992972827139402  0.0001154746931412
  0.8760031038743035  0.8744658637829256  0.1240633117428571
  0.2498228396306748  0.5000201982485581  0.7503821710835719
  0.7495631716196729  0.4982663012483776  0.5008325944573748
  0.2493205109359493  0.7514725329418644  0.7512251874185780
 -0.0002280487457381  0.2508005182479259  0.4981596039022834
 -0.0001766729410645  0.0012539860880164  0.2498680705415206
  0.2505695375586572  0.2486132405163799  0.7484695889676177
  0.0006182861458008  0.5008521882588941  0.7479147579584203
  0.3739581741921449  0.6265127385692623  0.3767477937161958
  0.1248789011544515  0.3756881262013735  0.3749213338640007
  0.3744349934236373  0.3748406578351791  0.3750543092075254
  0.2498293320848132  0.4982814450824342  0.4999705829845982
  0.3747687174488514  0.8741381765911190  0.8736410682445087
  0.6254646440035585  0.8745403225090471  0.8754165960524636
  0.1230452739031877  0.6260647995651765  0.3743062209443595
  0.0012049764865597  0.2505934645280494  0.7510019389180025
  0.3742897378820503  0.3754045928405579  0.8747108432456193
  0.5012765915483647  0.0010083870859733  0.5017731443216304
  0.6265001533375306  0.6249661821969997  0.8755187155968405
  0.6243843248489790  0.3747139241101391  0.6252136704345200
  0.8764038519761682  0.8725924405992704  0.3750973579615877
  0.4996161589530569  0.2505370859553170  0.7518152408688833
  0.3774209896676941  0.1231971696006563  0.3757679328102557
  0.1237926451139310  0.3746296348833759  0.8752464120694574
  0.7481860025214206  0.5023804849371331  0.2502970810563515
  0.6234095872343708  0.1253461918887558  0.6236410118269462
  0.5001537303143629  0.5001848509003378  0.7491876169415325
  0.8754009593420838  0.8737846092107238  0.6256559578924005
  0.1243434262407059  0.1257722645820639  0.6251048325397369
  0.3758600568850569  0.1256512312470575  0.1245771866995352
  0.1229718264641985  0.6250631446863011  0.8755203344685697
  0.7492338620960364  0.5008453401092059  0.7489300598541981
  0.1244744884215416  0.6244322610555542  0.1250382324580677
  0.5000401082181587 -0.0003279786918836  0.7519712665509766
  0.0002922600187729  0.7497160853408233  0.7502018296618944
  0.0000272456981732  0.7509826129294539 -0.0000777836516447
  0.7496392925619272  0.0004165262558953 -0.0004784771749432
  0.8730958395437148  0.1242563530125915  0.1238736864764869
  0.6258252036684454  0.3726523128724191  0.3731540463881530
  0.3752016276072159  0.6249202518971563  0.8733033398094051
  0.8747741475587005  0.3769234305718354  0.3749022792545316
  0.2502056074574049  0.7500004358212875  0.0012699952799585
  0.6259950880529646  0.3760850226060758  0.8758342091127392
  0.3748212481518132  0.3766952615366632  0.6258132426231584
  0.6225114771859208  0.8749914697045572  0.6232341338592028
  0.8735220369998908  0.3766811774121566  0.1242506775549043
  0.4970857746103165  0.2519690987675087  0.2491553680257301
  0.1250811459032513  0.8747757842534467  0.8755032500263388
  0.8753007701419394  0.3746798255734038  0.6269176393101424
  0.4987704299699472 -0.0009797296807829  0.2475716349787795
  0.5004534200661533  0.7495929936746261  0.7511598644019216
  0.1260236769060431  0.1244585280600004  0.1242192104920847
  0.7500770811172922  0.7514908131170890  0.4995268157677441
  0.8747978335118390  0.1258540204538738  0.3746713806529161
  0.3737904921185127  0.1256104314739259  0.8746233154416670
  0.2503624884693298 -0.0004993142063359 -0.0005184343821354
  0.2490924503408678  0.7489335132883167  0.4985712229112820
  0.7499023893455087  0.7516136021100788  0.7500256326921643
  0.2484707437528618  0.0023344641551661  0.5008686568560118
  0.8763599411129546  0.1263663167924521  0.6275269585851149
  0.0006459039073925 -0.0014387712763079  0.7499347346024445
  0.5011057109580682  0.7470766272484973  0.4999924689649856
  0.6245920937626998  0.6235080547416484  0.1239428217220175
  0.1240549237052765  0.1232249058011380  0.3753675424415538
  0.7498204635870362  0.7499603400652708  0.0016038292012118
  0.3752193063454659  0.8747039006018633  0.1254205623027421
  0.4996588303753597  0.4989409661811603  0.0003701643777390
  0.4998733659206305  0.7474777312616930  0.2489061685778512
  0.7513737582096566 -0.0029912959091806  0.2518004550349587
 -0.0024088226096950  0.0001811262687080  0.5007397403920504
 -0.0011374432362467  0.2492934969777026  0.0023724954136146
  0.4996434830601217  0.5011648768806967  0.2524260722786111
  0.0018943478808939  0.2506288002584038  0.2479016133187751
  0.7500729488631279  0.2503281372926987 -0.0004790946785207
  0.0000819326831122  0.4998284247332083  0.5012825593227122
  0.1256046677089240  0.8753928877364041  0.3748506798854286
  0.8751647697344672  0.6235341519917719  0.8751516729770810
  0.2503739851480549  0.0001918711572535  0.2495950771564863
  0.5005608306530998  0.4996787319879565  0.4982292440789397
  0.7491994141566272 -0.0011380340623688  0.7474970978022480
  0.2484355553881351  0.2482304739542069  0.2517968868486490
  0.8750289822027220  0.1259127545986096  0.8734968981523279
  0.6252724127128110  0.1267952014192940  0.1280102379923947
  0.4998891275302286  0.0013136931783660 -0.0011201637952358
  0.0002899245088115  0.0009834114498214 -0.0006872059007738
  0.6240168136818944  0.1241279842664948  0.3726420999344760
  0.7503631919800796  0.2486727208807879  0.5002981452552588
  0.5011253259643412  0.2490423084684298 -0.0013004812938955
  0.6246243824510541  0.3734077040436363  0.1263000102267150
  0.7494942717017971  0.7517316366849760  0.2488701996260254
  0.2500275500645582 -0.0004301801360304  0.7498238786288633
  0.2504427381309280  0.7507588231852017  0.2491159588372829
  0.3754220323761996  0.8753737023409497  0.3775294561888607
  0.3750085662649987  0.8732319661174139  0.6234344882970377
  0.2503435334516440  0.2499383277883143  0.4986557756343294
  0.3743649428748961  0.6260592513109755  0.6259365033277881
  0.7524794886830186  0.0013976421970838  0.5004825187892924
  0.8754539135598944  0.3756714075045875  0.8738876668816081
  0.6224573640978922  0.8766828794432696  0.3753046926041669
  0.8748412837365881  0.6250100078026645  0.3750679303207971
 
  0.00000000E+00  0.00000000E+00  0.00000000E+00
  0.00000000E+00  0.00000000E+00  0.00000000E+00
  0.00000000E+00  0.00000000E+00  0.00000000E+00
  0.00000000E+00  0.00000000E+00  0.00000000E+00
  0.00000000E+00  0.00000000E+00  0.00000000E+00
  0.00000000E+00  0.00000000E+00  0.00000000E+00
  0.00000000E+00  0.00000000E+00  0.00000000E+00
  0.00000000E+00  0.00000000E+00  0.00000000E+00
  0.00000000E+00  0.00000000E+00  0.00000000E+00
  0.00000000E+00  0.00000000E+00  0.00000000E+00
  0.00000000E+00  0.00000000E+00  0.00000000E+00
  0.00000000E+00  0.00000000E+00  0.00000000E+00
  0.00000000E+00  0.00000000E+00  0.00000000E+00
  0.00000000E+00  0.00000000E+00  0.00000000E+00
  0.00000000E+00  0.00000000E+00  0.00000000E+00
  0.00000000E+00  0.00000000E+00  0.00000000E+00
  0.00000000E+00  0.00000000E+00  0.00000000E+00
  0.00000000E+00  0.00000000E+00  0.00000000E+00
  0.00000000E+00  0.00000000E+00  0.00000000E+00
  0.00000000E+00  0.00000000E+00  0.00000000E+00
  0.00000000E+00  0.00000000E+00  0.00000000E+00
  0.00000000E+00  0.00000000E+00  0.00000000E+00
  0.00000000E+00  0.00000000E+00  0.00000000E+00
  0.00000000E+00  0.00000000E+00  0.00000000E+00
  0.00000000E+00  0.00000000E+00  0.00000000E+00
  0.00000000E+00  0.00000000E+00  0.00000000E+00
  0.00000000E+00  0.00000000E+00  0.00000000E+00
  0.00000000E+00  0.00000000E+00  0.00000000E+00
  0.00000000E+00  0.00000000E+00  0.00000000E+00
  0.00000000E+00  0.00000000E+00  0.00000000E+00
  0.00000000E+00  0.00000000E+00  0.00000000E+00
  0.00000000E+00  0.00000000E+00  0.00000000E+00
  0.00000000E+00  0.00000000E+00  0.00000000E+00
  0.00000000E+00  0.00000000E+00  0.00000000E+00
  0.00000000E+00  0.00000000E+00  0.00000000E+00
  0.00000000E+00  0.00000000E+00  0.00000000E+00
  0.00000000E+00  0.00000000E+00  0.00000000E+00
  0.00000000E+00  0.00000000E+00  0.00000000E+00
  0.00000000E+00  0.00000000E+00  0.00000000E+00
  0.00000000E+00  0.00000000E+00  0.00000000E+00
  0.00000000E+00  0.00000000E+00  0.00000000E+00
  0.00000000E+00  0.00000000E+00  0.00000000E+00
  0.00000000E+00  0.00000000E+00  0.00000000E+00
  0.00000000E+00  0.00000000E+00  0.00000000E+00
  0.00000000E+00  0.00000000E+00  0.00000000E+00
  0.00000000E+00  0.00000000E+00  0.00000000E+00
  0.00000000E+00  0.00000000E+00  0.00000000E+00
  0.00000000E+00  0.00000000E+00  0.00000000E+00
  0.00000000E+00  0.00000000E+00  0.00000000E+00
  0.00000000E+00  0.00000000E+00  0.00000000E+00
  0.00000000E+00  0.00000000E+00  0.00000000E+00
  0.00000000E+00  0.00000000E+00  0.00000000E+00
  0.00000000E+00  0.00000000E+00  0.00000000E+00
  0.00000000E+00  0.00000000E+00  0.00000000E+00
  0.00000000E+00  0.00000000E+00  0.00000000E+00
  0.00000000E+00  0.00000000E+00  0.00000000E+00
  0.00000000E+00  0.00000000E+00  0.00000000E+00
  0.00000000E+00  0.00000000E+00  0.00000000E+00
  0.00000000E+00  0.00000000E+00  0.00000000E+00
  0.00000000E+00  0.00000000E+00  0.00000000E+00
  0.00000000E+00  0.00000000E+00  0.00000000E+00
  0.00000000E+00  0.00000000E+00  0.00000000E+00
  0.00000000E+00  0.00000000E+00  0.00000000E+00
  0.00000000E+00  0.00000000E+00  0.00000000E+00
  0.00000000E+00  0.00000000E+00  0.00000000E+00
  0.00000000E+00  0.00000000E+00  0.00000000E+00
  0.00000000E+00  0.00000000E+00  0.00000000E+00
  0.00000000E+00  0.00000000E+00  0.00000000E+00
  0.00000000E+00  0.00000000E+00  0.00000000E+00
  0.00000000E+00  0.00000000E+00  0.00000000E+00
  0.00000000E+00  0.00000000E+00  0.00000000E+00
  0.00000000E+00  0.00000000E+00  0.00000000E+00
  0.00000000E+00  0.00000000E+00  0.00000000E+00
  0.00000000E+00  0.00000000E+00  0.00000000E+00
  0.00000000E+00  0.00000000E+00  0.00000000E+00
  0.00000000E+00  0.00000000E+00  0.00000000E+00
  0.00000000E+00  0.00000000E+00  0.00000000E+00
  0.00000000E+00  0.00000000E+00  0.00000000E+00
  0.00000000E+00  0.00000000E+00  0.00000000E+00
  0.00000000E+00  0.00000000E+00  0.00000000E+00
  0.00000000E+00  0.00000000E+00  0.00000000E+00
  0.00000000E+00  0.00000000E+00  0.00000000E+00
  0.00000000E+00  0.00000000E+00  0.00000000E+00
  0.00000000E+00  0.00000000E+00  0.00000000E+00
  0.00000000E+00  0.00000000E+00  0.00000000E+00
  0.00000000E+00  0.00000000E+00  0.00000000E+00
  0.00000000E+00  0.00000000E+00  0.00000000E+00
  0.00000000E+00  0.00000000E+00  0.00000000E+00
  0.00000000E+00  0.00000000E+00  0.00000000E+00
  0.00000000E+00  0.00000000E+00  0.00000000E+00
  0.00000000E+00  0.00000000E+00  0.00000000E+00
  0.00000000E+00  0.00000000E+00  0.00000000E+00
  0.00000000E+00  0.00000000E+00  0.00000000E+00
  0.00000000E+00  0.00000000E+00  0.00000000E+00
  0.00000000E+00  0.00000000E+00  0.00000000E+00
  0.00000000E+00  0.00000000E+00  0.00000000E+00
  0.00000000E+00  0.00000000E+00  0.00000000E+00
  0.00000000E+00  0.00000000E+00  0.00000000E+00
  0.00000000E+00  0.00000000E+00  0.00000000E+00
  0.00000000E+00  0.00000000E+00  0.00000000E+00
  0.00000000E+00  0.00000000E+00  0.00000000E+00
  0.00000000E+00  0.00000000E+00  0.00000000E+00
  0.00000000E+00  0.00000000E+00  0.00000000E+00
  0.00000000E+00  0.00000000E+00  0.00000000E+00
  0.00000000E+00  0.00000000E+00  0.00000000E+00
  0.00000000E+00  0.00000000E+00  0.00000000E+00
  0.00000000E+00  0.00000000E+00  0.00000000E+00
  0.00000000E+00  0.00000000E+00  0.00000000E+00
  0.00000000E+00  0.00000000E+00  0.00000000E+00
  0.00000000E+00  0.00000000E+00  0.00000000E+00
  0.00000000E+00  0.00000000E+00  0.00000000E+00
  0.00000000E+00  0.00000000E+00  0.00000000E+00
  0.00000000E+00  0.00000000E+00  0.00000000E+00
  0.00000000E+00  0.00000000E+00  0.00000000E+00
  0.00000000E+00  0.00000000E+00  0.00000000E+00
  0.00000000E+00  0.00000000E+00  0.00000000E+00
  0.00000000E+00  0.00000000E+00  0.00000000E+00
  0.00000000E+00  0.00000000E+00  0.00000000E+00
  0.00000000E+00  0.00000000E+00  0.00000000E+00
  0.00000000E+00  0.00000000E+00  0.00000000E+00
  0.00000000E+00  0.00000000E+00  0.00000000E+00
  0.00000000E+00  0.00000000E+00  0.00000000E+00
  0.00000000E+00  0.00000000E+00  0.00000000E+00
  0.00000000E+00  0.00000000E+00  0.00000000E+00
  0.00000000E+00  0.00000000E+00  0.00000000E+00
  0.00000000E+00  0.00000000E+00  0.00000000E+00
  0.00000000E+00  0.00000000E+00  0.00000000E+00
  0.00000000E+00  0.00000000E+00  0.00000000E+00
