Nb                                      
    1.000000000000000     
    13.2263137112633586   -0.0000000205414984   -0.0000000189307807
    -0.0000000213226880   13.2263141345307549   -0.0000000304511870
    -0.0000000191140090   -0.0000000299252521   13.2263139359164033
   Nb
   128
Direct
 -0.0000000415119859  0.7499999682773451  0.4999999933968549
  0.2500001260525914  0.2500000369587125  0.2500000564759667
  0.2500000404351857  0.2500000399324562  0.0000000678282455
  0.3750056091778704  0.3750055128775615  0.3750055100246598
  0.5000000045637455  0.2500000129495126  0.2499999849666479
  0.2500002106920189  0.7499999566111233  0.4999999419414534
  0.7499997987527932  0.2499999364370455  0.2500000558552033
  0.7499998961763635  0.7500000004816920  0.4999999240260666
  0.6249943462665380  0.1249943661342359  0.1249945011914003
  0.8750054614693492  0.6249943951262296  0.1249943807508897
  0.8750054367430620  0.3750055916870773  0.3750055088683428
  0.0000000569872695  0.5000000286302256  0.2499999442100610
 -0.0000000090999540  0.7500000320301911 -0.0000000632327489
  0.1249946084030898  0.6249944954692896  0.3750055310194405
  0.4999999330454865  0.5000000882359207  0.4999998820837273
  0.2500001663552913  0.5000000661472931  0.2499999540183805
  0.2500000168211463  0.7499999394290275  0.0000000882942617
  0.6249943950280442  0.6249945064156589  0.3750054386063994
  0.7499998235250986  0.5000000988800287  0.2500000164537728
  0.6249943571247855  0.3750055880478688  0.1249944731308075
  0.3750056836754642  0.8750056019931438  0.1249945246157530
  0.8750054160694277  0.6249944205971649  0.3750055416057113
  0.0000000080886916  0.7500000026894742  0.2499999609508277
  0.1249946041286402  0.8750055120068478  0.3750055590009156
  0.2500001378237997  0.7499998794624932  0.2500000761851401
  0.7499999251197159  0.2499999424003925 -0.0000000008011223
  0.6249943884983949  0.8750056883912820  0.1249945017963363
  0.3750055682976736  0.8750054108267331  0.3750055484484181
  0.5000000323324926  0.7499998584449415  0.2500000380119939
  0.1249944492116453  0.8750056651267500  0.1249944169946267
  0.6249944065128735  0.8750054709808981  0.3750054486625763
  0.3750055731837728  0.6249946050301779  0.6249943859926615
  0.5000000148824671  0.5000000458701634  0.0000001034840921
  0.8750054787335484  0.3750056296973232  0.1249943197337621
  0.8750054128228739  0.8750055324519691  0.3750055246260997
 -0.0000000291086695 -0.0000000266897396  0.4999999862413885
 -0.0000000078185742 -0.0000000325323986  0.2499998420124934
  0.0000000195752287  0.4999999986337444 -0.0000000433623165
  0.1249946367135643  0.1249944470049710  0.3750055161803600
  0.4999999913922830  0.0000000142019666  0.5000000192044797
  0.2500000487533495  0.0000000311446440  0.2499999261199395
  0.1249945410726284  0.6249943598151115  0.1249944271834570
  0.3750055712814532  0.1249945377710970  0.3750055250464573
  0.5000000972672638 -0.0000000082325489  0.2499998748737035
  0.1249945657276780  0.3750055263265462  0.6249944310560710
  0.2500001303569844  0.5000000013403059  0.7500000400658722
  0.1249945718614992  0.3750055491192864  0.3750055141564543
  0.1249943789780819  0.6249943991104094  0.8750056192305394
  0.6249944384665879  0.1249944901767178  0.3750054080328955
  0.7499998886653294 -0.0000000232437127  0.2499999070793540
  0.6249944550560647  0.3750055039529034  0.6249944301536108
  0.4999999107573883  0.2500000251087052  0.7499999517286402
  0.3750056235530859  0.3750056212582024  0.8750055786909593
  0.7499998802247546  0.2499999438187596  0.4999999543316462
  0.5000001219737600  0.0000000299460492  0.0000001580360001
  0.1249944953800963  0.3750056086964956  0.1249943924801789
  0.3750056966718065  0.6249944278390858  0.1249945489133396
  0.8750053526944029  0.1249944581265718  0.3750055446337884
  0.6249944812635828  0.1249943799226467  0.8750057137321904
 -0.0000000211923263  0.5000000375402782  0.4999998973839178
  0.0000000727764242  0.2499999993841474  0.2499999741556533
  0.2500001553514798  0.2499999642306305  0.4999999718550028
  0.7499998138782538  0.7499999892943333  0.2500000873572603
  0.1249945224343277  0.1249943647879144  0.1249943698080600
  0.8750054650030371  0.8750056848632275  0.1249943527069989
  0.7499999293594960 -0.0000000054310865  0.4999999542492952
  0.8750054823422544  0.6249943701895321  0.8750055474860536
  0.4999999265545741  0.2500000169494613  0.4999999720200667
  0.2500001465334750  0.2500000244210438  0.7499999242760023
  0.5000000057986723  0.2500000392491731  0.0000000918558156
  0.5000000201288390  0.0000000044496001  0.7499999633620952
  0.8750054373891322  0.6249945260776349  0.6249945282334417
  0.3750055464025289  0.8750054377780224  0.6249943763041723
  0.6249943944156582  0.8750054761686124  0.6249944294225762
  0.1249943694379934  0.1249943749824204  0.8750056759508327
  0.8750055636351004  0.1249943585239878  0.8750056545478813
  0.8750055312913486  0.3750056789510134  0.8750056070602339
  0.6249944825663768  0.6249944115807958  0.8750056218655724
  0.6249944692417775  0.8750055565178966  0.8750055995373647
  0.2500001226933299  0.7499999639213805  0.7499999102637810
  0.3750055091937358  0.1249944460170539  0.6249943646807125
 -0.0000001356923844  0.7500000361934278  0.7500001107502515
  0.8750054493281746  0.3750055625090380  0.6249945456154550
  0.7500000205026912 -0.0000000506918216  0.7500000891077103
  0.8750054617010756  0.8750054779099825  0.6249945496376461
 -0.0000001060093331 -0.0000000635847127  0.7500002023147642
  0.7499999547642707  0.2500000131807888  0.7499999879052145
  0.1249943372434729  0.8750055978563378  0.8750055725349324
  0.2500001191641533  0.0000000302535658  0.5000000466796457
  0.3750056771514844  0.6249943974130436  0.8750055095248098
  0.1249945755254261  0.8750055245731940  0.6249944272862288
  0.6249944743738193  0.3750056656530533  0.8750056484459596
  0.1249946275472334  0.1249944289795602  0.6249944291779264
  0.7499999980158842  0.7499999784575336  0.7500000049084781
 -0.0000000747314815 -0.0000000195652043 -0.0000000002058868
  0.8750055492565446  0.8750056114498806  0.8750055669055582
  0.4999999990699251  0.7499999397649340  0.7499999248842389
  0.6249944054683800  0.1249944730497093  0.6249944043061846
  0.7499999370452930  0.7499999982257983 -0.0000000370365999
  0.8750054502675315  0.1249944137701581  0.6249944680298443
  0.0000000350705171  0.2500000138483389  0.4999999810798010
  0.3750055665979850  0.3750055192468140  0.6249944175973572
  0.5000000361495819  0.7499998730724350  0.0000000987232316
  0.4999999367375833  0.5000000530263267  0.7500000826978064
  0.7500000076806410 -0.0000000085535025  0.0000000404716981
  0.1249945973197895  0.6249944935392401  0.6249944338863023
  0.2500001788795062  0.5000000701272845  0.4999999132318914
  0.4999999773632580  0.5000001047988816  0.2499999449660677
  0.3750056114492382  0.6249945320837131  0.3750055579888485
  0.6249943891927160  0.6249945440112605  0.6249944610980238
  0.7499999121878547  0.5000000776209969  0.4999999115025298
  0.2499999251068902  0.0000000347748477  0.0000000995748399
  0.3750056633197592  0.3750055786159403  0.1249944761121135
  0.4999999381598695  0.7499998841037997  0.4999999128828915
  0.6249944183265445  0.3750055228616742  0.3750054605898256
  0.7499998971949100  0.5000000443538258 -0.0000000623866039
  0.6249943079778615  0.6249943732984796  0.1249944887254753
  0.2500000409297484  0.0000000267442143  0.7499999467257946
  0.3750056011651599  0.1249944654847396  0.8750056002174290
 -0.0000000256013197  0.2499999870880897  0.7500001416405842
  0.1249943813571293  0.3750056231203599  0.8750056345068259
 -0.0000000675184021  0.5000000429328031  0.7500001934233436
  0.2500000653895534  0.5000000081561268  0.0000000849868603
  0.7499999784774111  0.5000000608326872  0.7500001418154326
  0.0000000256561064  0.2499999699048344 -0.0000000884431365
  0.3750056141120236  0.8750055128255082  0.8750055220702532
  0.8750054392048057  0.1249942742759646  0.1249943538627715
  0.3750056857367282  0.1249943926149048  0.1249945202574633
 
  0.00000000E+00  0.00000000E+00  0.00000000E+00
  0.00000000E+00  0.00000000E+00  0.00000000E+00
  0.00000000E+00  0.00000000E+00  0.00000000E+00
  0.00000000E+00  0.00000000E+00  0.00000000E+00
  0.00000000E+00  0.00000000E+00  0.00000000E+00
  0.00000000E+00  0.00000000E+00  0.00000000E+00
  0.00000000E+00  0.00000000E+00  0.00000000E+00
  0.00000000E+00  0.00000000E+00  0.00000000E+00
  0.00000000E+00  0.00000000E+00  0.00000000E+00
  0.00000000E+00  0.00000000E+00  0.00000000E+00
  0.00000000E+00  0.00000000E+00  0.00000000E+00
  0.00000000E+00  0.00000000E+00  0.00000000E+00
  0.00000000E+00  0.00000000E+00  0.00000000E+00
  0.00000000E+00  0.00000000E+00  0.00000000E+00
  0.00000000E+00  0.00000000E+00  0.00000000E+00
  0.00000000E+00  0.00000000E+00  0.00000000E+00
  0.00000000E+00  0.00000000E+00  0.00000000E+00
  0.00000000E+00  0.00000000E+00  0.00000000E+00
  0.00000000E+00  0.00000000E+00  0.00000000E+00
  0.00000000E+00  0.00000000E+00  0.00000000E+00
  0.00000000E+00  0.00000000E+00  0.00000000E+00
  0.00000000E+00  0.00000000E+00  0.00000000E+00
  0.00000000E+00  0.00000000E+00  0.00000000E+00
  0.00000000E+00  0.00000000E+00  0.00000000E+00
  0.00000000E+00  0.00000000E+00  0.00000000E+00
  0.00000000E+00  0.00000000E+00  0.00000000E+00
  0.00000000E+00  0.00000000E+00  0.00000000E+00
  0.00000000E+00  0.00000000E+00  0.00000000E+00
  0.00000000E+00  0.00000000E+00  0.00000000E+00
  0.00000000E+00  0.00000000E+00  0.00000000E+00
  0.00000000E+00  0.00000000E+00  0.00000000E+00
  0.00000000E+00  0.00000000E+00  0.00000000E+00
  0.00000000E+00  0.00000000E+00  0.00000000E+00
  0.00000000E+00  0.00000000E+00  0.00000000E+00
  0.00000000E+00  0.00000000E+00  0.00000000E+00
  0.00000000E+00  0.00000000E+00  0.00000000E+00
  0.00000000E+00  0.00000000E+00  0.00000000E+00
  0.00000000E+00  0.00000000E+00  0.00000000E+00
  0.00000000E+00  0.00000000E+00  0.00000000E+00
  0.00000000E+00  0.00000000E+00  0.00000000E+00
  0.00000000E+00  0.00000000E+00  0.00000000E+00
  0.00000000E+00  0.00000000E+00  0.00000000E+00
  0.00000000E+00  0.00000000E+00  0.00000000E+00
  0.00000000E+00  0.00000000E+00  0.00000000E+00
  0.00000000E+00  0.00000000E+00  0.00000000E+00
  0.00000000E+00  0.00000000E+00  0.00000000E+00
  0.00000000E+00  0.00000000E+00  0.00000000E+00
  0.00000000E+00  0.00000000E+00  0.00000000E+00
  0.00000000E+00  0.00000000E+00  0.00000000E+00
  0.00000000E+00  0.00000000E+00  0.00000000E+00
  0.00000000E+00  0.00000000E+00  0.00000000E+00
  0.00000000E+00  0.00000000E+00  0.00000000E+00
  0.00000000E+00  0.00000000E+00  0.00000000E+00
  0.00000000E+00  0.00000000E+00  0.00000000E+00
  0.00000000E+00  0.00000000E+00  0.00000000E+00
  0.00000000E+00  0.00000000E+00  0.00000000E+00
  0.00000000E+00  0.00000000E+00  0.00000000E+00
  0.00000000E+00  0.00000000E+00  0.00000000E+00
  0.00000000E+00  0.00000000E+00  0.00000000E+00
  0.00000000E+00  0.00000000E+00  0.00000000E+00
  0.00000000E+00  0.00000000E+00  0.00000000E+00
  0.00000000E+00  0.00000000E+00  0.00000000E+00
  0.00000000E+00  0.00000000E+00  0.00000000E+00
  0.00000000E+00  0.00000000E+00  0.00000000E+00
  0.00000000E+00  0.00000000E+00  0.00000000E+00
  0.00000000E+00  0.00000000E+00  0.00000000E+00
  0.00000000E+00  0.00000000E+00  0.00000000E+00
  0.00000000E+00  0.00000000E+00  0.00000000E+00
  0.00000000E+00  0.00000000E+00  0.00000000E+00
  0.00000000E+00  0.00000000E+00  0.00000000E+00
  0.00000000E+00  0.00000000E+00  0.00000000E+00
  0.00000000E+00  0.00000000E+00  0.00000000E+00
  0.00000000E+00  0.00000000E+00  0.00000000E+00
  0.00000000E+00  0.00000000E+00  0.00000000E+00
  0.00000000E+00  0.00000000E+00  0.00000000E+00
  0.00000000E+00  0.00000000E+00  0.00000000E+00
  0.00000000E+00  0.00000000E+00  0.00000000E+00
  0.00000000E+00  0.00000000E+00  0.00000000E+00
  0.00000000E+00  0.00000000E+00  0.00000000E+00
  0.00000000E+00  0.00000000E+00  0.00000000E+00
  0.00000000E+00  0.00000000E+00  0.00000000E+00
  0.00000000E+00  0.00000000E+00  0.00000000E+00
  0.00000000E+00  0.00000000E+00  0.00000000E+00
  0.00000000E+00  0.00000000E+00  0.00000000E+00
  0.00000000E+00  0.00000000E+00  0.00000000E+00
  0.00000000E+00  0.00000000E+00  0.00000000E+00
  0.00000000E+00  0.00000000E+00  0.00000000E+00
  0.00000000E+00  0.00000000E+00  0.00000000E+00
  0.00000000E+00  0.00000000E+00  0.00000000E+00
  0.00000000E+00  0.00000000E+00  0.00000000E+00
  0.00000000E+00  0.00000000E+00  0.00000000E+00
  0.00000000E+00  0.00000000E+00  0.00000000E+00
  0.00000000E+00  0.00000000E+00  0.00000000E+00
  0.00000000E+00  0.00000000E+00  0.00000000E+00
  0.00000000E+00  0.00000000E+00  0.00000000E+00
  0.00000000E+00  0.00000000E+00  0.00000000E+00
  0.00000000E+00  0.00000000E+00  0.00000000E+00
  0.00000000E+00  0.00000000E+00  0.00000000E+00
  0.00000000E+00  0.00000000E+00  0.00000000E+00
  0.00000000E+00  0.00000000E+00  0.00000000E+00
  0.00000000E+00  0.00000000E+00  0.00000000E+00
  0.00000000E+00  0.00000000E+00  0.00000000E+00
  0.00000000E+00  0.00000000E+00  0.00000000E+00
  0.00000000E+00  0.00000000E+00  0.00000000E+00
  0.00000000E+00  0.00000000E+00  0.00000000E+00
  0.00000000E+00  0.00000000E+00  0.00000000E+00
  0.00000000E+00  0.00000000E+00  0.00000000E+00
  0.00000000E+00  0.00000000E+00  0.00000000E+00
  0.00000000E+00  0.00000000E+00  0.00000000E+00
  0.00000000E+00  0.00000000E+00  0.00000000E+00
  0.00000000E+00  0.00000000E+00  0.00000000E+00
  0.00000000E+00  0.00000000E+00  0.00000000E+00
  0.00000000E+00  0.00000000E+00  0.00000000E+00
  0.00000000E+00  0.00000000E+00  0.00000000E+00
  0.00000000E+00  0.00000000E+00  0.00000000E+00
  0.00000000E+00  0.00000000E+00  0.00000000E+00
  0.00000000E+00  0.00000000E+00  0.00000000E+00
  0.00000000E+00  0.00000000E+00  0.00000000E+00
  0.00000000E+00  0.00000000E+00  0.00000000E+00
  0.00000000E+00  0.00000000E+00  0.00000000E+00
  0.00000000E+00  0.00000000E+00  0.00000000E+00
  0.00000000E+00  0.00000000E+00  0.00000000E+00
  0.00000000E+00  0.00000000E+00  0.00000000E+00
  0.00000000E+00  0.00000000E+00  0.00000000E+00
  0.00000000E+00  0.00000000E+00  0.00000000E+00
  0.00000000E+00  0.00000000E+00  0.00000000E+00
  0.00000000E+00  0.00000000E+00  0.00000000E+00
  0.00000000E+00  0.00000000E+00  0.00000000E+00
