Nb Ta                                   
    1.000000000000000     
    13.2584624295870199   -0.0011163341041608    0.0013298216837206
    -0.0011162892500717   13.2585546189721075   -0.0000598014208737
     0.0013298858997409   -0.0000599024640474   13.2573331633333691
   Nb   Ta
    60    68
Direct
  0.0005977028731836  0.4991956779003596  0.2487858484795309
 -0.0006352826853016  0.0004218172570101  0.0019721383980460
  0.2500082110410028  0.7493660358737521  0.0017006698796923
  0.7492496469860379  0.2501932345104678 -0.0019859854099243
  0.1239700604578015  0.8751351012927888  0.6265272702648463
  0.1236170609996445  0.3743742593952579  0.3741173445500797
  0.1272510412408157  0.1255304494371413  0.1267456971844320
  0.0010184018897921  0.2497099372709624  0.0010275081578550
  0.2487275977015097 -0.0021597647097725  0.2515272628586718
  0.1229134511764006  0.1241140020368139  0.8738098763640203
  0.8743172877387535  0.1252687816639891  0.3765129730356905
  0.0013525776173814 -0.0013691439643080  0.4983162308820584
  0.7506961020980512  0.0004736442823571  0.4981549344989403
  0.3750030313670518  0.6253401068986838  0.1233630083250280
  0.0021978628572231  0.7518893136996608  0.2517264727175386
  0.6240507506684830  0.3735665201628099  0.8763011478304163
  0.2495527085506193  0.0015463731698285  0.7490342525668965
 -0.0009201452515339  0.7485682724339778  0.0000825706176013
  0.8757196952438259  0.3738379668633264  0.8753282132124116
  0.4990497666630068 -0.0016934422342831  0.7506546646691963
  0.0004025838078302  0.7491284934881992  0.7481419722897064
  0.8758422141712627  0.6260638958796277  0.1260907183084365
  0.2492483233335263  0.7512366291810537  0.4980584253581695
  0.3751957177638226  0.8748448245348021  0.3737148372885253
  0.4983391900813513  0.4993632799048742  0.2501672663174308
  0.2497610692522814  0.7500735908023408  0.7497168134421501
  0.6249171476415557  0.8765449351697828  0.8727293637726332
  0.5002849919791615  0.2519460228665696  0.7509549355048902
  0.7483725805645969  0.7495909166014902  0.7497316515402302
  0.8738237427766268  0.8737457969773254  0.3743810238434229
  0.1259391062600725  0.6264645964643019  0.8758198400962700
  0.8761754835064313  0.6243168910282921  0.6258484206473190
  0.7501962968083052  0.7505695435021893  0.2494083572532627
  0.3770306706447740  0.1238796227075621  0.8740303392103724
  0.2499481106257264  0.2515840148157431  0.2499763216571292
  0.5003602849657361  0.2509616223214867  0.4985348914316255
  0.7498706763152119  0.0009201779011815  0.7517811532092612
  0.6248850709545944  0.8734480877323315  0.1270238844972263
  0.2500658488093979  0.4992834386530246  0.0008281411296992
  0.3744152092013395  0.1256924346113034  0.3742493559913579
  0.7498090639600932  0.4983424926660993  0.7499948705440086
  0.6257163091470571  0.6242922335204407  0.8752756449708434
  0.6243084348450462  0.6260306679410688  0.6241610343799107
  0.2491477741725941  0.0020066353155194 -0.0007191148359758
  0.1230966884524571  0.6247974489052458  0.3755622727320506
  0.3743877034551386  0.3743832558825558  0.1242546739937231
  0.0009762635500654 -0.0002276527257178  0.7501972363696530
 -0.0004449538901657  0.2505643620664357  0.7500396369667068
  0.0003429568447271  0.5011469495972649  0.5010141712475992
  0.3764395913884171  0.3744913039787562  0.3743948688091837
  0.6253617330562226  0.3738911521929601  0.6249854654012098
  0.7504488598850592  0.2489194591697518  0.2513368884488383
  0.6255398956293506  0.3747731091766862  0.3732129167497832
  0.6246398593183863  0.1274106271308972  0.1250121554907055
  0.1249059860460639  0.8734633770065436  0.1234201136768884
  0.3768940205044246  0.6249321549060972  0.3770292565083224
  0.3751631425809775  0.3745069841770971  0.6261204642324896
  0.1250285533180483  0.8762412606415833  0.3747748430157137
  0.8749021355183124  0.1264054465371030  0.1222606250037625
  0.3752706078550819  0.8744233264240273  0.6274157717614154
  0.5027521533690323 -0.0000410999229352  0.0009913656850745
 -0.0012370075521361  0.0014110963177134  0.2492859395193366
  0.8753182440561103  0.3774024072008333  0.3744398780574554
  0.3767238826488222  0.1262540851816937  0.6255563145482863
  0.1242057826117763  0.3763531313279462  0.1238964451974109
  0.6254050207586146  0.6266645141875397  0.3726213477975474
  0.6237142358608904  0.1233703209018870  0.6241619742077039
  0.8769298682919416  0.8747876591809420  0.8748222319283309
  0.8763533364902270  0.8735218588203206  0.1234191153778537
  0.3734406161679442  0.8771497710586091  0.1229270828930375
  0.2493497760485447  0.2511686227491895  0.5011074527961809
  0.2492174125520795  0.4987684044471202  0.7489034140165067
  0.6253335604369923  0.1241937140613348  0.3770687293672392
  0.5010042676053128  0.5012325975946713  0.5019156448168225
  0.3722930554609890  0.6261626681211738  0.6254791640471746
  0.1245527790494964  0.8746313092614115  0.8757286091789629
  0.3737412473311397  0.6253049522366889  0.8743898758869575
  0.6240097443562747  0.6231586143593963  0.1278886112051166
 -0.0015298188481457  0.7511317632748779  0.5004338789431882
  0.8740583127290995  0.6278716641513326  0.8738503061369530
  0.2512407278936689  0.2481464296279871 -0.0015507028862202
  0.5013866870602457  0.5000449221911404 -0.0014081886112394
  0.2514369882401831  0.4976665779434415  0.4987955281413871
  0.3725698227874683  0.8737325938409044  0.8770529170778745
 -0.0028352965840164  0.5005296605067214 -0.0021979424859684
  0.7504686961231138  0.4998053927791886  0.2496915199341524
  0.6255248029730403  0.1256356140784305  0.8729009663851122
  0.1272745548698100  0.6245981997486486  0.6236770956541015
  0.5021842209149547  0.7502722232366194 -0.0005024612490203
  0.8755894501368763  0.1235763592723440  0.6261322116726323
  0.5004441391404011  0.7505407348718114  0.5008584680230346
  0.2509975166038983  0.7483455786408473  0.2508320659859059
  0.0002493672300889  0.2473776062374228  0.2509841046986018
  0.6271289544278222  0.8774880778215509  0.6235755517511895
  0.0013932901867061  0.5010099703393448  0.7526721353971363
  0.6262881909794332  0.8745269355917197  0.3763541548042353
  0.3734946162410818  0.1221723009790241  0.1261992126709330
  0.1247007571159956  0.6234104857398953  0.1254816478994439
  0.7513530712466624  0.0006957518083086  0.2474288928127518
  0.4997583247774979  0.5015394996134264  0.7495922514450583
  0.2505756937290099  0.5012623560903576  0.2522457506011535
  0.8736725608435113  0.1232904627223081  0.8739342537069457
  0.1268827878342502  0.1244135038878565  0.3758118946805341
  0.7476672708174896  0.7505099630649252 -0.0004655154132551
  0.7479302964727093 -0.0016970368295521  0.0014570874407039
  0.6265903293254153  0.3757889500982018  0.1252073894726126
  0.2499869331331946  0.2502941156507860  0.7505303354932255
  0.2520798931504254  0.0002121410505095  0.5008695268453179
  0.3739452850422529  0.3768732922422049  0.8754600650898378
  0.7476950867512899  0.5003791139959544  0.4999664633147751
  0.4971769940114483  0.7518970343959416  0.2498004993596830
  0.8745869250638248  0.6234877675802222  0.3741967611810792
  0.7513043206116922  0.2515991310665182  0.5014364963767020
  0.8747361246409259  0.3739040642777950  0.1262246162794576
  0.1260977430488529  0.3744697780966568  0.8763527842702808
  0.1244011241335718  0.1259338306824437  0.6236839497949150
  0.1229109308725869  0.3749373504027325  0.6258941747555808
  0.7515132393823539  0.7478018934541274  0.5011362937671754
  0.8773009763986689  0.3753314192315038  0.6239087407651493
 -0.0001828690143623  0.2493780686582368  0.4978895597351700
  0.5016355391319796 -0.0001187055713738  0.2501355287461497
  0.8732507140552336  0.8773321687519522  0.6271408238014254
  0.5007745301716612  0.7491580340475342  0.7501931346992070
  0.7503054622857429  0.2510817739071355  0.7482155402179539
  0.4999231045246228  0.2482422849928387  0.2484964413958461
  0.4968526800170340 -0.0017979698933931  0.4985040226723347
  0.4981639392294807  0.2494894254215619  0.0013877579822861
  0.7511905582104816  0.5011702662487688  0.0002952049005338
 
  0.00000000E+00  0.00000000E+00  0.00000000E+00
  0.00000000E+00  0.00000000E+00  0.00000000E+00
  0.00000000E+00  0.00000000E+00  0.00000000E+00
  0.00000000E+00  0.00000000E+00  0.00000000E+00
  0.00000000E+00  0.00000000E+00  0.00000000E+00
  0.00000000E+00  0.00000000E+00  0.00000000E+00
  0.00000000E+00  0.00000000E+00  0.00000000E+00
  0.00000000E+00  0.00000000E+00  0.00000000E+00
  0.00000000E+00  0.00000000E+00  0.00000000E+00
  0.00000000E+00  0.00000000E+00  0.00000000E+00
  0.00000000E+00  0.00000000E+00  0.00000000E+00
  0.00000000E+00  0.00000000E+00  0.00000000E+00
  0.00000000E+00  0.00000000E+00  0.00000000E+00
  0.00000000E+00  0.00000000E+00  0.00000000E+00
  0.00000000E+00  0.00000000E+00  0.00000000E+00
  0.00000000E+00  0.00000000E+00  0.00000000E+00
  0.00000000E+00  0.00000000E+00  0.00000000E+00
  0.00000000E+00  0.00000000E+00  0.00000000E+00
  0.00000000E+00  0.00000000E+00  0.00000000E+00
  0.00000000E+00  0.00000000E+00  0.00000000E+00
  0.00000000E+00  0.00000000E+00  0.00000000E+00
  0.00000000E+00  0.00000000E+00  0.00000000E+00
  0.00000000E+00  0.00000000E+00  0.00000000E+00
  0.00000000E+00  0.00000000E+00  0.00000000E+00
  0.00000000E+00  0.00000000E+00  0.00000000E+00
  0.00000000E+00  0.00000000E+00  0.00000000E+00
  0.00000000E+00  0.00000000E+00  0.00000000E+00
  0.00000000E+00  0.00000000E+00  0.00000000E+00
  0.00000000E+00  0.00000000E+00  0.00000000E+00
  0.00000000E+00  0.00000000E+00  0.00000000E+00
  0.00000000E+00  0.00000000E+00  0.00000000E+00
  0.00000000E+00  0.00000000E+00  0.00000000E+00
  0.00000000E+00  0.00000000E+00  0.00000000E+00
  0.00000000E+00  0.00000000E+00  0.00000000E+00
  0.00000000E+00  0.00000000E+00  0.00000000E+00
  0.00000000E+00  0.00000000E+00  0.00000000E+00
  0.00000000E+00  0.00000000E+00  0.00000000E+00
  0.00000000E+00  0.00000000E+00  0.00000000E+00
  0.00000000E+00  0.00000000E+00  0.00000000E+00
  0.00000000E+00  0.00000000E+00  0.00000000E+00
  0.00000000E+00  0.00000000E+00  0.00000000E+00
  0.00000000E+00  0.00000000E+00  0.00000000E+00
  0.00000000E+00  0.00000000E+00  0.00000000E+00
  0.00000000E+00  0.00000000E+00  0.00000000E+00
  0.00000000E+00  0.00000000E+00  0.00000000E+00
  0.00000000E+00  0.00000000E+00  0.00000000E+00
  0.00000000E+00  0.00000000E+00  0.00000000E+00
  0.00000000E+00  0.00000000E+00  0.00000000E+00
  0.00000000E+00  0.00000000E+00  0.00000000E+00
  0.00000000E+00  0.00000000E+00  0.00000000E+00
  0.00000000E+00  0.00000000E+00  0.00000000E+00
  0.00000000E+00  0.00000000E+00  0.00000000E+00
  0.00000000E+00  0.00000000E+00  0.00000000E+00
  0.00000000E+00  0.00000000E+00  0.00000000E+00
  0.00000000E+00  0.00000000E+00  0.00000000E+00
  0.00000000E+00  0.00000000E+00  0.00000000E+00
  0.00000000E+00  0.00000000E+00  0.00000000E+00
  0.00000000E+00  0.00000000E+00  0.00000000E+00
  0.00000000E+00  0.00000000E+00  0.00000000E+00
  0.00000000E+00  0.00000000E+00  0.00000000E+00
  0.00000000E+00  0.00000000E+00  0.00000000E+00
  0.00000000E+00  0.00000000E+00  0.00000000E+00
  0.00000000E+00  0.00000000E+00  0.00000000E+00
  0.00000000E+00  0.00000000E+00  0.00000000E+00
  0.00000000E+00  0.00000000E+00  0.00000000E+00
  0.00000000E+00  0.00000000E+00  0.00000000E+00
  0.00000000E+00  0.00000000E+00  0.00000000E+00
  0.00000000E+00  0.00000000E+00  0.00000000E+00
  0.00000000E+00  0.00000000E+00  0.00000000E+00
  0.00000000E+00  0.00000000E+00  0.00000000E+00
  0.00000000E+00  0.00000000E+00  0.00000000E+00
  0.00000000E+00  0.00000000E+00  0.00000000E+00
  0.00000000E+00  0.00000000E+00  0.00000000E+00
  0.00000000E+00  0.00000000E+00  0.00000000E+00
  0.00000000E+00  0.00000000E+00  0.00000000E+00
  0.00000000E+00  0.00000000E+00  0.00000000E+00
  0.00000000E+00  0.00000000E+00  0.00000000E+00
  0.00000000E+00  0.00000000E+00  0.00000000E+00
  0.00000000E+00  0.00000000E+00  0.00000000E+00
  0.00000000E+00  0.00000000E+00  0.00000000E+00
  0.00000000E+00  0.00000000E+00  0.00000000E+00
  0.00000000E+00  0.00000000E+00  0.00000000E+00
  0.00000000E+00  0.00000000E+00  0.00000000E+00
  0.00000000E+00  0.00000000E+00  0.00000000E+00
  0.00000000E+00  0.00000000E+00  0.00000000E+00
  0.00000000E+00  0.00000000E+00  0.00000000E+00
  0.00000000E+00  0.00000000E+00  0.00000000E+00
  0.00000000E+00  0.00000000E+00  0.00000000E+00
  0.00000000E+00  0.00000000E+00  0.00000000E+00
  0.00000000E+00  0.00000000E+00  0.00000000E+00
  0.00000000E+00  0.00000000E+00  0.00000000E+00
  0.00000000E+00  0.00000000E+00  0.00000000E+00
  0.00000000E+00  0.00000000E+00  0.00000000E+00
  0.00000000E+00  0.00000000E+00  0.00000000E+00
  0.00000000E+00  0.00000000E+00  0.00000000E+00
  0.00000000E+00  0.00000000E+00  0.00000000E+00
  0.00000000E+00  0.00000000E+00  0.00000000E+00
  0.00000000E+00  0.00000000E+00  0.00000000E+00
  0.00000000E+00  0.00000000E+00  0.00000000E+00
  0.00000000E+00  0.00000000E+00  0.00000000E+00
  0.00000000E+00  0.00000000E+00  0.00000000E+00
  0.00000000E+00  0.00000000E+00  0.00000000E+00
  0.00000000E+00  0.00000000E+00  0.00000000E+00
  0.00000000E+00  0.00000000E+00  0.00000000E+00
  0.00000000E+00  0.00000000E+00  0.00000000E+00
  0.00000000E+00  0.00000000E+00  0.00000000E+00
  0.00000000E+00  0.00000000E+00  0.00000000E+00
  0.00000000E+00  0.00000000E+00  0.00000000E+00
  0.00000000E+00  0.00000000E+00  0.00000000E+00
  0.00000000E+00  0.00000000E+00  0.00000000E+00
  0.00000000E+00  0.00000000E+00  0.00000000E+00
  0.00000000E+00  0.00000000E+00  0.00000000E+00
  0.00000000E+00  0.00000000E+00  0.00000000E+00
  0.00000000E+00  0.00000000E+00  0.00000000E+00
  0.00000000E+00  0.00000000E+00  0.00000000E+00
  0.00000000E+00  0.00000000E+00  0.00000000E+00
  0.00000000E+00  0.00000000E+00  0.00000000E+00
  0.00000000E+00  0.00000000E+00  0.00000000E+00
  0.00000000E+00  0.00000000E+00  0.00000000E+00
  0.00000000E+00  0.00000000E+00  0.00000000E+00
  0.00000000E+00  0.00000000E+00  0.00000000E+00
  0.00000000E+00  0.00000000E+00  0.00000000E+00
  0.00000000E+00  0.00000000E+00  0.00000000E+00
  0.00000000E+00  0.00000000E+00  0.00000000E+00
  0.00000000E+00  0.00000000E+00  0.00000000E+00
  0.00000000E+00  0.00000000E+00  0.00000000E+00
  0.00000000E+00  0.00000000E+00  0.00000000E+00
  0.00000000E+00  0.00000000E+00  0.00000000E+00
