Nb Ta                                   
    1.000000000000000     
    13.2564337313447798   -0.0038878320288360    0.0029751714897578
    -0.0038868657807124   13.2540800556737981   -0.0015549129106250
     0.0029752826278128   -0.0015550382942600   13.2567925938350299
   Nb   Ta
    68    60
Direct
  0.3754135214196447  0.6240864586317474  0.6255527116645804
 -0.0009798311585349  0.2490156864482379  0.4998651623256967
  0.3748814734508475  0.6233849449513446  0.1258819834261460
  0.5020151130155684 -0.0007841056025565  0.0003734635002091
  0.6231776310840892  0.1251019240929708  0.1273132513338538
  0.5025188120465048  0.2499798215442382 -0.0017511658617325
  0.7480017011054859  0.4999376413966560  0.2514527567975376
  0.4985012262707680  0.0027843759365563  0.7482270299418837
  0.0013651693363485  0.7521206976673745  0.2508875545524517
  0.1239817910814991  0.1259344168188437  0.3774675557688474
  0.7503717099121469  0.2501359813835161  0.2505245654999241
  0.7493564340916166  0.0014657843650787  0.5011449008473082
  0.4981517640224160  0.2510730979856151  0.2509132865318661
  0.0002579336626181  0.4998305180949263  0.2480017835303099
  0.6228939589063909  0.3747644088498564  0.8751030094854952
  0.8739068705986358  0.8762737347578980  0.6251704453591017
  0.7499968116551022  0.0007174985611672  0.7502746811201292
  0.2523044012195020 -0.0015296467169965  0.4984057830710696
  0.1238810240467979  0.6264266387517708  0.8745255525500544
  0.6259267258176935  0.6267446214309247  0.3742591544967331
 -0.0006643670120609 -0.0015692798562777  0.4980934770776266
  0.2486917565830488  0.2496126852508644 -0.0003918463770329
  0.7493958502626402  0.2512041884026925  0.7495036938436940
  0.3754613608415669  0.8749537212840065  0.6270022882702422
  0.8768039692125256  0.1265665215493632  0.6253606127213516
  0.3732653550304932  0.6251577786995739  0.3743213191175098
  0.1241344337785989  0.6234357256102997  0.1273760815297167
  0.4985999343698202  0.7493040694681207  0.7498067391575419
  0.2524733867427334  0.4991374467338359  0.2510535217539345
  0.3753341247023800  0.6237614672879284  0.8739759630147886
  0.1241775183447437  0.3740410190590647  0.6232795481920101
  0.7501154035180126  0.7479582351120061  0.5004116207710616
  0.3729736326911562  0.1262056213640447  0.6243821423806242
  0.2490549665952051 -0.0018545910987286  0.0003212216499112
  0.2497646805945370  0.7521419231841787  0.2496345515789052
  0.3750207923147624  0.1253278170716322  0.8771991302482824
  0.1245819882420187  0.8750387332740247  0.1234190505747941
  0.7505383701272860  0.0002399502901509  0.2479063507292210
  0.3765533325292122  0.8772955789667370  0.1238362665163747
  0.2499084888979228  0.2498721959832354  0.7495157340214906
 -0.0006971980241057  0.5014301176726363  0.5018518459608294
  0.1283683452643173  0.3747709775116889  0.8762403059952770
  0.7516099721465749  0.7486138075720113  0.7488235985850914
  0.3768994926395921  0.1256239603572500  0.3745624269190500
  0.4979706571598367 -0.0001230486359421  0.2508892349451394
  0.6246377176979687  0.3754021117056250  0.6252225602037365
  0.0022229003517326  0.7497822335975138 -0.0000287304978968
  0.0004798481604968  0.0003262309093167  0.7507325721154615
  0.2510738514844957  0.2515960730605982  0.4985673825965398
  0.5006242808496957  0.4985757278471551  0.7510070873128960
  0.1246842171127061  0.1234993851437736  0.8745402544325028
  0.8758116190784716  0.6231416236910562  0.6245834954539492
  0.6253735885545915  0.1235710313187624  0.6239006606675732
  0.1243263653025401  0.8736831086862336  0.3765938116580932
  0.6257459395310575  0.1231666492601046  0.8738929851544254
  0.7498162628670682  0.7495485735151289  0.2508863925774611
  0.2498634256557047  0.5030416068949094 -0.0006813592593082
  0.8742191359823938  0.3744299479969425  0.8740574583660426
  0.3746245785566722  0.3747256370448188  0.3747886064594589
  0.6249018420501833  0.3734948402991522  0.3742088579794273
  0.3759051758875555  0.8749524246310636  0.3739855116103177
  0.7482273301480296  0.7504668755910361 -0.0004066786719926
  0.5008957728002046  0.5012471641597477  0.4979288503132469
  0.4988382849385098  0.7488500417714381  0.2503711340830601
  0.5016821894697036  0.2488982197369069  0.5017211339375462
  0.6262598820735291  0.6269047236196299  0.8750854284543340
  0.3757640080413774  0.3747699348029762  0.6263823810841769
  0.6239624771929068  0.6262605464588259  0.6250268089494039
  0.3745627408188824  0.3750467629630194  0.8766436848057872
  0.2492710923017180  0.7495004698381946  0.7500710408055564
 -0.0013590100610924  0.0006609882300132  0.0016321588468235
  0.0005198183415243  0.4993984214383013  0.7522383266195880
  0.8742398913744877  0.3753948386271495  0.1273250191954941
  0.4982304809763827  0.7479068171726961  0.0006046132266006
  0.6251256983823581  0.8731162629840641  0.1256690980729042
  0.3763507121102985  0.8755744530147322  0.8747901576578386
  0.2513793081217490 -0.0000388120189003  0.7503223476869795
  0.1247372705851032  0.8751856661298981  0.8736536913318131
  0.6240144937478371  0.8746260392374813  0.8735104107742140
  0.1255572105858876  0.8764823384972933  0.6261141246701164
  0.8736577864362257  0.8734170434126866  0.1246965595917113
  0.8730797947317632  0.1246080132983513  0.3742339738638535
  0.7503804415753489  0.2497694828069264 -0.0005627172260157
  0.2515119618390557  0.5003971253190177  0.5014970797903444
  0.1234462532417195  0.3776383239126134  0.3745534240762899
  0.8749301892202428  0.8742796201106112  0.8759224940471697
  0.7497064871479194  0.4979983241182577 -0.0020019489025190
  0.0003925634723185  0.7491784248856698  0.7480275608056541
  0.4993803206361740  0.5000291959866818  0.2493670305218836
  0.0010154337228308  0.2515699556509400  0.7518387929589541
  0.1269199023538412  0.3750141483459579  0.1260403004651076
 -0.0013210022773389  0.4983233185712441 -0.0014068045144780
  0.6270633069872522  0.6254448073169084  0.1255854681507871
  0.7507789211349266  0.4997671062115723  0.7503028126929949
  0.8754721488517110  0.1256149344076014  0.1257739585608905
  0.7490380275369380  0.2512902866432814  0.5005384395194350
  0.8747042997805107  0.1237352372766955  0.8741725584397865
  0.1239304854656023  0.6233877468628362  0.3760649242846784
  0.2511785233654635  0.7495425341852124  0.5006547787698777
  0.0023675831480418  0.0006440343211710  0.2488053704215248
  0.8756894024154050  0.3746327968071295  0.6240472457011554
  0.1261863513148184  0.1265230597215861  0.1234551510110471
  0.6258411388530514  0.1232405068691063  0.3748791615053239
  0.5016245129219996  0.5022297717732838  0.0011738481139237
  0.8748309259423812  0.6275082990723608  0.8769288459884715
  0.7500651803555055  0.0012267959472596  0.0005582245621113
  0.3739207303197667  0.1267697289160709  0.1237013303237712
  0.1257229357453581  0.1236625589825370  0.6242021968936624
  0.4987338688760183  0.7514699238391601  0.4990915387378835
  0.2482484452328582  0.5005893044123912  0.7485349799845117
  0.1248884332590805  0.6257166940786860  0.6233026481118314
 -0.0002858589628477  0.7512042599115887  0.5012587194145784
  0.2487522751027896  0.2484266431626307  0.2518804154040011
  0.4995503640212056 -0.0014660108543360  0.5003896898568566
  0.8725420424590492  0.8751269075143113  0.3738575617908405
  0.6252484279519011  0.8746126189635878  0.6258616294367900
 -0.0016821152278110  0.2508196433005419 -0.0008501518968305
  0.8737136374517329  0.6253911495444896  0.1249814983044696
  0.6268930307848878  0.8763418839953097  0.3749919024286533
  0.6243118911347839  0.3753707269124285  0.1255795520014856
  0.2479067928614444  0.0011141763815919  0.2508729455868344
  0.8770468510826213  0.3757559216777304  0.3751612762241357
  0.0018595439113637  0.2480284531170085  0.2494828631603075
  0.2518522211235167  0.7494030359844361 -0.0000287801075393
  0.3744694687516699  0.3729435329769313  0.1221508565964784
  0.7485722935620963  0.4992136682297748  0.5007048502701661
  0.8768855696322728  0.6246856216958978  0.3733197458161344
  0.5001473205418441  0.2490085841020463  0.7494965746679403
 
  0.00000000E+00  0.00000000E+00  0.00000000E+00
  0.00000000E+00  0.00000000E+00  0.00000000E+00
  0.00000000E+00  0.00000000E+00  0.00000000E+00
  0.00000000E+00  0.00000000E+00  0.00000000E+00
  0.00000000E+00  0.00000000E+00  0.00000000E+00
  0.00000000E+00  0.00000000E+00  0.00000000E+00
  0.00000000E+00  0.00000000E+00  0.00000000E+00
  0.00000000E+00  0.00000000E+00  0.00000000E+00
  0.00000000E+00  0.00000000E+00  0.00000000E+00
  0.00000000E+00  0.00000000E+00  0.00000000E+00
  0.00000000E+00  0.00000000E+00  0.00000000E+00
  0.00000000E+00  0.00000000E+00  0.00000000E+00
  0.00000000E+00  0.00000000E+00  0.00000000E+00
  0.00000000E+00  0.00000000E+00  0.00000000E+00
  0.00000000E+00  0.00000000E+00  0.00000000E+00
  0.00000000E+00  0.00000000E+00  0.00000000E+00
  0.00000000E+00  0.00000000E+00  0.00000000E+00
  0.00000000E+00  0.00000000E+00  0.00000000E+00
  0.00000000E+00  0.00000000E+00  0.00000000E+00
  0.00000000E+00  0.00000000E+00  0.00000000E+00
  0.00000000E+00  0.00000000E+00  0.00000000E+00
  0.00000000E+00  0.00000000E+00  0.00000000E+00
  0.00000000E+00  0.00000000E+00  0.00000000E+00
  0.00000000E+00  0.00000000E+00  0.00000000E+00
  0.00000000E+00  0.00000000E+00  0.00000000E+00
  0.00000000E+00  0.00000000E+00  0.00000000E+00
  0.00000000E+00  0.00000000E+00  0.00000000E+00
  0.00000000E+00  0.00000000E+00  0.00000000E+00
  0.00000000E+00  0.00000000E+00  0.00000000E+00
  0.00000000E+00  0.00000000E+00  0.00000000E+00
  0.00000000E+00  0.00000000E+00  0.00000000E+00
  0.00000000E+00  0.00000000E+00  0.00000000E+00
  0.00000000E+00  0.00000000E+00  0.00000000E+00
  0.00000000E+00  0.00000000E+00  0.00000000E+00
  0.00000000E+00  0.00000000E+00  0.00000000E+00
  0.00000000E+00  0.00000000E+00  0.00000000E+00
  0.00000000E+00  0.00000000E+00  0.00000000E+00
  0.00000000E+00  0.00000000E+00  0.00000000E+00
  0.00000000E+00  0.00000000E+00  0.00000000E+00
  0.00000000E+00  0.00000000E+00  0.00000000E+00
  0.00000000E+00  0.00000000E+00  0.00000000E+00
  0.00000000E+00  0.00000000E+00  0.00000000E+00
  0.00000000E+00  0.00000000E+00  0.00000000E+00
  0.00000000E+00  0.00000000E+00  0.00000000E+00
  0.00000000E+00  0.00000000E+00  0.00000000E+00
  0.00000000E+00  0.00000000E+00  0.00000000E+00
  0.00000000E+00  0.00000000E+00  0.00000000E+00
  0.00000000E+00  0.00000000E+00  0.00000000E+00
  0.00000000E+00  0.00000000E+00  0.00000000E+00
  0.00000000E+00  0.00000000E+00  0.00000000E+00
  0.00000000E+00  0.00000000E+00  0.00000000E+00
  0.00000000E+00  0.00000000E+00  0.00000000E+00
  0.00000000E+00  0.00000000E+00  0.00000000E+00
  0.00000000E+00  0.00000000E+00  0.00000000E+00
  0.00000000E+00  0.00000000E+00  0.00000000E+00
  0.00000000E+00  0.00000000E+00  0.00000000E+00
  0.00000000E+00  0.00000000E+00  0.00000000E+00
  0.00000000E+00  0.00000000E+00  0.00000000E+00
  0.00000000E+00  0.00000000E+00  0.00000000E+00
  0.00000000E+00  0.00000000E+00  0.00000000E+00
  0.00000000E+00  0.00000000E+00  0.00000000E+00
  0.00000000E+00  0.00000000E+00  0.00000000E+00
  0.00000000E+00  0.00000000E+00  0.00000000E+00
  0.00000000E+00  0.00000000E+00  0.00000000E+00
  0.00000000E+00  0.00000000E+00  0.00000000E+00
  0.00000000E+00  0.00000000E+00  0.00000000E+00
  0.00000000E+00  0.00000000E+00  0.00000000E+00
  0.00000000E+00  0.00000000E+00  0.00000000E+00
  0.00000000E+00  0.00000000E+00  0.00000000E+00
  0.00000000E+00  0.00000000E+00  0.00000000E+00
  0.00000000E+00  0.00000000E+00  0.00000000E+00
  0.00000000E+00  0.00000000E+00  0.00000000E+00
  0.00000000E+00  0.00000000E+00  0.00000000E+00
  0.00000000E+00  0.00000000E+00  0.00000000E+00
  0.00000000E+00  0.00000000E+00  0.00000000E+00
  0.00000000E+00  0.00000000E+00  0.00000000E+00
  0.00000000E+00  0.00000000E+00  0.00000000E+00
  0.00000000E+00  0.00000000E+00  0.00000000E+00
  0.00000000E+00  0.00000000E+00  0.00000000E+00
  0.00000000E+00  0.00000000E+00  0.00000000E+00
  0.00000000E+00  0.00000000E+00  0.00000000E+00
  0.00000000E+00  0.00000000E+00  0.00000000E+00
  0.00000000E+00  0.00000000E+00  0.00000000E+00
  0.00000000E+00  0.00000000E+00  0.00000000E+00
  0.00000000E+00  0.00000000E+00  0.00000000E+00
  0.00000000E+00  0.00000000E+00  0.00000000E+00
  0.00000000E+00  0.00000000E+00  0.00000000E+00
  0.00000000E+00  0.00000000E+00  0.00000000E+00
  0.00000000E+00  0.00000000E+00  0.00000000E+00
  0.00000000E+00  0.00000000E+00  0.00000000E+00
  0.00000000E+00  0.00000000E+00  0.00000000E+00
  0.00000000E+00  0.00000000E+00  0.00000000E+00
  0.00000000E+00  0.00000000E+00  0.00000000E+00
  0.00000000E+00  0.00000000E+00  0.00000000E+00
  0.00000000E+00  0.00000000E+00  0.00000000E+00
  0.00000000E+00  0.00000000E+00  0.00000000E+00
  0.00000000E+00  0.00000000E+00  0.00000000E+00
  0.00000000E+00  0.00000000E+00  0.00000000E+00
  0.00000000E+00  0.00000000E+00  0.00000000E+00
  0.00000000E+00  0.00000000E+00  0.00000000E+00
  0.00000000E+00  0.00000000E+00  0.00000000E+00
  0.00000000E+00  0.00000000E+00  0.00000000E+00
  0.00000000E+00  0.00000000E+00  0.00000000E+00
  0.00000000E+00  0.00000000E+00  0.00000000E+00
  0.00000000E+00  0.00000000E+00  0.00000000E+00
  0.00000000E+00  0.00000000E+00  0.00000000E+00
  0.00000000E+00  0.00000000E+00  0.00000000E+00
  0.00000000E+00  0.00000000E+00  0.00000000E+00
  0.00000000E+00  0.00000000E+00  0.00000000E+00
  0.00000000E+00  0.00000000E+00  0.00000000E+00
  0.00000000E+00  0.00000000E+00  0.00000000E+00
  0.00000000E+00  0.00000000E+00  0.00000000E+00
  0.00000000E+00  0.00000000E+00  0.00000000E+00
  0.00000000E+00  0.00000000E+00  0.00000000E+00
  0.00000000E+00  0.00000000E+00  0.00000000E+00
  0.00000000E+00  0.00000000E+00  0.00000000E+00
  0.00000000E+00  0.00000000E+00  0.00000000E+00
  0.00000000E+00  0.00000000E+00  0.00000000E+00
  0.00000000E+00  0.00000000E+00  0.00000000E+00
  0.00000000E+00  0.00000000E+00  0.00000000E+00
  0.00000000E+00  0.00000000E+00  0.00000000E+00
  0.00000000E+00  0.00000000E+00  0.00000000E+00
  0.00000000E+00  0.00000000E+00  0.00000000E+00
  0.00000000E+00  0.00000000E+00  0.00000000E+00
  0.00000000E+00  0.00000000E+00  0.00000000E+00
  0.00000000E+00  0.00000000E+00  0.00000000E+00
  0.00000000E+00  0.00000000E+00  0.00000000E+00
  0.00000000E+00  0.00000000E+00  0.00000000E+00
