Nb Ta                                   
    1.000000000000000     
    13.2766285417630083    0.0000428940187489    0.0000915319605623
     0.0000428944057889   13.2768374560367235   -0.0000722804606351
     0.0000915748586501   -0.0000723314395557   13.2768026516778477
   Nb   Ta
     4   124
Direct
  0.0000124418089016  0.0000761208177203  0.2500506579089342
  0.7498950722957055  0.2498768738595758  0.7501060885026453
  0.4996665992583438 -0.0003266527103966  0.0003595440485672
  0.3755139647329831  0.8754390195146332  0.1243819152717884
  0.2505383691596728  0.7508290312891652  0.0005071123206366
  0.2498564734100301  0.4999345811578459  0.2501054705992836
 -0.0000895472689784  0.0001509565316702  0.5012839597147029
 -0.0001378064865913  0.4998616849544959  0.5001046141604859
  0.6250405570930742  0.3750388059075218  0.1251315188227823
  0.1252803585553361  0.6251494788025009  0.3749509832153360
  0.0000331665540763  0.7501960661002125  0.4997922523805186
  0.2498375488133827  0.2497093493495117  0.2499819330021624
  0.7499986343574675  0.2496521123960745  0.2499002714610270
  0.3748405042059840  0.3750773100268935  0.8749960214483419
  0.0000068842300223  0.7500074390836506  0.7500512032137477
  0.6257609652716818  0.8753376608457464  0.1244538591679809
  0.7501442800824847  0.2498465923831328  0.4987601751397638
  0.6255796016984381  0.3745256095519350  0.8744252020750005
  0.8743689573395624  0.1255519919578504  0.6255392653993431
  0.2490925038872368 -0.0004022608174815  0.0005833796178741
  0.1251737457869279  0.3749626364294145  0.1249290057801166
  0.2500210603768043  0.0001248195814136  0.7501555695505554
  0.3749626494019563  0.6250669002077321  0.6250550642283730
  0.7499102079304312  0.2496296046702788  0.0012116214488516
  0.7497995970435459 -0.0010838993441116  0.7502361450674423
  0.8749877209589050  0.6251394381973405  0.8750848301690568
  0.3748492325456254  0.8748547743092481  0.6249434679068325
  0.4996316705652262  0.7507124229528682  0.2493245272254087
  0.5001314526105495  0.2498172311347715  0.2499492231668284
  0.3749030556027371  0.6253015297692015  0.3747623983773571
  0.3748938855611741  0.6251572249092368  0.8750546217523559
  0.3753269784604880  0.1243310162267870  0.8757231060760344
  0.0000293314155748  0.5000331229879036  0.2499808426047011
  0.7500940309305513  0.7501288518279791  0.4998688164248418
 -0.0001258480168155  0.2497487296865942 -0.0000163275449973
  0.8754776409656683  0.8753389638835319  0.1255740981780138
  0.3748079579836744  0.6239164170923223  0.1251289267076500
  0.5001552863413606  0.4999138629852590  0.5000358141296397
  0.6248906087946309  0.1250101920172978  0.3749383484771883
  0.4995700894876754  0.7492941432252169  0.0004261055197791
  0.1246765132813788  0.1244881943825893  0.1255768435356122
  0.8748338621792889  0.6250474841253476  0.1249216746169341
  0.3748415015213302  0.3749654391432750  0.1250757566154348
  0.1250282524913700  0.6250388315941856  0.6249892170220676
  0.7499252777767537  0.4998703541927152 -0.0001838350302172
  0.8744172816850226  0.1256827036545363  0.8744044497706537
  0.1247219382031570  0.1244046585113476  0.3743342530375769
  0.2500187156644479  0.7500365952979279  0.7501159512791338
  0.8754960521394146  0.1244665762259287  0.3744092118546235
  0.2500922183462672  0.2498055156220733  0.7501730686274383
 -0.0000783952330217  0.7486616588772116  0.2501223132724379
  0.7499398378225448  0.4998221768924782  0.5001689185954283
  0.6254439295559178  0.3744706994858736  0.6255197983065640
  0.1253718926019252  0.6252428290769773  0.1249387867086260
 -0.0001216871300992  0.0001876633228442  0.7500829388840770
  0.5002823579754629  0.2511339219723387 -0.0002814235591742
  0.8749143888259026  0.8748056934835189  0.6250003999025002
  0.1252140897029066  0.6252240264469124  0.8751575361471907
  0.6250456562887159  0.8748121831913994  0.6248819414013616
  0.7499868311105120  0.7502031946034788  0.0000023335751024
  0.3748818145687448  0.8747329333667139  0.3762344454865175
  0.8744363388074068  0.3744236377698236  0.8745922769809196
  0.8755502517111612  0.1245452099719680  0.1256361813101997
  0.8754144451668130  0.8754348525949989  0.3744600522259766
  0.3749082446745903  0.1250700076177538  0.3749771115466949
  0.7498394626691556  0.7501106634389177  0.7501738754529310
  0.1233890506982121  0.8753218878238185  0.1256378266969740
  0.6249928872647114  0.3749777543484144  0.3749301954450284
  0.7499826354189780  0.5000064907863785  0.2500210466011456
 -0.0000949831024865  0.4999058400745668 -0.0001240336598932
  0.2497464373713121  0.7500286102936646  0.4999339904747581
  0.5000978636438853  0.4999740066283922  0.2500623204865857
  0.7513106279697839  0.0002756305706330 -0.0000977874893324
  0.2504347059525945  0.7507749831375267  0.2493985110829417
 -0.0000208799903003  0.7500933164722289  0.0000628691601600
 -0.0001706429469024  0.4998137227622244  0.7500653539399089
  0.5002878023904950  0.0002769588207631  0.7488477826482776
  0.6243584584277511  0.8753563058743917  0.8757252185960662
  0.7500516845829849  0.5011131200723189  0.7500028757192407
  0.8749432004239710  0.3750709290874653  0.3749986129980807
  0.5001892675247185  0.2499202651099363  0.5001229116241445
  0.1251989946021382  0.1250611185173673  0.6250028253762762
 -0.0001683764377459  0.0002364119216723 -0.0014182429330481
  0.1252567429970323  0.8747836937963426  0.8750333165486947
  0.5002323883556039  0.0002339538358924  0.5001200367914921
  0.5001842824525412  0.4998759723336263  0.7500831317522099
  0.8748547393366349  0.6249843303260406  0.3751133389755825
  0.1251240443698475  0.3749729503482859  0.8750862170201479
  0.6256247312123204  0.1256178892628161  0.6254390026762591
  0.8750290304067423  0.6251511964875449  0.6249055529693819
  0.6249371599022273  0.8747884722667457  0.3749666074459251
  0.6242917145243859  0.1244286635526248  0.1245177707874026
  0.2498301581968120  0.2497960392150633  0.4998617955082793
  0.2500162426808346  0.5000318676998944  0.4999623951225702
  0.2499301905461189  0.4999756801177062 -0.0000907762579973
  0.7500536759066559  0.7502049910458419  0.2499751712535951
  0.4996016025324209 -0.0003862029734552  0.2507598380035898
  0.2519183350035099 -0.0003850318249867  0.2492982064202223
  0.7486247121781536  0.0001176717162752  0.2499259985338449
  0.6249074430788407  0.6251763238413628  0.8750975428990260
  0.0000139091790208  0.2511883065562918  0.2500212099532913
  0.2499072849461379  0.2497018334415485 -0.0000051722431015
 -0.0001739736334832  0.2497591885700823  0.4999950129346532
  0.1252803630993003  0.1250120371977148  0.8750747173026829
  0.3754826963017770  0.1259025066657635  0.1244380344654543
  0.0011103145409400  0.2499754043126766  0.7500002369632124
  0.8749079218696796  0.3750357082002055  0.1249829538588339
  0.6249862667474330  0.6251982583049899  0.1250759765912806
  0.6249555711151961  0.6250984210647363  0.6249879015214560
  0.3747997151206688  0.1250325133560789  0.6248818107389975
  0.5002268739867112  0.4998555475575235 -0.0001726168156565
  0.7500925488627794  0.0001849452613667  0.4999495193398399
  0.1251711504811136  0.8748579383649194  0.6250673141284110
  0.3749195200662094  0.3749064278212534  0.3749625214571924
  0.4989173839554275  0.2497180135388203  0.7502352152530037
  0.6249724535624401  0.1249443329817164  0.8751134463169041
  0.8749725347970582  0.8747339847594809  0.8749766892033025
  0.6249355519293626  0.6252233933706657  0.3748449872042072
  0.3749082018061360  0.3750192129982678  0.6249857869239821
  0.8744975890714010  0.3744823675125920  0.6254314188381531
  0.3753976089660986  0.8754275851397558  0.8742419694108674
  0.2499204688631403  0.5000096631420613  0.7500526369886552
  0.1251391159747305  0.3750087686678983  0.6249034847204193
  0.2497571854904231  0.0001015424996390  0.4998516938014501
  0.5000997102026292  0.7499282660519704  0.5000157333690355
  0.1251080388832919  0.3749877243940304  0.3751090361578431
  0.1248053122465401  0.8754022378956323  0.3742759002363854
  0.5001317979404805  0.7501105984072536  0.7501594478781408
 
  0.00000000E+00  0.00000000E+00  0.00000000E+00
  0.00000000E+00  0.00000000E+00  0.00000000E+00
  0.00000000E+00  0.00000000E+00  0.00000000E+00
  0.00000000E+00  0.00000000E+00  0.00000000E+00
  0.00000000E+00  0.00000000E+00  0.00000000E+00
  0.00000000E+00  0.00000000E+00  0.00000000E+00
  0.00000000E+00  0.00000000E+00  0.00000000E+00
  0.00000000E+00  0.00000000E+00  0.00000000E+00
  0.00000000E+00  0.00000000E+00  0.00000000E+00
  0.00000000E+00  0.00000000E+00  0.00000000E+00
  0.00000000E+00  0.00000000E+00  0.00000000E+00
  0.00000000E+00  0.00000000E+00  0.00000000E+00
  0.00000000E+00  0.00000000E+00  0.00000000E+00
  0.00000000E+00  0.00000000E+00  0.00000000E+00
  0.00000000E+00  0.00000000E+00  0.00000000E+00
  0.00000000E+00  0.00000000E+00  0.00000000E+00
  0.00000000E+00  0.00000000E+00  0.00000000E+00
  0.00000000E+00  0.00000000E+00  0.00000000E+00
  0.00000000E+00  0.00000000E+00  0.00000000E+00
  0.00000000E+00  0.00000000E+00  0.00000000E+00
  0.00000000E+00  0.00000000E+00  0.00000000E+00
  0.00000000E+00  0.00000000E+00  0.00000000E+00
  0.00000000E+00  0.00000000E+00  0.00000000E+00
  0.00000000E+00  0.00000000E+00  0.00000000E+00
  0.00000000E+00  0.00000000E+00  0.00000000E+00
  0.00000000E+00  0.00000000E+00  0.00000000E+00
  0.00000000E+00  0.00000000E+00  0.00000000E+00
  0.00000000E+00  0.00000000E+00  0.00000000E+00
  0.00000000E+00  0.00000000E+00  0.00000000E+00
  0.00000000E+00  0.00000000E+00  0.00000000E+00
  0.00000000E+00  0.00000000E+00  0.00000000E+00
  0.00000000E+00  0.00000000E+00  0.00000000E+00
  0.00000000E+00  0.00000000E+00  0.00000000E+00
  0.00000000E+00  0.00000000E+00  0.00000000E+00
  0.00000000E+00  0.00000000E+00  0.00000000E+00
  0.00000000E+00  0.00000000E+00  0.00000000E+00
  0.00000000E+00  0.00000000E+00  0.00000000E+00
  0.00000000E+00  0.00000000E+00  0.00000000E+00
  0.00000000E+00  0.00000000E+00  0.00000000E+00
  0.00000000E+00  0.00000000E+00  0.00000000E+00
  0.00000000E+00  0.00000000E+00  0.00000000E+00
  0.00000000E+00  0.00000000E+00  0.00000000E+00
  0.00000000E+00  0.00000000E+00  0.00000000E+00
  0.00000000E+00  0.00000000E+00  0.00000000E+00
  0.00000000E+00  0.00000000E+00  0.00000000E+00
  0.00000000E+00  0.00000000E+00  0.00000000E+00
  0.00000000E+00  0.00000000E+00  0.00000000E+00
  0.00000000E+00  0.00000000E+00  0.00000000E+00
  0.00000000E+00  0.00000000E+00  0.00000000E+00
  0.00000000E+00  0.00000000E+00  0.00000000E+00
  0.00000000E+00  0.00000000E+00  0.00000000E+00
  0.00000000E+00  0.00000000E+00  0.00000000E+00
  0.00000000E+00  0.00000000E+00  0.00000000E+00
  0.00000000E+00  0.00000000E+00  0.00000000E+00
  0.00000000E+00  0.00000000E+00  0.00000000E+00
  0.00000000E+00  0.00000000E+00  0.00000000E+00
  0.00000000E+00  0.00000000E+00  0.00000000E+00
  0.00000000E+00  0.00000000E+00  0.00000000E+00
  0.00000000E+00  0.00000000E+00  0.00000000E+00
  0.00000000E+00  0.00000000E+00  0.00000000E+00
  0.00000000E+00  0.00000000E+00  0.00000000E+00
  0.00000000E+00  0.00000000E+00  0.00000000E+00
  0.00000000E+00  0.00000000E+00  0.00000000E+00
  0.00000000E+00  0.00000000E+00  0.00000000E+00
  0.00000000E+00  0.00000000E+00  0.00000000E+00
  0.00000000E+00  0.00000000E+00  0.00000000E+00
  0.00000000E+00  0.00000000E+00  0.00000000E+00
  0.00000000E+00  0.00000000E+00  0.00000000E+00
  0.00000000E+00  0.00000000E+00  0.00000000E+00
  0.00000000E+00  0.00000000E+00  0.00000000E+00
  0.00000000E+00  0.00000000E+00  0.00000000E+00
  0.00000000E+00  0.00000000E+00  0.00000000E+00
  0.00000000E+00  0.00000000E+00  0.00000000E+00
  0.00000000E+00  0.00000000E+00  0.00000000E+00
  0.00000000E+00  0.00000000E+00  0.00000000E+00
  0.00000000E+00  0.00000000E+00  0.00000000E+00
  0.00000000E+00  0.00000000E+00  0.00000000E+00
  0.00000000E+00  0.00000000E+00  0.00000000E+00
  0.00000000E+00  0.00000000E+00  0.00000000E+00
  0.00000000E+00  0.00000000E+00  0.00000000E+00
  0.00000000E+00  0.00000000E+00  0.00000000E+00
  0.00000000E+00  0.00000000E+00  0.00000000E+00
  0.00000000E+00  0.00000000E+00  0.00000000E+00
  0.00000000E+00  0.00000000E+00  0.00000000E+00
  0.00000000E+00  0.00000000E+00  0.00000000E+00
  0.00000000E+00  0.00000000E+00  0.00000000E+00
  0.00000000E+00  0.00000000E+00  0.00000000E+00
  0.00000000E+00  0.00000000E+00  0.00000000E+00
  0.00000000E+00  0.00000000E+00  0.00000000E+00
  0.00000000E+00  0.00000000E+00  0.00000000E+00
  0.00000000E+00  0.00000000E+00  0.00000000E+00
  0.00000000E+00  0.00000000E+00  0.00000000E+00
  0.00000000E+00  0.00000000E+00  0.00000000E+00
  0.00000000E+00  0.00000000E+00  0.00000000E+00
  0.00000000E+00  0.00000000E+00  0.00000000E+00
  0.00000000E+00  0.00000000E+00  0.00000000E+00
  0.00000000E+00  0.00000000E+00  0.00000000E+00
  0.00000000E+00  0.00000000E+00  0.00000000E+00
  0.00000000E+00  0.00000000E+00  0.00000000E+00
  0.00000000E+00  0.00000000E+00  0.00000000E+00
  0.00000000E+00  0.00000000E+00  0.00000000E+00
  0.00000000E+00  0.00000000E+00  0.00000000E+00
  0.00000000E+00  0.00000000E+00  0.00000000E+00
  0.00000000E+00  0.00000000E+00  0.00000000E+00
  0.00000000E+00  0.00000000E+00  0.00000000E+00
  0.00000000E+00  0.00000000E+00  0.00000000E+00
  0.00000000E+00  0.00000000E+00  0.00000000E+00
  0.00000000E+00  0.00000000E+00  0.00000000E+00
  0.00000000E+00  0.00000000E+00  0.00000000E+00
  0.00000000E+00  0.00000000E+00  0.00000000E+00
  0.00000000E+00  0.00000000E+00  0.00000000E+00
  0.00000000E+00  0.00000000E+00  0.00000000E+00
  0.00000000E+00  0.00000000E+00  0.00000000E+00
  0.00000000E+00  0.00000000E+00  0.00000000E+00
  0.00000000E+00  0.00000000E+00  0.00000000E+00
  0.00000000E+00  0.00000000E+00  0.00000000E+00
  0.00000000E+00  0.00000000E+00  0.00000000E+00
  0.00000000E+00  0.00000000E+00  0.00000000E+00
  0.00000000E+00  0.00000000E+00  0.00000000E+00
  0.00000000E+00  0.00000000E+00  0.00000000E+00
  0.00000000E+00  0.00000000E+00  0.00000000E+00
  0.00000000E+00  0.00000000E+00  0.00000000E+00
  0.00000000E+00  0.00000000E+00  0.00000000E+00
  0.00000000E+00  0.00000000E+00  0.00000000E+00
  0.00000000E+00  0.00000000E+00  0.00000000E+00
  0.00000000E+00  0.00000000E+00  0.00000000E+00
  0.00000000E+00  0.00000000E+00  0.00000000E+00
  0.00000000E+00  0.00000000E+00  0.00000000E+00
