Hf Nb                                   
    1.000000000000000     
    14.1592841720893983    0.1007071955414544    0.0781301926239318
    -7.0150704518267029    9.7729786727035002    0.0162640873970319
     0.1154523883203320    0.1201989144960598   19.5873653272443775
  Hf             Nb           
              96              32
Direct
  0.3958111084314799  0.0837088110414312  0.4307370009570848
  0.1861565840810119  0.1273616602153018  0.1891564863319795
  0.4456948166538418  0.3740806166449268  0.9387538489601401
  0.8181041202697185  0.1160746407423648  0.5720072625047601
  0.5905353548729091  0.3900075273083635  0.5745179689323030
  0.1896309795551112  0.1226371913455257  0.4350719245736610
  0.9263289583382797  0.6105292259757928  0.1878511264500022
  0.2178155194938775  0.8994863625758819  0.1846922131323596
  0.8261503893808237  0.6395531120539160  0.8112492242326271
  0.2136724830927738  0.6520494944611748  0.9346895261959093
  0.4034396462103993  0.5928473412786881  0.4329313165701580
  0.0728076613997778  0.6473144509557101  0.8087172132544305
  0.2892317905892410  0.8584223060194234  0.5490451752081589
  0.3031180966466144  0.8640370105504863  0.3177569595156341
  0.8017629199823588  0.1308225867440420  0.8029181570435390
  0.5350183867924433  0.6009705415987360  0.5593615042074901
  0.0765336562651139  0.8800282884065933  0.5597741604171012
  0.2973672622399072  0.6297525259664234  0.7967225914596031
  0.4759627920229821  0.6536079184215724  0.6988595251094623
  0.3327233574518885  0.6377446230858264  0.5689292558709527
  0.0438862850153912  0.0959188090071077  0.0604451825255260
  0.0479530335356082  0.6136303302511059  0.3182396676809826
  0.9437850305391240  0.3858803889079604  0.4330662091039264
  0.5549087967396981  0.1201118639373596  0.3145241505467301
  0.9150676500693988  0.1064876282408023  0.9349946564433919
  0.6710900586009747  0.1230042469510054  0.6790605595195375
  0.9275347931137757  0.6122909325854328  0.9457714009036120
  0.4479135381444780  0.3677564784972081  0.4457934256093501
  0.8054301413721161  0.8768834853194851  0.8168687989302020
  0.1739171312581471  0.3681863628705294  0.9442370620094080
  0.5747981128034699  0.3881303548547244  0.3087555463429514
  0.9607180752389651  0.1391569553052986  0.6988757515194168
  0.3123210893222846  0.3875268112919533  0.8177579676848977
  0.7873337700601604  0.8748336159613131  0.0620635593709085
  0.9608093139058953  0.3809371819623819  0.9513031168232229
  0.5494930450557473  0.6274694222687427  0.3104120092128753
  0.0877037475716541  0.8693661853066278  0.0580011645565996
  0.4297431351618089  0.3764257993535602  0.6861386319697101
  0.9406395927863612  0.8729419164401888  0.4370712431860412
  0.1759859562000091  0.1308204200967161  0.6897661947140059
  0.7843273985240680  0.8384778372209353  0.5624045911539041
  0.3324871046453018  0.1357785751933371  0.0639289167771702
  0.5968465324213813  0.4109840725367934  0.0637878877237494
  0.3475844144318868  0.9021015601821570  0.8186469113343139
  0.3107670109329012  0.8689990455093131  0.0482194034328779
  0.0706175173756495  0.8831169046325663  0.3064188775694247
  0.7994394775247483  0.3673802488925999  0.3084086764634161
  0.0494055334417395  0.1287780154858705  0.3146169676908180
  0.9104851200554389  0.0953088697930718  0.1879270091463441
  0.6845339498359791  0.6295243411038363  0.6861023026956640
  0.8051708200558222  0.8649366086546050  0.3097664130403360
  0.2167076808466135  0.4103707898440680  0.6852082591537038
  0.2803306183991912  0.3524721539512441  0.5499694074263280
  0.0702943635055221  0.3791293458853874  0.5581093723081297
  0.9117859402038599  0.1138456837929375  0.4348807997688867
  0.6638345007761848  0.3498587466377253  0.4370960111680606
  0.5638508855492887  0.8769394528843582  0.8065034700023336
  0.4401758044233648  0.3779464462369049  0.1857681341255349
  0.9437129147290443  0.3685026619903770  0.1888157130463816
  0.6917150295729031  0.6404229440365381  0.9401931387576596
  0.4699325092591103  0.1530491591867934  0.6909643976318688
  0.1810629932132477  0.8856843400669023  0.9203753092496182
  0.3176308978856275  0.1358073588047276  0.8125698273678087
  0.4497257407560350  0.1184815021463873  0.9335062859604691
  0.8056061082203687  0.3803384614590969  0.0639111772026097
  0.5375062088376448  0.6130589849482981  0.0702530723778245
  0.0301372056069059  0.0973892248272075  0.5612097595687343
  0.4318693484801504  0.6207696605698589  0.9300538119854675
  0.1629077755403173  0.6231391235183584  0.6677263616219701
  0.0630828446484823  0.3615717542330087  0.8116796198411733
  0.3312175109560735  0.1398204210752257  0.5680588454595633
  0.9408574233118145  0.8700726286019811  0.1739519158214028
  0.4239602786662067  0.8682118266934560  0.6774477469440032
  0.4369292095763943  0.8791630712542451  0.1891394812717203
  0.2028004287546351  0.8956505640087973  0.6924494170325466
  0.1978031572083613  0.6267670497088472  0.4362791111134564
  0.9520034665058735  0.8816575110257939  0.9381519129929428
  0.7247665724524229  0.4061514110766798  0.7005156832600413
  0.9349564743745290  0.8644126315384474  0.6869975876630942
  0.6933595374836111  0.6202466844926586  0.4381422733250041
  0.6937986687863242  0.1205847356957253  0.1880160077074848
  0.2877831025916122  0.3490141384040912  0.0672566851456060
  0.5773885655313201  0.8906880772566449  0.0680738471129924
  0.1905331713712811  0.6258792961383211  0.1946126081561028
  0.5405436922363611  0.1069657864926828  0.5507428925584582
  0.6567360857556261  0.8484174704321896  0.4366418321374301
  0.9291482438650270  0.3727560440473796  0.6906160281561049
  0.7999767326941480  0.3640536478095148  0.5616979054180479
  0.6975330472152499  0.1433063451774391  0.9412201158531297
  0.5507275605674062  0.1284136569835750  0.0737001144511625
  0.6989858153452110  0.1246791238158012  0.4350356323919357
  0.6949390291516265  0.6235463787688468  0.1908150591619427
  0.8248741495893581  0.3899503467578447  0.8320838856808893
  0.3142070454143819  0.6195979861453617  0.0661993830902823
  0.3037723399535929  0.3661733845496012  0.3127500783094267
  0.0663414818744696  0.5964152378850535  0.0641749609274519
  0.9599135005657210  0.6382245327042788  0.6777264574234859
  0.4507903794644405  0.8727380961855509  0.4378763276771799
  0.5531388762341587  0.8726710076265581  0.3138656755131755
  0.8314443190183193  0.6327356486810999  0.5651703355690790
  0.7098977873034483  0.9012969726489596  0.6866263907748603
  0.1809431603211947  0.3723796930093905  0.1935047508113587
  0.5757540219998183  0.3789985977675142  0.8157355903941008
  0.8370172178217021  0.6662270773210444  0.0661259687493355
  0.0668933350989875  0.3784605757060505  0.3101038884509864
  0.6656638638669600  0.8772076039526233  0.9366448063233043
  0.3198574092527343  0.1267619742828319  0.3024079203380590
  0.0707655472759711  0.1241176116122102  0.8262202061994049
  0.0704377538986424  0.9069885763659291  0.8050244110978253
  0.8368131912747904  0.1540770130520062  0.0633199922913083
  0.4467232751948778  0.1415365011822038  0.1958407964176019
  0.5700157427016511  0.8781563543703569  0.5646826360965010
  0.6563270083584190  0.8474715488921195  0.1980430995518558
  0.0386724418112614  0.6045076875785431  0.5457061122056729
  0.1547796891465401  0.3509816349433426  0.4243901570574143
  0.4203531210596540  0.6184994764860289  0.1934022846508129
  0.1936380753482221  0.1331468245365493  0.9400244570953274
  0.0769393247030705  0.3623023566324087  0.0760134725588771
  0.4692099612769500  0.8820608998695143  0.9394387140348982
  0.8298241474700466  0.6313853576944131  0.3194469365977781
  0.6736294976522385  0.3578691191044109  0.1874305822774930
  0.8142882931685999  0.1237034458804598  0.3100797415332615
  0.1530320920141327  0.8488247023960499  0.4309908994525202
  0.6760715893080668  0.3814982191113668  0.9346980090536825
  0.5681161874470392  0.6040792502589266  0.8177470976298187
  0.5875192903741374  0.1495169423481521  0.8129353151381227
  0.3159448945603456  0.6234410615609016  0.3084467287334751
  0.9272106318106234  0.6225797293751609  0.4396486019859797
 
  0.00000000E+00  0.00000000E+00  0.00000000E+00
  0.00000000E+00  0.00000000E+00  0.00000000E+00
  0.00000000E+00  0.00000000E+00  0.00000000E+00
  0.00000000E+00  0.00000000E+00  0.00000000E+00
  0.00000000E+00  0.00000000E+00  0.00000000E+00
  0.00000000E+00  0.00000000E+00  0.00000000E+00
  0.00000000E+00  0.00000000E+00  0.00000000E+00
  0.00000000E+00  0.00000000E+00  0.00000000E+00
  0.00000000E+00  0.00000000E+00  0.00000000E+00
  0.00000000E+00  0.00000000E+00  0.00000000E+00
  0.00000000E+00  0.00000000E+00  0.00000000E+00
  0.00000000E+00  0.00000000E+00  0.00000000E+00
  0.00000000E+00  0.00000000E+00  0.00000000E+00
  0.00000000E+00  0.00000000E+00  0.00000000E+00
  0.00000000E+00  0.00000000E+00  0.00000000E+00
  0.00000000E+00  0.00000000E+00  0.00000000E+00
  0.00000000E+00  0.00000000E+00  0.00000000E+00
  0.00000000E+00  0.00000000E+00  0.00000000E+00
  0.00000000E+00  0.00000000E+00  0.00000000E+00
  0.00000000E+00  0.00000000E+00  0.00000000E+00
  0.00000000E+00  0.00000000E+00  0.00000000E+00
  0.00000000E+00  0.00000000E+00  0.00000000E+00
  0.00000000E+00  0.00000000E+00  0.00000000E+00
  0.00000000E+00  0.00000000E+00  0.00000000E+00
  0.00000000E+00  0.00000000E+00  0.00000000E+00
  0.00000000E+00  0.00000000E+00  0.00000000E+00
  0.00000000E+00  0.00000000E+00  0.00000000E+00
  0.00000000E+00  0.00000000E+00  0.00000000E+00
  0.00000000E+00  0.00000000E+00  0.00000000E+00
  0.00000000E+00  0.00000000E+00  0.00000000E+00
  0.00000000E+00  0.00000000E+00  0.00000000E+00
  0.00000000E+00  0.00000000E+00  0.00000000E+00
  0.00000000E+00  0.00000000E+00  0.00000000E+00
  0.00000000E+00  0.00000000E+00  0.00000000E+00
  0.00000000E+00  0.00000000E+00  0.00000000E+00
  0.00000000E+00  0.00000000E+00  0.00000000E+00
  0.00000000E+00  0.00000000E+00  0.00000000E+00
  0.00000000E+00  0.00000000E+00  0.00000000E+00
  0.00000000E+00  0.00000000E+00  0.00000000E+00
  0.00000000E+00  0.00000000E+00  0.00000000E+00
  0.00000000E+00  0.00000000E+00  0.00000000E+00
  0.00000000E+00  0.00000000E+00  0.00000000E+00
  0.00000000E+00  0.00000000E+00  0.00000000E+00
  0.00000000E+00  0.00000000E+00  0.00000000E+00
  0.00000000E+00  0.00000000E+00  0.00000000E+00
  0.00000000E+00  0.00000000E+00  0.00000000E+00
  0.00000000E+00  0.00000000E+00  0.00000000E+00
  0.00000000E+00  0.00000000E+00  0.00000000E+00
  0.00000000E+00  0.00000000E+00  0.00000000E+00
  0.00000000E+00  0.00000000E+00  0.00000000E+00
  0.00000000E+00  0.00000000E+00  0.00000000E+00
  0.00000000E+00  0.00000000E+00  0.00000000E+00
  0.00000000E+00  0.00000000E+00  0.00000000E+00
  0.00000000E+00  0.00000000E+00  0.00000000E+00
  0.00000000E+00  0.00000000E+00  0.00000000E+00
  0.00000000E+00  0.00000000E+00  0.00000000E+00
  0.00000000E+00  0.00000000E+00  0.00000000E+00
  0.00000000E+00  0.00000000E+00  0.00000000E+00
  0.00000000E+00  0.00000000E+00  0.00000000E+00
  0.00000000E+00  0.00000000E+00  0.00000000E+00
  0.00000000E+00  0.00000000E+00  0.00000000E+00
  0.00000000E+00  0.00000000E+00  0.00000000E+00
  0.00000000E+00  0.00000000E+00  0.00000000E+00
  0.00000000E+00  0.00000000E+00  0.00000000E+00
  0.00000000E+00  0.00000000E+00  0.00000000E+00
  0.00000000E+00  0.00000000E+00  0.00000000E+00
  0.00000000E+00  0.00000000E+00  0.00000000E+00
  0.00000000E+00  0.00000000E+00  0.00000000E+00
  0.00000000E+00  0.00000000E+00  0.00000000E+00
  0.00000000E+00  0.00000000E+00  0.00000000E+00
  0.00000000E+00  0.00000000E+00  0.00000000E+00
  0.00000000E+00  0.00000000E+00  0.00000000E+00
  0.00000000E+00  0.00000000E+00  0.00000000E+00
  0.00000000E+00  0.00000000E+00  0.00000000E+00
  0.00000000E+00  0.00000000E+00  0.00000000E+00
  0.00000000E+00  0.00000000E+00  0.00000000E+00
  0.00000000E+00  0.00000000E+00  0.00000000E+00
  0.00000000E+00  0.00000000E+00  0.00000000E+00
  0.00000000E+00  0.00000000E+00  0.00000000E+00
  0.00000000E+00  0.00000000E+00  0.00000000E+00
  0.00000000E+00  0.00000000E+00  0.00000000E+00
  0.00000000E+00  0.00000000E+00  0.00000000E+00
  0.00000000E+00  0.00000000E+00  0.00000000E+00
  0.00000000E+00  0.00000000E+00  0.00000000E+00
  0.00000000E+00  0.00000000E+00  0.00000000E+00
  0.00000000E+00  0.00000000E+00  0.00000000E+00
  0.00000000E+00  0.00000000E+00  0.00000000E+00
  0.00000000E+00  0.00000000E+00  0.00000000E+00
  0.00000000E+00  0.00000000E+00  0.00000000E+00
  0.00000000E+00  0.00000000E+00  0.00000000E+00
  0.00000000E+00  0.00000000E+00  0.00000000E+00
  0.00000000E+00  0.00000000E+00  0.00000000E+00
  0.00000000E+00  0.00000000E+00  0.00000000E+00
  0.00000000E+00  0.00000000E+00  0.00000000E+00
  0.00000000E+00  0.00000000E+00  0.00000000E+00
  0.00000000E+00  0.00000000E+00  0.00000000E+00
  0.00000000E+00  0.00000000E+00  0.00000000E+00
  0.00000000E+00  0.00000000E+00  0.00000000E+00
  0.00000000E+00  0.00000000E+00  0.00000000E+00
  0.00000000E+00  0.00000000E+00  0.00000000E+00
  0.00000000E+00  0.00000000E+00  0.00000000E+00
  0.00000000E+00  0.00000000E+00  0.00000000E+00
  0.00000000E+00  0.00000000E+00  0.00000000E+00
  0.00000000E+00  0.00000000E+00  0.00000000E+00
  0.00000000E+00  0.00000000E+00  0.00000000E+00
  0.00000000E+00  0.00000000E+00  0.00000000E+00
  0.00000000E+00  0.00000000E+00  0.00000000E+00
  0.00000000E+00  0.00000000E+00  0.00000000E+00
  0.00000000E+00  0.00000000E+00  0.00000000E+00
  0.00000000E+00  0.00000000E+00  0.00000000E+00
  0.00000000E+00  0.00000000E+00  0.00000000E+00
  0.00000000E+00  0.00000000E+00  0.00000000E+00
  0.00000000E+00  0.00000000E+00  0.00000000E+00
  0.00000000E+00  0.00000000E+00  0.00000000E+00
  0.00000000E+00  0.00000000E+00  0.00000000E+00
  0.00000000E+00  0.00000000E+00  0.00000000E+00
  0.00000000E+00  0.00000000E+00  0.00000000E+00
  0.00000000E+00  0.00000000E+00  0.00000000E+00
  0.00000000E+00  0.00000000E+00  0.00000000E+00
  0.00000000E+00  0.00000000E+00  0.00000000E+00
  0.00000000E+00  0.00000000E+00  0.00000000E+00
  0.00000000E+00  0.00000000E+00  0.00000000E+00
  0.00000000E+00  0.00000000E+00  0.00000000E+00
  0.00000000E+00  0.00000000E+00  0.00000000E+00
  0.00000000E+00  0.00000000E+00  0.00000000E+00
  0.00000000E+00  0.00000000E+00  0.00000000E+00
  0.00000000E+00  0.00000000E+00  0.00000000E+00
  0.00000000E+00  0.00000000E+00  0.00000000E+00
