Nb Ti                                   
    1.000000000000000     
    11.7346023864765510   -0.0034484180669317   -0.0000734243940404
    -5.8702910263892658   10.1546682188894515   -0.0002744845894247
    -0.0001163867748245   -0.0005706676418732   18.6187642137089711
  Nb              Ti            
     4   124
Direct
     0.6665791150962576    0.3333042302751330    0.6874988058550174
     0.4165833003910379    0.5832605365112833    0.9371853577561664
     0.1689735912190272    0.0863432587361432    0.6875305512522744
     0.1675399660937042    0.8314624451597422    0.6875757417680363
     0.6669321460751368    0.0831705107656843    0.4373144646779231
     0.8332893921025943    0.1666166693017909    0.3123498705900553
     0.4170413798806520    0.8329488103967593    0.4371987470781623
     0.8331192295905451    0.4165764409684862    0.8140501000532210
     0.6668778266487405    0.8339130617233046    0.1877665323374167
     0.0827320865226229    0.6661567848021942    0.8140114051472994
     0.6666104889168625    0.3331245114589876    0.4369178412056574
     0.5833454418854461    0.1664044144513189    0.3120188519463146
     0.4167741990343650    0.5835171882235152    0.1880927262033963
     0.6670593727688944    0.5840563439782226    0.4371042941758498
     0.3327924549303486    0.4161820908831513    0.5623410755303583
     0.8333311711941560    0.6666510739834898    0.0628518464375018
     0.8332158261038509    0.1665529355502898    0.8126661496499038
     0.3334139281470671    0.9165618954752858    0.8141195648035849
     0.6666854794898940    0.0826979229761948    0.9376828207528902
     0.9169498412552952    0.3331138380178285    0.4373541678740968
     0.5833922143731396    0.1664307486875252    0.0629253829428255
     0.0831024558621636    0.4165195914549619    0.0627445129452289
     0.4163397585436635    0.3339622236457888    0.4368669543691450
     0.1666878461752835    0.0835498160445762    0.1874809605525713
     0.9170115349544136    0.0835906997333557    0.6874989086615634
     0.3332070956071153    0.6666635248960288    0.3126928145944347
     0.9165257866871598    0.8334284241562110    0.1874833824252842
     0.9162169127886788    0.5835965275705733    0.9380648391683681
     0.5832066368375428    0.6665766950753258    0.0639787318155896
     0.8332675681833472    0.9167298823585288    0.0627218107602751
     0.0831634386856996    0.6663907034626824    0.0629708668059730
     0.5832948271257202    0.6666924591634987    0.5622858783390073
     0.3332903155262014    0.4167353627422724    0.0640947963646159
     0.6667987924133520    0.5830636790549315    0.1877532157097507
     0.4164605146007437    0.5832343784535943    0.6868346695879206
     0.3332775784678634    0.6665703462558705    0.0639783761626425
     0.9160116810864577    0.8331003626086847    0.4369941672131056
     0.5834838572863300    0.4170809275939107    0.5609035266785685
     0.0825236456397723    0.1663416807248750    0.8138692704881588
     0.6669361692654446    0.8330326432000412    0.9375816089265608
     0.1671916619718007    0.3335142517164861    0.9377625253689987
     0.8330440430753903    0.6667452910218619    0.8127612115819400
     0.3333183342211548    0.9164008309020153    0.5607959251472403
     0.3335568205065591    0.1669746635994676    0.5607438494724485
     0.0832840066125615    0.4165421097689027    0.5622534816283326
     0.8332680668331008    0.1666404479674587    0.0625748771660786
     0.3336011333653449    0.1669137062730940    0.8141655335218587
     0.5833179677963620    0.9162939473272905    0.8124736296364895
     0.5834422651129382    0.6667202973370282    0.3127913488255569
     0.5834662643502694    0.1665609556777604    0.8138440223668378
     0.9160085569358549    0.0831377723432997    0.4371911320776742
     0.1660301283682490    0.3331450582481332    0.1877642931070668
     0.6664386344295676    0.3333297242477473    0.9380689613861030
     0.9167088814446329    0.0833653974555837    0.1875014536387539
     0.8328454921710657    0.9164068969164938    0.5623311698144652
     0.1667926360506186    0.8333146860482711    0.1874461760432558
     0.4170161957173351    0.3332051356723570    0.1877578252312375
     0.5833862213128032    0.4170694667348288    0.8139334504785438
     0.6675036253138653    0.8342085626461556    0.6872145374813605
     0.6671789499390841    0.5832176757379509    0.6872037567368491
     0.8334924509446654    0.4166188222716412    0.0628703405392476
     0.4169402279028875    0.0835909751836156    0.9383252273253244
     0.0833706614200922    0.4166713457233620    0.8125703699377798
     0.1649648882040187    0.3328641278386040    0.6872163009838302
     0.9169713539562644    0.3338452076992757    0.6874683984210788
     0.4170282434172830    0.0836153758082047    0.4366836776331788
     0.6664342103635358    0.0828719189124752    0.6874730131081500
     0.9158645366001094    0.8330567098589808    0.9380263123645654
     0.9161131962036992    0.0830310725640547    0.9378324465558446
     0.4180464389321057    0.8351157042191185    0.6871888894506986
     0.0829270918537612    0.6662740866097078    0.5609134778476645
     0.0827255200164551    0.1663654916214742    0.5610432688369927
     0.4170025514475944    0.8339617366338044    0.1877729126270591
     0.5833149357619720    0.4167221731717878    0.3122324195123768
     0.9178121711720511    0.5837513673987389    0.6875223732934765
     0.8332305540496272    0.1665780817060099    0.5624580287227345
     0.9161837927231395    0.5835337453811152    0.4369365015343843
     0.1666929313867460    0.0833838744872396    0.4365642234899119
     0.3335181952867364    0.1666908831397110    0.0630562117145699
     0.8332886205232409    0.6666836721682904    0.3122753453969760
     0.3335180829869308    0.9167687065437202    0.0629891151077408
     0.4158843883071043    0.3336435745623149    0.9381748065034189
     0.8333158489957140    0.9166903523937158    0.3124071102515768
     0.5833885802136569    0.9167052546088135    0.0627318982620944
     0.9173639222021353    0.3333469355531056    0.9376377957063999
     0.0831064018211584    0.9164807887573698    0.0633122382052944
     0.1653047222819653    0.5822081910827995    0.6871898814576771
     0.3331040238658132    0.6667569428495177    0.5622082680770367
     0.1669273579179156    0.5831389137479649    0.4372561889646707
     0.3334550167480037    0.9166849072863318    0.3121113093264999
     0.5833823613238561    0.4166565024131966    0.0630320196506212
     0.0830946466963450    0.1666821128065182    0.3122098800947143
     0.6673940253956824    0.5845054131618681    0.9379214503094194
     0.5835096684237711    0.9164443377396783    0.5623698152983193
     0.4166394868892450    0.5832387373523888    0.4375450081489749
     0.8331079723184007    0.6668486888276024    0.5622407933230016
     0.1671056456817340    0.5836737943556141    0.9377772745317299
     0.0832962593861976    0.9167300646798296    0.8148259248986355
     0.8331975638947742    0.4166674476421924    0.5610196707520663
     0.1667697079847577    0.0835853373532811    0.9384109514803808
     0.4163670245174643    0.0824493527440665    0.6875321476137225
     0.6667893782207928    0.0833804112623865    0.1875494120608781
     0.4185000922841178    0.3334525483672453    0.6872023627802878
     0.0831997298497959    0.4165263600349813    0.3124895219298964
     0.0830453072704028    0.1666984306744423    0.0629052168158885
     0.9166070703190782    0.3333164622040581    0.1875543732705938
     0.6667780748620954    0.3333984305063628    0.1875492576150584
     0.3327162915782974    0.4160368107783661    0.8107372278175193
     0.5834008847372711    0.9166773959020269    0.3125010207301463
     0.1669063765073486    0.8332515578479587    0.9382751371549838
     0.8327688393614232    0.9164908016559068    0.8126302814542621
     0.3334891239590210    0.1667152770848852    0.3120587319700898
     0.1660993744415224    0.5830115984754863    0.1877741657688560
     0.4165596845743559    0.0833711622982222    0.1874961174851065
     0.9167400472238217    0.5835130907224949    0.1874944130960277
     0.8335266373654413    0.4166672271774458    0.3120799648065881
     0.6666203521820407    0.8332919657006421    0.4373952302036686
     0.1668395717457223    0.8333104983051491    0.4366867964550636
     0.3329421659980532    0.6669010933256625    0.8108522227454310
     0.0831304758283148    0.9164233340986540    0.3118088534016592
     0.4164551960251980    0.8327075804858792    0.9378365882516569
     0.1670289359171555    0.3338588751688025    0.4372466111876758
     0.0832505063085484    0.6664387618249404    0.3121225013611840
     0.9168037728248317    0.8334415673430614    0.6875416669754170
     0.3331340569651058    0.4165051796909936    0.3126558698286374
     0.5831766683076546    0.6665838034884443    0.8108180526861615
     0.0834726094743263    0.9167497910074537    0.5602336861792695
     0.5834195908646387    0.1665355855448512    0.5612366783903396
 
  0.00000000E+00  0.00000000E+00  0.00000000E+00
  0.00000000E+00  0.00000000E+00  0.00000000E+00
  0.00000000E+00  0.00000000E+00  0.00000000E+00
  0.00000000E+00  0.00000000E+00  0.00000000E+00
  0.00000000E+00  0.00000000E+00  0.00000000E+00
  0.00000000E+00  0.00000000E+00  0.00000000E+00
  0.00000000E+00  0.00000000E+00  0.00000000E+00
  0.00000000E+00  0.00000000E+00  0.00000000E+00
  0.00000000E+00  0.00000000E+00  0.00000000E+00
  0.00000000E+00  0.00000000E+00  0.00000000E+00
  0.00000000E+00  0.00000000E+00  0.00000000E+00
  0.00000000E+00  0.00000000E+00  0.00000000E+00
  0.00000000E+00  0.00000000E+00  0.00000000E+00
  0.00000000E+00  0.00000000E+00  0.00000000E+00
  0.00000000E+00  0.00000000E+00  0.00000000E+00
  0.00000000E+00  0.00000000E+00  0.00000000E+00
  0.00000000E+00  0.00000000E+00  0.00000000E+00
  0.00000000E+00  0.00000000E+00  0.00000000E+00
  0.00000000E+00  0.00000000E+00  0.00000000E+00
  0.00000000E+00  0.00000000E+00  0.00000000E+00
  0.00000000E+00  0.00000000E+00  0.00000000E+00
  0.00000000E+00  0.00000000E+00  0.00000000E+00
  0.00000000E+00  0.00000000E+00  0.00000000E+00
  0.00000000E+00  0.00000000E+00  0.00000000E+00
  0.00000000E+00  0.00000000E+00  0.00000000E+00
  0.00000000E+00  0.00000000E+00  0.00000000E+00
  0.00000000E+00  0.00000000E+00  0.00000000E+00
  0.00000000E+00  0.00000000E+00  0.00000000E+00
  0.00000000E+00  0.00000000E+00  0.00000000E+00
  0.00000000E+00  0.00000000E+00  0.00000000E+00
  0.00000000E+00  0.00000000E+00  0.00000000E+00
  0.00000000E+00  0.00000000E+00  0.00000000E+00
  0.00000000E+00  0.00000000E+00  0.00000000E+00
  0.00000000E+00  0.00000000E+00  0.00000000E+00
  0.00000000E+00  0.00000000E+00  0.00000000E+00
  0.00000000E+00  0.00000000E+00  0.00000000E+00
  0.00000000E+00  0.00000000E+00  0.00000000E+00
  0.00000000E+00  0.00000000E+00  0.00000000E+00
  0.00000000E+00  0.00000000E+00  0.00000000E+00
  0.00000000E+00  0.00000000E+00  0.00000000E+00
  0.00000000E+00  0.00000000E+00  0.00000000E+00
  0.00000000E+00  0.00000000E+00  0.00000000E+00
  0.00000000E+00  0.00000000E+00  0.00000000E+00
  0.00000000E+00  0.00000000E+00  0.00000000E+00
  0.00000000E+00  0.00000000E+00  0.00000000E+00
  0.00000000E+00  0.00000000E+00  0.00000000E+00
  0.00000000E+00  0.00000000E+00  0.00000000E+00
  0.00000000E+00  0.00000000E+00  0.00000000E+00
  0.00000000E+00  0.00000000E+00  0.00000000E+00
  0.00000000E+00  0.00000000E+00  0.00000000E+00
  0.00000000E+00  0.00000000E+00  0.00000000E+00
  0.00000000E+00  0.00000000E+00  0.00000000E+00
  0.00000000E+00  0.00000000E+00  0.00000000E+00
  0.00000000E+00  0.00000000E+00  0.00000000E+00
  0.00000000E+00  0.00000000E+00  0.00000000E+00
  0.00000000E+00  0.00000000E+00  0.00000000E+00
  0.00000000E+00  0.00000000E+00  0.00000000E+00
  0.00000000E+00  0.00000000E+00  0.00000000E+00
  0.00000000E+00  0.00000000E+00  0.00000000E+00
  0.00000000E+00  0.00000000E+00  0.00000000E+00
  0.00000000E+00  0.00000000E+00  0.00000000E+00
  0.00000000E+00  0.00000000E+00  0.00000000E+00
  0.00000000E+00  0.00000000E+00  0.00000000E+00
  0.00000000E+00  0.00000000E+00  0.00000000E+00
  0.00000000E+00  0.00000000E+00  0.00000000E+00
  0.00000000E+00  0.00000000E+00  0.00000000E+00
  0.00000000E+00  0.00000000E+00  0.00000000E+00
  0.00000000E+00  0.00000000E+00  0.00000000E+00
  0.00000000E+00  0.00000000E+00  0.00000000E+00
  0.00000000E+00  0.00000000E+00  0.00000000E+00
  0.00000000E+00  0.00000000E+00  0.00000000E+00
  0.00000000E+00  0.00000000E+00  0.00000000E+00
  0.00000000E+00  0.00000000E+00  0.00000000E+00
  0.00000000E+00  0.00000000E+00  0.00000000E+00
  0.00000000E+00  0.00000000E+00  0.00000000E+00
  0.00000000E+00  0.00000000E+00  0.00000000E+00
  0.00000000E+00  0.00000000E+00  0.00000000E+00
  0.00000000E+00  0.00000000E+00  0.00000000E+00
  0.00000000E+00  0.00000000E+00  0.00000000E+00
  0.00000000E+00  0.00000000E+00  0.00000000E+00
  0.00000000E+00  0.00000000E+00  0.00000000E+00
  0.00000000E+00  0.00000000E+00  0.00000000E+00
  0.00000000E+00  0.00000000E+00  0.00000000E+00
  0.00000000E+00  0.00000000E+00  0.00000000E+00
  0.00000000E+00  0.00000000E+00  0.00000000E+00
  0.00000000E+00  0.00000000E+00  0.00000000E+00
  0.00000000E+00  0.00000000E+00  0.00000000E+00
  0.00000000E+00  0.00000000E+00  0.00000000E+00
  0.00000000E+00  0.00000000E+00  0.00000000E+00
  0.00000000E+00  0.00000000E+00  0.00000000E+00
  0.00000000E+00  0.00000000E+00  0.00000000E+00
  0.00000000E+00  0.00000000E+00  0.00000000E+00
  0.00000000E+00  0.00000000E+00  0.00000000E+00
  0.00000000E+00  0.00000000E+00  0.00000000E+00
  0.00000000E+00  0.00000000E+00  0.00000000E+00
  0.00000000E+00  0.00000000E+00  0.00000000E+00
  0.00000000E+00  0.00000000E+00  0.00000000E+00
  0.00000000E+00  0.00000000E+00  0.00000000E+00
  0.00000000E+00  0.00000000E+00  0.00000000E+00
  0.00000000E+00  0.00000000E+00  0.00000000E+00
  0.00000000E+00  0.00000000E+00  0.00000000E+00
  0.00000000E+00  0.00000000E+00  0.00000000E+00
  0.00000000E+00  0.00000000E+00  0.00000000E+00
  0.00000000E+00  0.00000000E+00  0.00000000E+00
  0.00000000E+00  0.00000000E+00  0.00000000E+00
  0.00000000E+00  0.00000000E+00  0.00000000E+00
  0.00000000E+00  0.00000000E+00  0.00000000E+00
  0.00000000E+00  0.00000000E+00  0.00000000E+00
  0.00000000E+00  0.00000000E+00  0.00000000E+00
  0.00000000E+00  0.00000000E+00  0.00000000E+00
  0.00000000E+00  0.00000000E+00  0.00000000E+00
  0.00000000E+00  0.00000000E+00  0.00000000E+00
  0.00000000E+00  0.00000000E+00  0.00000000E+00
  0.00000000E+00  0.00000000E+00  0.00000000E+00
  0.00000000E+00  0.00000000E+00  0.00000000E+00
  0.00000000E+00  0.00000000E+00  0.00000000E+00
  0.00000000E+00  0.00000000E+00  0.00000000E+00
  0.00000000E+00  0.00000000E+00  0.00000000E+00
  0.00000000E+00  0.00000000E+00  0.00000000E+00
  0.00000000E+00  0.00000000E+00  0.00000000E+00
  0.00000000E+00  0.00000000E+00  0.00000000E+00
  0.00000000E+00  0.00000000E+00  0.00000000E+00
  0.00000000E+00  0.00000000E+00  0.00000000E+00
  0.00000000E+00  0.00000000E+00  0.00000000E+00
  0.00000000E+00  0.00000000E+00  0.00000000E+00
  0.00000000E+00  0.00000000E+00  0.00000000E+00
  0.00000000E+00  0.00000000E+00  0.00000000E+00
  0.00000000E+00  0.00000000E+00  0.00000000E+00
