Hf Ta                                   
    1.000000000000000     
    11.5099543185543887   -0.0292591667883544    1.6867099227881044
    -5.9072366477007634   10.4050670616058287   -0.8371690111044667
     2.8746610067754830   -0.0023571503103044   20.6137192106890446
  Hf             Ta           
               8             120
Direct
  0.1561225805752169  0.0627350416963738  0.6880736828078647
  0.5927008327924143  0.4373306796564925  0.8122647129103873
  0.1568942163448142  0.3123183631736202  0.4375106554750599
  0.4064984758672964  0.0619654126188154  0.4378027364914638
  0.6567085351671229  0.8132213330496451  0.1875461991362170
  0.5944755561784814  0.9382715598639247  0.0624013381311280
  0.9056896295965189  0.3122209529435700  0.9379543168926945
  0.4066394592756993  0.8126195684463817  0.6874567392929445
  0.1568588831001864  0.3127448972411532  0.1876058432165431
  0.4047323402153502  0.5609843662540437  0.1867540129102503
  0.0928886829796975  0.6867023580131001  0.0625440161684482
  0.8451503539164145  0.6891093667324176  0.8128077245217681
  0.9067299211307898  0.5628206119725006  0.4373770117949016
  0.9061887006049110  0.0613729408896496  0.9384276299622716
  0.1600138183058765  0.3136950770294629  0.9380435505424199
  0.1546336530171613  0.5612170061017394  0.6868723550745414
  0.8425392895547572  0.4382364098142574  0.0637763271419064
  0.4104732738691507  0.3146997706565149  0.4378348482224635
  0.1560970161770102  0.0622847852852694  0.9381123663686792
  0.5935569726532014  0.4368524291908913  0.3125531087086245
  0.9098778997767670  0.0650007808933781  0.1870169982494972
  0.6526194429637531  0.3130699736428426  0.9375502578094649
  0.1524751873281420  0.8103334148056522  0.6885482112734955
  0.4058680122066686  0.8108935733959357  0.4382100232242561
  0.5936639528553523  0.4377794382776322  0.0628748324769242
  0.6593797155340685  0.0624048224810891  0.4375507228243802
  0.5954903104146253  0.1887396478873053  0.3114761435337429
  0.3424731461067706  0.9385004308118856  0.8137585795909037
  0.9040059834736741  0.8100245754633247  0.6870088435070788
  0.4057050886951097  0.5606642303658202  0.6881183509802589
  0.5939644029599548  0.6865751679156185  0.3133704288883489
  0.5953585233207705  0.9380434024803408  0.5606741653424770
  0.1529640119812621  0.0600856660041523  0.4378164320757215
  0.4068773717269232  0.0633918614858638  0.1874529825108757
  0.5934217807265361  0.1892724517608658  0.0617642316205544
  0.4039619197705114  0.3113644607519945  0.9389781232784420
  0.3420922920157393  0.6853610580384462  0.5610915903927796
  0.9071373990399731  0.8128853035087203  0.9379302541063060
  0.8432552411040032  0.6873300147631829  0.0627557751801574
  0.4058341847346351  0.0625142165716045  0.9377561846512298
  0.0948841732665966  0.1886050176380316  0.0624937882731250
  0.3425838163259207  0.9359467975087303  0.5642497142889968
  0.5930594018353270  0.6871440422723107  0.5623129731816956
  0.1579276685574348  0.0634169820753700  0.1874711516715011
  0.3422382420087625  0.9356711718068779  0.3110839110949071
  0.5920383243622936  0.9378208518044215  0.3138176311328353
  0.9045913450007194  0.0601241357592563  0.4367439990739381
  0.3404459593119487  0.9376129357784696  0.0623983489297389
  0.3435314746903762  0.6870898579446409  0.8138083817409694
  0.3435590469781257  0.1872637771131216  0.3124427430022476
  0.4066969430474540  0.8127514169345078  0.9379708986594545
  0.3413395182296107  0.6857284788094928  0.0630972122583095
  0.6579332610312900  0.3119332094272319  0.6860676469011969
  0.3395550422663811  0.1850754868073648  0.8131365365347588
  0.8437055590827371  0.9371954160133638  0.3119533529401263
  0.4088381249741322  0.3143660565726265  0.6871449390387586
  0.4072155562630597  0.3130410381086402  0.1876837921740979
  0.9071083963363061  0.5629331330611759  0.1879909673651914
  0.9069492593582374  0.3130203778484971  0.1880803439796638
  0.3452318232568943  0.1904806078083444  0.5622517276524935
  0.8431941199310142  0.9370155522296774  0.8122158842854477
  0.6590830546913832  0.8123096917331004  0.6872000871713120
  0.1563591970160433  0.5640955604831968  0.4379896752318154
  0.0926279512604572  0.9358720497105234  0.8139282794938336
  0.3392930059229164  0.4370004446113457  0.8125369314787777
  0.5937860759488970  0.1861888446213606  0.8119259136079968
  0.1555914728610485  0.3136903520292770  0.6881352825446180
  0.0924947723478726  0.9358609775577408  0.5610616138315461
  0.6568816463215488  0.5613768200599526  0.1882528347872351
  0.8436808991463456  0.1871030219385673  0.3124960496543136
  0.1568390618718742  0.8128889643694528  0.1875398140692754
  0.8441260744709789  0.4379729029570331  0.3123790980093912
  0.6576109073219210  0.5634575685034692  0.4373402572619243
  0.8451984631165618  0.1889385682191358  0.0648878731858270
  0.9062919249559782  0.5643215561154155  0.9382430086567691
  0.9097818156393110  0.8124564987390325  0.1877788064647784
  0.6541870308315785  0.0609023847304202  0.9354961225283538
  0.8430204568194503  0.6867318695724274  0.5617785756069906
  0.6599187916684539  0.0649407820652455  0.6865663717199560
  0.8443081401270340  0.1876147538973972  0.5618704981628139
  0.9060992873747912  0.3130004007117880  0.6875694743442805
  0.0935159397887160  0.1866159784362242  0.3108715641612882
  0.8495136520878576  0.9387025721643890  0.0612992049306249
  0.0928185449735739  0.6865967930711792  0.3122315170107356
  0.1554956081172965  0.5615666895960996  0.1876722069057536
  0.4098425954591920  0.0649767315885629  0.6884576731233027
  0.5932929792458038  0.6851337430047699  0.0607875913251178
  0.3428165681800884  0.6863476548758659  0.3127541471154130
  0.6567858941986570  0.0657124778305206  0.1899262695690211
  0.0929011629586048  0.6874508431141579  0.5624953118075837
  0.5943640111408609  0.4380872327565268  0.5618718042942336
  0.6596224285597133  0.3145048243007825  0.4369390179975531
  0.8438367071420837  0.4373411304761514  0.5618236214362005
  0.4010184702844861  0.8112741971646144  0.1888264652565750
  0.3430263416848755  0.4374817223707376  0.5625095143904839
  0.9047552132842813  0.3129260557671792  0.4372942179912507
  0.0900673482315123  0.1876840556570864  0.8143294253461109
  0.6562931016848572  0.5630281649952804  0.6860635888975245
  0.0937329088581622  0.6869660805162270  0.8127088663209138
  0.5931274650807159  0.1867397124730254  0.5622544622305867
  0.0931519444006591  0.1858135478899818  0.5635650897706026
  0.8440201318113315  0.6877384592199647  0.3121090755982719
  0.5928469663684569  0.9372617868441863  0.8120024043380575
  0.6565800685447727  0.8121572318162019  0.4375521111905762
  0.6570204927322866  0.3132683001572749  0.1875058424920508
  0.1562779929361289  0.8124738535584328  0.9380290381372900
  0.4080876620638568  0.5636789925178023  0.9374754399094403
  0.9059848857639190  0.8122661865164144  0.4373325467075853
  0.0934522799940513  0.9370984995372257  0.0628447524753716
  0.8431088979437498  0.9369296917594020  0.5622486424110144
  0.1541463317491722  0.8100063449369272  0.4367566387160625
  0.0940774449162600  0.9378749751571768  0.3124664286238846
  0.8426710296162511  0.1866058094397866  0.8107133668336300
  0.3438095116293939  0.4378545903335107  0.0623437203387064
  0.8456314065452359  0.4373459351358341  0.8126793105160770
  0.0916585008054795  0.4379276183623148  0.5633977491148729
  0.6581773873614173  0.8119912069522570  0.9360705501649911
  0.6577659131648255  0.5635283033108991  0.9386124555879249
  0.9040677774484350  0.0623565044437695  0.6872921945908940
  0.0937175052821610  0.4369485584230067  0.3123009658575516
  0.3431772358632099  0.1874630500731127  0.0625872094913997
  0.0949583707134764  0.4390276050699773  0.8112123661593714
  0.4092643054374330  0.5639678390045826  0.4369025419486657
  0.0937874105801967  0.4378104243654291  0.0623939569511057
  0.1589934685709315  0.5651475897551156  0.9377077505521372
  0.9055641026112623  0.5622968521949353  0.6876111690111443
  0.3462553549668162  0.4390287984634802  0.3108598834308593
  0.5930943833312416  0.6883978547182394  0.8114955096914955
 
  0.00000000E+00  0.00000000E+00  0.00000000E+00
  0.00000000E+00  0.00000000E+00  0.00000000E+00
  0.00000000E+00  0.00000000E+00  0.00000000E+00
  0.00000000E+00  0.00000000E+00  0.00000000E+00
  0.00000000E+00  0.00000000E+00  0.00000000E+00
  0.00000000E+00  0.00000000E+00  0.00000000E+00
  0.00000000E+00  0.00000000E+00  0.00000000E+00
  0.00000000E+00  0.00000000E+00  0.00000000E+00
  0.00000000E+00  0.00000000E+00  0.00000000E+00
  0.00000000E+00  0.00000000E+00  0.00000000E+00
  0.00000000E+00  0.00000000E+00  0.00000000E+00
  0.00000000E+00  0.00000000E+00  0.00000000E+00
  0.00000000E+00  0.00000000E+00  0.00000000E+00
  0.00000000E+00  0.00000000E+00  0.00000000E+00
  0.00000000E+00  0.00000000E+00  0.00000000E+00
  0.00000000E+00  0.00000000E+00  0.00000000E+00
  0.00000000E+00  0.00000000E+00  0.00000000E+00
  0.00000000E+00  0.00000000E+00  0.00000000E+00
  0.00000000E+00  0.00000000E+00  0.00000000E+00
  0.00000000E+00  0.00000000E+00  0.00000000E+00
  0.00000000E+00  0.00000000E+00  0.00000000E+00
  0.00000000E+00  0.00000000E+00  0.00000000E+00
  0.00000000E+00  0.00000000E+00  0.00000000E+00
  0.00000000E+00  0.00000000E+00  0.00000000E+00
  0.00000000E+00  0.00000000E+00  0.00000000E+00
  0.00000000E+00  0.00000000E+00  0.00000000E+00
  0.00000000E+00  0.00000000E+00  0.00000000E+00
  0.00000000E+00  0.00000000E+00  0.00000000E+00
  0.00000000E+00  0.00000000E+00  0.00000000E+00
  0.00000000E+00  0.00000000E+00  0.00000000E+00
  0.00000000E+00  0.00000000E+00  0.00000000E+00
  0.00000000E+00  0.00000000E+00  0.00000000E+00
  0.00000000E+00  0.00000000E+00  0.00000000E+00
  0.00000000E+00  0.00000000E+00  0.00000000E+00
  0.00000000E+00  0.00000000E+00  0.00000000E+00
  0.00000000E+00  0.00000000E+00  0.00000000E+00
  0.00000000E+00  0.00000000E+00  0.00000000E+00
  0.00000000E+00  0.00000000E+00  0.00000000E+00
  0.00000000E+00  0.00000000E+00  0.00000000E+00
  0.00000000E+00  0.00000000E+00  0.00000000E+00
  0.00000000E+00  0.00000000E+00  0.00000000E+00
  0.00000000E+00  0.00000000E+00  0.00000000E+00
  0.00000000E+00  0.00000000E+00  0.00000000E+00
  0.00000000E+00  0.00000000E+00  0.00000000E+00
  0.00000000E+00  0.00000000E+00  0.00000000E+00
  0.00000000E+00  0.00000000E+00  0.00000000E+00
  0.00000000E+00  0.00000000E+00  0.00000000E+00
  0.00000000E+00  0.00000000E+00  0.00000000E+00
  0.00000000E+00  0.00000000E+00  0.00000000E+00
  0.00000000E+00  0.00000000E+00  0.00000000E+00
  0.00000000E+00  0.00000000E+00  0.00000000E+00
  0.00000000E+00  0.00000000E+00  0.00000000E+00
  0.00000000E+00  0.00000000E+00  0.00000000E+00
  0.00000000E+00  0.00000000E+00  0.00000000E+00
  0.00000000E+00  0.00000000E+00  0.00000000E+00
  0.00000000E+00  0.00000000E+00  0.00000000E+00
  0.00000000E+00  0.00000000E+00  0.00000000E+00
  0.00000000E+00  0.00000000E+00  0.00000000E+00
  0.00000000E+00  0.00000000E+00  0.00000000E+00
  0.00000000E+00  0.00000000E+00  0.00000000E+00
  0.00000000E+00  0.00000000E+00  0.00000000E+00
  0.00000000E+00  0.00000000E+00  0.00000000E+00
  0.00000000E+00  0.00000000E+00  0.00000000E+00
  0.00000000E+00  0.00000000E+00  0.00000000E+00
  0.00000000E+00  0.00000000E+00  0.00000000E+00
  0.00000000E+00  0.00000000E+00  0.00000000E+00
  0.00000000E+00  0.00000000E+00  0.00000000E+00
  0.00000000E+00  0.00000000E+00  0.00000000E+00
  0.00000000E+00  0.00000000E+00  0.00000000E+00
  0.00000000E+00  0.00000000E+00  0.00000000E+00
  0.00000000E+00  0.00000000E+00  0.00000000E+00
  0.00000000E+00  0.00000000E+00  0.00000000E+00
  0.00000000E+00  0.00000000E+00  0.00000000E+00
  0.00000000E+00  0.00000000E+00  0.00000000E+00
  0.00000000E+00  0.00000000E+00  0.00000000E+00
  0.00000000E+00  0.00000000E+00  0.00000000E+00
  0.00000000E+00  0.00000000E+00  0.00000000E+00
  0.00000000E+00  0.00000000E+00  0.00000000E+00
  0.00000000E+00  0.00000000E+00  0.00000000E+00
  0.00000000E+00  0.00000000E+00  0.00000000E+00
  0.00000000E+00  0.00000000E+00  0.00000000E+00
  0.00000000E+00  0.00000000E+00  0.00000000E+00
  0.00000000E+00  0.00000000E+00  0.00000000E+00
  0.00000000E+00  0.00000000E+00  0.00000000E+00
  0.00000000E+00  0.00000000E+00  0.00000000E+00
  0.00000000E+00  0.00000000E+00  0.00000000E+00
  0.00000000E+00  0.00000000E+00  0.00000000E+00
  0.00000000E+00  0.00000000E+00  0.00000000E+00
  0.00000000E+00  0.00000000E+00  0.00000000E+00
  0.00000000E+00  0.00000000E+00  0.00000000E+00
  0.00000000E+00  0.00000000E+00  0.00000000E+00
  0.00000000E+00  0.00000000E+00  0.00000000E+00
  0.00000000E+00  0.00000000E+00  0.00000000E+00
  0.00000000E+00  0.00000000E+00  0.00000000E+00
  0.00000000E+00  0.00000000E+00  0.00000000E+00
  0.00000000E+00  0.00000000E+00  0.00000000E+00
  0.00000000E+00  0.00000000E+00  0.00000000E+00
  0.00000000E+00  0.00000000E+00  0.00000000E+00
  0.00000000E+00  0.00000000E+00  0.00000000E+00
  0.00000000E+00  0.00000000E+00  0.00000000E+00
  0.00000000E+00  0.00000000E+00  0.00000000E+00
  0.00000000E+00  0.00000000E+00  0.00000000E+00
  0.00000000E+00  0.00000000E+00  0.00000000E+00
  0.00000000E+00  0.00000000E+00  0.00000000E+00
  0.00000000E+00  0.00000000E+00  0.00000000E+00
  0.00000000E+00  0.00000000E+00  0.00000000E+00
  0.00000000E+00  0.00000000E+00  0.00000000E+00
  0.00000000E+00  0.00000000E+00  0.00000000E+00
  0.00000000E+00  0.00000000E+00  0.00000000E+00
  0.00000000E+00  0.00000000E+00  0.00000000E+00
  0.00000000E+00  0.00000000E+00  0.00000000E+00
  0.00000000E+00  0.00000000E+00  0.00000000E+00
  0.00000000E+00  0.00000000E+00  0.00000000E+00
  0.00000000E+00  0.00000000E+00  0.00000000E+00
  0.00000000E+00  0.00000000E+00  0.00000000E+00
  0.00000000E+00  0.00000000E+00  0.00000000E+00
  0.00000000E+00  0.00000000E+00  0.00000000E+00
  0.00000000E+00  0.00000000E+00  0.00000000E+00
  0.00000000E+00  0.00000000E+00  0.00000000E+00
  0.00000000E+00  0.00000000E+00  0.00000000E+00
  0.00000000E+00  0.00000000E+00  0.00000000E+00
  0.00000000E+00  0.00000000E+00  0.00000000E+00
  0.00000000E+00  0.00000000E+00  0.00000000E+00
  0.00000000E+00  0.00000000E+00  0.00000000E+00
  0.00000000E+00  0.00000000E+00  0.00000000E+00
  0.00000000E+00  0.00000000E+00  0.00000000E+00
  0.00000000E+00  0.00000000E+00  0.00000000E+00
  0.00000000E+00  0.00000000E+00  0.00000000E+00
