Hf Nb                                   
    1.000000000000000     
    12.4494547737647991    0.3672550234634100   -0.0053679556350365
    -5.9150027126132709   10.9501687551837694    0.0210617036727509
    -0.0074363722972086    0.0352166595480567   19.9959317334107496
  Hf             Nb           
             104              24
Direct
  0.6712301746796336  0.0846564504211412  0.9385517534709563
  0.6814184008459736  0.8331384265289924  0.6834014300912284
  0.5759852321691097  0.4227895642480007  0.5625625805238935
  0.0850575711196374  0.9122007023147765  0.8098532158602649
  0.5770354172854898  0.4220982119618807  0.3122511428478791
  0.1650382713526956  0.3287758507332619  0.4360620132819764
  0.6725592942376075  0.3360740592060686  0.9382334451579351
  0.6582415836596324  0.5774012598562973  0.4388092669519727
  0.6711169723486039  0.0806170207287274  0.6860699569337085
  0.6671773232004269  0.3312545998984427  0.6866034093338604
  0.5740683256994307  0.6679599591196912  0.3125657271538416
  0.5773507777161357  0.4213265399793288  0.8134358417777984
  0.9164310305869439  0.3287229091420777  0.6873033725434450
  0.9099915764585520  0.3174228350566967  0.4353389577005842
  0.3298024272580651  0.9267380100701433  0.0600975074672793
  0.3383334623596994  0.9303408787556781  0.5643046839939436
  0.0684658944603066  0.1723712888418117  0.3065777313484898
  0.3247232866363425  0.1764049244010827  0.3106486227294643
  0.1786630624459062  0.8204882656654220  0.6892324630240084
  0.9242343978710200  0.8254477057741506  0.6833963436627953
  0.6738331204627988  0.3361211763877685  0.1879033559644205
  0.8313788839773383  0.4102240010926985  0.0644022926347471
  0.5797893243667572  0.1699540463336280  0.3114451255450963
  0.3319971520376214  0.4326108829249061  0.0656003581833548
  0.5863736947628273  0.9192071309602962  0.5625326764304228
  0.0838168149644215  0.9171276683572083  0.0657933625289676
  0.6596004124612905  0.3253543262577467  0.4375880185995938
  0.8303050678632338  0.4163894926250745  0.8106716109613641
  0.3195469830013707  0.6782647228393337  0.5587143893965432
  0.1640182257400705  0.0670659997147732  0.9378978235604158
  0.3236947089709565  0.4334953127661417  0.3084508031422910
  0.4246483279257471  0.0977022577201786  0.9390636505843907
  0.9066718999285909  0.5670735899318631  0.4474646527922395
  0.0925545655161342  0.9212962347060194  0.3132598718522299
  0.4294825063722614  0.8320045606356183  0.6853602588408657
  0.6725757108385625  0.8257799702868731  0.1893025380270086
  0.9265869469000477  0.0764095361424346  0.6869663930188871
  0.6698148150017234  0.0787133830287527  0.4388907175161785
  0.0742581352079970  0.4279030643149749  0.3078387438064593
  0.9279459822268361  0.8250569139653542  0.4382060199994245
  0.6699817287735733  0.8318219900491957  0.9369843486474069
  0.3234356056231459  0.4262383802750999  0.5627917661515056
  0.0858270770813494  0.6761260225712421  0.0564183631071759
  0.0928272540394224  0.1742179029787213  0.5607532063586511
  0.4132562995559920  0.5894241811062991  0.4365164909423122
  0.1690962732114409  0.5728817722333206  0.6872879187700873
  0.0769825920702549  0.4126580105237275  0.8155459324298230
  0.9252003433491559  0.3060799681481788  0.1862417434575077
  0.4177910405660173  0.3317487575792915  0.6867773457698871
  0.4244092776945205  0.3505725488460464  0.1881709108343926
  0.5825234784825997  0.9209642973255955  0.0638882822285742
  0.1784350304206080  0.0843197434517665  0.6865043191631073
  0.8328777423351553  0.1652528390377783  0.5625994780868735
  0.1627654968187019  0.0781227285484504  0.1875112910887599
  0.1811587809349504  0.3208272605299263  0.9355831064007120
  0.1844672519879932  0.8113840002996813  0.1908086664350892
  0.8228779665779570  0.4061068415430176  0.3131606505325401
  0.6717413318653987  0.5865068275547832  0.9369171089871623
  0.4099208031984557  0.3302179912221935  0.4376183054382898
  0.6661477531333384  0.5815236683399023  0.6854366882808194
  0.5744699241260706  0.6746022609409814  0.8071330604691173
  0.4148975700468155  0.0754086315133797  0.6947046983293746
  0.4157291066433556  0.0786035961153986  0.4348922353959279
  0.8312295449416500  0.9165088616392401  0.3142113442680742
  0.5831233997482913  0.1723897503875728  0.0638383347155819
  0.8218691977571544  0.6560682443001911  0.3142081966338665
  0.3330173552738035  0.6807358397945267  0.0663269590923517
  0.4207769397640819  0.5862565642728114  0.9350381248359022
  0.1601502541424666  0.3204521280379828  0.6891562799669013
  0.8325135048449001  0.1643877614176550  0.8116814852828567
  0.3297757080539891  0.1844198319668650  0.0637452826254303
  0.3119846512240440  0.6888973913377806  0.3095158288300811
  0.8338105755359766  0.9141954596612907  0.8129544323022552
  0.0667004079415376  0.4228154237290541  0.5610439188990419
  0.5836166234968277  0.1736809417677501  0.8129013568338940
  0.9267797308300260  0.8229191903977461  0.9375716343100863
  0.3222643233646362  0.6826107922451370  0.8130864194733010
  0.9167514071682307  0.5744554082047330  0.6772304403829129
  0.3256074981227708  0.1837313668102339  0.8169484116279966
  0.5832679597006992  0.4241164567488878  0.0632710205793204
  0.8309184047905919  0.6617908184362323  0.0654847067461571
  0.9433261528052298  0.5678565500526266  0.1925554273938837
  0.1711975307961977  0.5812656814027843  0.9375937123107344
  0.4201226301460452  0.8403489664226675  0.9372666177843391
  0.1540453172752556  0.5747740263406157  0.4361067051494289
  0.5732605592780187  0.9165501660611236  0.3161255362175047
  0.5749228876694119  0.1693366715749864  0.5639063468449470
  0.0669466170693657  0.1692834376178076  0.0679907467386727
  0.5817086078856663  0.6693797503996245  0.0637799016281408
  0.4178885116035794  0.0841698570163694  0.1864722424035137
  0.9203781201041596  0.0782493440778397  0.9387557012616735
  0.8298845712299000  0.6636590733126717  0.8095959466513045
  0.0837921885909367  0.4226730997239329  0.0616024700706397
  0.0880598314777939  0.9253565174828635  0.5599902080762799
  0.9174868481685242  0.3215132018770043  0.9396161861542772
  0.6739477114065751  0.0793516510995678  0.1891946083564284
  0.9241269337144786  0.0741415997973520  0.4391163847151244
  0.9177330641555558  0.5721399210216610  0.9362822280465716
  0.3351751293630832  0.4372964613367943  0.8052764809546027
  0.6775136650154850  0.8277108293227075  0.4430554058636099
  0.9244055919966822  0.8177254997639023  0.1907734969419568
  0.1833146299337786  0.8260731234071664  0.4380564623289377
  0.8300065791620139  0.9138319837166553  0.0638403803563976
  0.5810268238180434  0.9252227562388494  0.8122966349460022
  0.8406189296917471  0.9206145083606213  0.5631538384889269
  0.0667389605288409  0.6589702620642635  0.8068633478118112
  0.0733200423619630  0.6780731492328180  0.5623633650780576
  0.4241890361522309  0.6006501579392352  0.1890989748217451
  0.4358611591776002  0.8398528979500159  0.4413998668612917
  0.1884842635192390  0.5561069746008238  0.1855017937920002
  0.0713848282174106  0.1585889923320458  0.8152030891742218
  0.1772402665683300  0.3304042734869468  0.1862607762403437
  0.9033030856276518  0.0562863375856246  0.1887281886390216
  0.4302216015464514  0.5863795536845815  0.6789258111288935
  0.0618149433315045  0.6675708415981035  0.3244663115022048
  0.1763405319509601  0.8220269084393882  0.9295310811369311
  0.3430259274698674  0.9364501819632480  0.3100598152838737
  0.8110935091102920  0.6829114656057644  0.5607196931680966
  0.8224322411311072  0.1560233648112097  0.3152807701385731
  0.3281597325301905  0.9340840773467007  0.8208165324089782
  0.1762866127745331  0.0750306209058940  0.4345212787812195
  0.3374616348656140  0.1849272866870982  0.5619359811949415
  0.8085714713544082  0.4010658704504829  0.5611716716268357
  0.5667249634589894  0.6709892718474794  0.5618884220295937
  0.6918780884225423  0.5842483382988352  0.1882735212451913
  0.4331443322602189  0.3481697148374092  0.9395876803605822
  0.8232866143522114  0.1583103907162637  0.0619041148006803
  0.4313525927746754  0.8443290526026885  0.1879820191396622
 
  0.00000000E+00  0.00000000E+00  0.00000000E+00
  0.00000000E+00  0.00000000E+00  0.00000000E+00
  0.00000000E+00  0.00000000E+00  0.00000000E+00
  0.00000000E+00  0.00000000E+00  0.00000000E+00
  0.00000000E+00  0.00000000E+00  0.00000000E+00
  0.00000000E+00  0.00000000E+00  0.00000000E+00
  0.00000000E+00  0.00000000E+00  0.00000000E+00
  0.00000000E+00  0.00000000E+00  0.00000000E+00
  0.00000000E+00  0.00000000E+00  0.00000000E+00
  0.00000000E+00  0.00000000E+00  0.00000000E+00
  0.00000000E+00  0.00000000E+00  0.00000000E+00
  0.00000000E+00  0.00000000E+00  0.00000000E+00
  0.00000000E+00  0.00000000E+00  0.00000000E+00
  0.00000000E+00  0.00000000E+00  0.00000000E+00
  0.00000000E+00  0.00000000E+00  0.00000000E+00
  0.00000000E+00  0.00000000E+00  0.00000000E+00
  0.00000000E+00  0.00000000E+00  0.00000000E+00
  0.00000000E+00  0.00000000E+00  0.00000000E+00
  0.00000000E+00  0.00000000E+00  0.00000000E+00
  0.00000000E+00  0.00000000E+00  0.00000000E+00
  0.00000000E+00  0.00000000E+00  0.00000000E+00
  0.00000000E+00  0.00000000E+00  0.00000000E+00
  0.00000000E+00  0.00000000E+00  0.00000000E+00
  0.00000000E+00  0.00000000E+00  0.00000000E+00
  0.00000000E+00  0.00000000E+00  0.00000000E+00
  0.00000000E+00  0.00000000E+00  0.00000000E+00
  0.00000000E+00  0.00000000E+00  0.00000000E+00
  0.00000000E+00  0.00000000E+00  0.00000000E+00
  0.00000000E+00  0.00000000E+00  0.00000000E+00
  0.00000000E+00  0.00000000E+00  0.00000000E+00
  0.00000000E+00  0.00000000E+00  0.00000000E+00
  0.00000000E+00  0.00000000E+00  0.00000000E+00
  0.00000000E+00  0.00000000E+00  0.00000000E+00
  0.00000000E+00  0.00000000E+00  0.00000000E+00
  0.00000000E+00  0.00000000E+00  0.00000000E+00
  0.00000000E+00  0.00000000E+00  0.00000000E+00
  0.00000000E+00  0.00000000E+00  0.00000000E+00
  0.00000000E+00  0.00000000E+00  0.00000000E+00
  0.00000000E+00  0.00000000E+00  0.00000000E+00
  0.00000000E+00  0.00000000E+00  0.00000000E+00
  0.00000000E+00  0.00000000E+00  0.00000000E+00
  0.00000000E+00  0.00000000E+00  0.00000000E+00
  0.00000000E+00  0.00000000E+00  0.00000000E+00
  0.00000000E+00  0.00000000E+00  0.00000000E+00
  0.00000000E+00  0.00000000E+00  0.00000000E+00
  0.00000000E+00  0.00000000E+00  0.00000000E+00
  0.00000000E+00  0.00000000E+00  0.00000000E+00
  0.00000000E+00  0.00000000E+00  0.00000000E+00
  0.00000000E+00  0.00000000E+00  0.00000000E+00
  0.00000000E+00  0.00000000E+00  0.00000000E+00
  0.00000000E+00  0.00000000E+00  0.00000000E+00
  0.00000000E+00  0.00000000E+00  0.00000000E+00
  0.00000000E+00  0.00000000E+00  0.00000000E+00
  0.00000000E+00  0.00000000E+00  0.00000000E+00
  0.00000000E+00  0.00000000E+00  0.00000000E+00
  0.00000000E+00  0.00000000E+00  0.00000000E+00
  0.00000000E+00  0.00000000E+00  0.00000000E+00
  0.00000000E+00  0.00000000E+00  0.00000000E+00
  0.00000000E+00  0.00000000E+00  0.00000000E+00
  0.00000000E+00  0.00000000E+00  0.00000000E+00
  0.00000000E+00  0.00000000E+00  0.00000000E+00
  0.00000000E+00  0.00000000E+00  0.00000000E+00
  0.00000000E+00  0.00000000E+00  0.00000000E+00
  0.00000000E+00  0.00000000E+00  0.00000000E+00
  0.00000000E+00  0.00000000E+00  0.00000000E+00
  0.00000000E+00  0.00000000E+00  0.00000000E+00
  0.00000000E+00  0.00000000E+00  0.00000000E+00
  0.00000000E+00  0.00000000E+00  0.00000000E+00
  0.00000000E+00  0.00000000E+00  0.00000000E+00
  0.00000000E+00  0.00000000E+00  0.00000000E+00
  0.00000000E+00  0.00000000E+00  0.00000000E+00
  0.00000000E+00  0.00000000E+00  0.00000000E+00
  0.00000000E+00  0.00000000E+00  0.00000000E+00
  0.00000000E+00  0.00000000E+00  0.00000000E+00
  0.00000000E+00  0.00000000E+00  0.00000000E+00
  0.00000000E+00  0.00000000E+00  0.00000000E+00
  0.00000000E+00  0.00000000E+00  0.00000000E+00
  0.00000000E+00  0.00000000E+00  0.00000000E+00
  0.00000000E+00  0.00000000E+00  0.00000000E+00
  0.00000000E+00  0.00000000E+00  0.00000000E+00
  0.00000000E+00  0.00000000E+00  0.00000000E+00
  0.00000000E+00  0.00000000E+00  0.00000000E+00
  0.00000000E+00  0.00000000E+00  0.00000000E+00
  0.00000000E+00  0.00000000E+00  0.00000000E+00
  0.00000000E+00  0.00000000E+00  0.00000000E+00
  0.00000000E+00  0.00000000E+00  0.00000000E+00
  0.00000000E+00  0.00000000E+00  0.00000000E+00
  0.00000000E+00  0.00000000E+00  0.00000000E+00
  0.00000000E+00  0.00000000E+00  0.00000000E+00
  0.00000000E+00  0.00000000E+00  0.00000000E+00
  0.00000000E+00  0.00000000E+00  0.00000000E+00
  0.00000000E+00  0.00000000E+00  0.00000000E+00
  0.00000000E+00  0.00000000E+00  0.00000000E+00
  0.00000000E+00  0.00000000E+00  0.00000000E+00
  0.00000000E+00  0.00000000E+00  0.00000000E+00
  0.00000000E+00  0.00000000E+00  0.00000000E+00
  0.00000000E+00  0.00000000E+00  0.00000000E+00
  0.00000000E+00  0.00000000E+00  0.00000000E+00
  0.00000000E+00  0.00000000E+00  0.00000000E+00
  0.00000000E+00  0.00000000E+00  0.00000000E+00
  0.00000000E+00  0.00000000E+00  0.00000000E+00
  0.00000000E+00  0.00000000E+00  0.00000000E+00
  0.00000000E+00  0.00000000E+00  0.00000000E+00
  0.00000000E+00  0.00000000E+00  0.00000000E+00
  0.00000000E+00  0.00000000E+00  0.00000000E+00
  0.00000000E+00  0.00000000E+00  0.00000000E+00
  0.00000000E+00  0.00000000E+00  0.00000000E+00
  0.00000000E+00  0.00000000E+00  0.00000000E+00
  0.00000000E+00  0.00000000E+00  0.00000000E+00
  0.00000000E+00  0.00000000E+00  0.00000000E+00
  0.00000000E+00  0.00000000E+00  0.00000000E+00
  0.00000000E+00  0.00000000E+00  0.00000000E+00
  0.00000000E+00  0.00000000E+00  0.00000000E+00
  0.00000000E+00  0.00000000E+00  0.00000000E+00
  0.00000000E+00  0.00000000E+00  0.00000000E+00
  0.00000000E+00  0.00000000E+00  0.00000000E+00
  0.00000000E+00  0.00000000E+00  0.00000000E+00
  0.00000000E+00  0.00000000E+00  0.00000000E+00
  0.00000000E+00  0.00000000E+00  0.00000000E+00
  0.00000000E+00  0.00000000E+00  0.00000000E+00
  0.00000000E+00  0.00000000E+00  0.00000000E+00
  0.00000000E+00  0.00000000E+00  0.00000000E+00
  0.00000000E+00  0.00000000E+00  0.00000000E+00
  0.00000000E+00  0.00000000E+00  0.00000000E+00
  0.00000000E+00  0.00000000E+00  0.00000000E+00
  0.00000000E+00  0.00000000E+00  0.00000000E+00
  0.00000000E+00  0.00000000E+00  0.00000000E+00
  0.00000000E+00  0.00000000E+00  0.00000000E+00
