Hf Nb                                   
    1.000000000000000     
    11.2760985666644906   -1.0705617704461292   -0.0913916789602849
    -6.4292669516509120   11.5648524873443623    0.1371309803200875
     0.1503062327379467   -0.1673628923267733   18.8936284193148332
  Hf             Nb           
               8             120
Direct
  0.1270991688635660  0.0628484405740017  0.6882493792698308
  0.6247384228071714  0.4374950259628225  0.8131906983049668
  0.1260424703600806  0.3146989914376403  0.4362157492926433
  0.3730093013469118  0.0630956147272660  0.4363112612632888
  0.6250773083760361  0.8093574687380314  0.1899264938253949
  0.6253395946943118  0.9402567203253956  0.0601020343684302
  0.8748851261653433  0.3122200712068080  0.9376808478743013
  0.3742347987325950  0.8108092055884051  0.6880429135278736
  0.1250277874481443  0.3128617422341090  0.1877475039708342
  0.3697542817709586  0.5573409875850325  0.1876191656396462
  0.1234551712825180  0.6863058202194529  0.0623890985254579
  0.8805473757942546  0.6915211063238415  0.8135255934279283
  0.8753235369729225  0.5635198662166471  0.4372173630445098
  0.8722450968750119  0.0622616347642965  0.9387413141019122
  0.1306083501793243  0.3112918169878678  0.9385308946601433
  0.1198749232115669  0.5590234673811594  0.6868201720405488
  0.8735061846455440  0.4400899954496608  0.0645397503845646
  0.3810909890095692  0.3106352339075851  0.4372586493749180
  0.1235126425987122  0.0611291679110412  0.9376119003711585
  0.6255033866787658  0.4379185408701455  0.3120550291634701
  0.8776262700444538  0.0651950305579296  0.1870173557715895
  0.6175012970562488  0.3101303694568477  0.9412497068405731
  0.1195522967077658  0.8146155673579027  0.6874945897439634
  0.3746259662457455  0.8138305314390734  0.4374947904374971
  0.6243599407302700  0.4372594385743203  0.0636325707166452
  0.6297853261649876  0.0617640382448990  0.4380229197506053
  0.6232417851364195  0.1872392910309438  0.3131569933035195
  0.3744829031267703  0.9391935989294283  0.8148916373153767
  0.8707743008115914  0.8090491099197979  0.6875536186208389
  0.3736594017758821  0.5644219794258947  0.6869261628971561
  0.6264989034820169  0.6840450946275111  0.3153052981618760
  0.6231373728272698  0.9359385111252245  0.5633241637121073
  0.1177409885944393  0.0644372793444732  0.4373238410903276
  0.3764703310315767  0.0644057804480693  0.1881076388053126
  0.6269753922649764  0.1866470820748538  0.0620334075484227
  0.3761362499226037  0.3137063512000404  0.9369020583794899
  0.3747920594345559  0.6848554444411721  0.5602317247399897
  0.8748745200241193  0.8127118363853364  0.9378268733358067
  0.8747853580635835  0.6859880792786661  0.0623206437178937
  0.3730635883070320  0.0621543870869252  0.9382405262677660
  0.1264367489626425  0.1875845710896407  0.0626918224702032
  0.3750323881372573  0.9371962122630133  0.5623490008970713
  0.6258284190943837  0.6875477019929128  0.5619197921630057
  0.1261000767013689  0.0627263890063813  0.1872678420796162
  0.3750878447599699  0.9346190703682858  0.3102352893019532
  0.6248158389355184  0.9399148808462094  0.3144508264266606
  0.8709970370501792  0.0582632574462128  0.4373609689489578
  0.3673868848509656  0.9378483784084511  0.0623659382100330
  0.3763696962972609  0.6859346552964513  0.8148611642620021
  0.3740988108823277  0.1897358986810738  0.3095389821101888
  0.3769302392595357  0.8127454691180225  0.9387875280490129
  0.3708787773593847  0.6840770178532826  0.0642226715910567
  0.6259811323755459  0.3106558900338832  0.6856022417604818
  0.3676304903601176  0.1822536466390122  0.8114844899454464
  0.8724307177110505  0.9361655081540539  0.3108236942625020
  0.3816298388131821  0.3189754390829739  0.6883917491610848
  0.3765783111146908  0.3134681158687466  0.1880246917958371
  0.8735297183416169  0.5612127329642334  0.1886677477363146
  0.8736490964497969  0.3123623749218252  0.1877573408956245
  0.3734567790962758  0.1888827997877192  0.5660780867437204
  0.8764893082734705  0.9384673076318000  0.8122632828693871
  0.6311665180462249  0.8126669832042877  0.6873430166208753
  0.1265383139381016  0.5615162030965057  0.4372705268832649
  0.1248432102641737  0.9349724301603057  0.8150791268284576
  0.3676570219394572  0.4374262323895327  0.8119416933442287
  0.6280706182135372  0.1917341803797033  0.8134155494697618
  0.1249359734193568  0.3106275591367877  0.6867899848212098
  0.1267587838489292  0.9366143160674797  0.5587510207436973
  0.6242842642664551  0.5634382140856428  0.1877716431824749
  0.8775268263421567  0.1891713871494289  0.3129985410494480
  0.1249132252283749  0.8117821342678206  0.1879512367110817
  0.8763182749239539  0.4376647740210623  0.3120515143054121
  0.6254558706379624  0.5630319747673155  0.4378249912841682
  0.8828003214967381  0.1905704672048194  0.0653352187824005
  0.8735929594667277  0.5594790725180504  0.9366013505746499
  0.8815211983906043  0.8110566446087408  0.1883492150847630
  0.6180470732930335  0.0604037264596459  0.9337606985166219
  0.8751538194316524  0.6874205638232770  0.5630472274697828
  0.6294299961772708  0.0664626745712150  0.6871079088085321
  0.8780302427791742  0.1897880961208499  0.5610296583299722
  0.8760981255079850  0.3130424924762208  0.6867282582769502
  0.1252589197493909  0.1848069480665537  0.3100696093762520
  0.8800146181357049  0.9357555987448917  0.0636488794204261
  0.1246393919402016  0.6875922865413130  0.3131849762484205
  0.1234075072277848  0.5617167420402028  0.1873693035344046
  0.3825895375632535  0.0606760156057705  0.6869954141444634
  0.6248931385895935  0.6868895854883553  0.0608240702473348
  0.3767705495180265  0.6881278552564328  0.3109520964014202
  0.6258525910147315  0.0646007381796423  0.1898881472848096
  0.1260893596026874  0.6880358159960444  0.5629187856957719
  0.6255755213917893  0.4381836199872064  0.5617432626318229
  0.6298115535423189  0.3165341135607795  0.4367657427182070
  0.8753750525046213  0.4384304318768468  0.5621379790840421
  0.3704789461699006  0.8137134300440212  0.1864431526292269
  0.3727510969431987  0.4369155540366066  0.5616925321301004
  0.8695734358424392  0.3135238323576238  0.4370360249071640
  0.1227363958690981  0.1884300887324034  0.8149429906315887
  0.6236145746743273  0.5639296183422138  0.6853592835127112
  0.1283645489093115  0.6888782516411912  0.8112334356213009
  0.6238723550515325  0.1870593169680803  0.5603192515753063
  0.1249724825555148  0.1879365819160707  0.5620165989093037
  0.8758876922072788  0.6873696177799334  0.3122402616775338
  0.6228973772720652  0.9358698776390652  0.8115049341099898
  0.6247204363378656  0.8122215905830483  0.4377468510499297
  0.6254108462974194  0.3128241776538437  0.1872081062659368
  0.1226335140020061  0.8109077158603787  0.9379080825917520
  0.3757247502560380  0.5633038995471386  0.9382179422338207
  0.8751964148013408  0.8119923542766543  0.4373092065121618
  0.1246426656650718  0.9375079518189543  0.0629786860211672
  0.8769140671062358  0.9387534475436294  0.5639436969007118
  0.1208207027705097  0.8072180000087930  0.4375199953107964
  0.1262942841094368  0.9380628659472839  0.3139723246521252
  0.8746205263287625  0.1842040359994697  0.8106643262106008
  0.3758371217048246  0.4368104001345142  0.0630717928355883
  0.8831504467551285  0.4413152599441019  0.8097501693812580
  0.1242928338407399  0.4400155719584475  0.5638841731545069
  0.6278607608412626  0.8114243351799377  0.9349875146147237
  0.6261294198889201  0.5652441193510778  0.9400185480743946
  0.8704264931714651  0.0632349973996331  0.6866410754953938
  0.1242851112815960  0.4403958361523516  0.3101426614678190
  0.3749585138150512  0.1876503313182133  0.0627463890235012
  0.1233866047873072  0.4366486695634298  0.8139347288339226
  0.3805247830826275  0.5669099368480617  0.4370105832377770
  0.1232868872276243  0.4362341927864676  0.0610400823613079
  0.1291920519495677  0.5671995639631592  0.9377119968300052
  0.8724782120290407  0.5610882025979759  0.6874340414898068
  0.3716696639466500  0.4365997044541148  0.3132422216920787
  0.6246761277248364  0.6854806029847949  0.8125022049108146
 
  0.00000000E+00  0.00000000E+00  0.00000000E+00
  0.00000000E+00  0.00000000E+00  0.00000000E+00
  0.00000000E+00  0.00000000E+00  0.00000000E+00
  0.00000000E+00  0.00000000E+00  0.00000000E+00
  0.00000000E+00  0.00000000E+00  0.00000000E+00
  0.00000000E+00  0.00000000E+00  0.00000000E+00
  0.00000000E+00  0.00000000E+00  0.00000000E+00
  0.00000000E+00  0.00000000E+00  0.00000000E+00
  0.00000000E+00  0.00000000E+00  0.00000000E+00
  0.00000000E+00  0.00000000E+00  0.00000000E+00
  0.00000000E+00  0.00000000E+00  0.00000000E+00
  0.00000000E+00  0.00000000E+00  0.00000000E+00
  0.00000000E+00  0.00000000E+00  0.00000000E+00
  0.00000000E+00  0.00000000E+00  0.00000000E+00
  0.00000000E+00  0.00000000E+00  0.00000000E+00
  0.00000000E+00  0.00000000E+00  0.00000000E+00
  0.00000000E+00  0.00000000E+00  0.00000000E+00
  0.00000000E+00  0.00000000E+00  0.00000000E+00
  0.00000000E+00  0.00000000E+00  0.00000000E+00
  0.00000000E+00  0.00000000E+00  0.00000000E+00
  0.00000000E+00  0.00000000E+00  0.00000000E+00
  0.00000000E+00  0.00000000E+00  0.00000000E+00
  0.00000000E+00  0.00000000E+00  0.00000000E+00
  0.00000000E+00  0.00000000E+00  0.00000000E+00
  0.00000000E+00  0.00000000E+00  0.00000000E+00
  0.00000000E+00  0.00000000E+00  0.00000000E+00
  0.00000000E+00  0.00000000E+00  0.00000000E+00
  0.00000000E+00  0.00000000E+00  0.00000000E+00
  0.00000000E+00  0.00000000E+00  0.00000000E+00
  0.00000000E+00  0.00000000E+00  0.00000000E+00
  0.00000000E+00  0.00000000E+00  0.00000000E+00
  0.00000000E+00  0.00000000E+00  0.00000000E+00
  0.00000000E+00  0.00000000E+00  0.00000000E+00
  0.00000000E+00  0.00000000E+00  0.00000000E+00
  0.00000000E+00  0.00000000E+00  0.00000000E+00
  0.00000000E+00  0.00000000E+00  0.00000000E+00
  0.00000000E+00  0.00000000E+00  0.00000000E+00
  0.00000000E+00  0.00000000E+00  0.00000000E+00
  0.00000000E+00  0.00000000E+00  0.00000000E+00
  0.00000000E+00  0.00000000E+00  0.00000000E+00
  0.00000000E+00  0.00000000E+00  0.00000000E+00
  0.00000000E+00  0.00000000E+00  0.00000000E+00
  0.00000000E+00  0.00000000E+00  0.00000000E+00
  0.00000000E+00  0.00000000E+00  0.00000000E+00
  0.00000000E+00  0.00000000E+00  0.00000000E+00
  0.00000000E+00  0.00000000E+00  0.00000000E+00
  0.00000000E+00  0.00000000E+00  0.00000000E+00
  0.00000000E+00  0.00000000E+00  0.00000000E+00
  0.00000000E+00  0.00000000E+00  0.00000000E+00
  0.00000000E+00  0.00000000E+00  0.00000000E+00
  0.00000000E+00  0.00000000E+00  0.00000000E+00
  0.00000000E+00  0.00000000E+00  0.00000000E+00
  0.00000000E+00  0.00000000E+00  0.00000000E+00
  0.00000000E+00  0.00000000E+00  0.00000000E+00
  0.00000000E+00  0.00000000E+00  0.00000000E+00
  0.00000000E+00  0.00000000E+00  0.00000000E+00
  0.00000000E+00  0.00000000E+00  0.00000000E+00
  0.00000000E+00  0.00000000E+00  0.00000000E+00
  0.00000000E+00  0.00000000E+00  0.00000000E+00
  0.00000000E+00  0.00000000E+00  0.00000000E+00
  0.00000000E+00  0.00000000E+00  0.00000000E+00
  0.00000000E+00  0.00000000E+00  0.00000000E+00
  0.00000000E+00  0.00000000E+00  0.00000000E+00
  0.00000000E+00  0.00000000E+00  0.00000000E+00
  0.00000000E+00  0.00000000E+00  0.00000000E+00
  0.00000000E+00  0.00000000E+00  0.00000000E+00
  0.00000000E+00  0.00000000E+00  0.00000000E+00
  0.00000000E+00  0.00000000E+00  0.00000000E+00
  0.00000000E+00  0.00000000E+00  0.00000000E+00
  0.00000000E+00  0.00000000E+00  0.00000000E+00
  0.00000000E+00  0.00000000E+00  0.00000000E+00
  0.00000000E+00  0.00000000E+00  0.00000000E+00
  0.00000000E+00  0.00000000E+00  0.00000000E+00
  0.00000000E+00  0.00000000E+00  0.00000000E+00
  0.00000000E+00  0.00000000E+00  0.00000000E+00
  0.00000000E+00  0.00000000E+00  0.00000000E+00
  0.00000000E+00  0.00000000E+00  0.00000000E+00
  0.00000000E+00  0.00000000E+00  0.00000000E+00
  0.00000000E+00  0.00000000E+00  0.00000000E+00
  0.00000000E+00  0.00000000E+00  0.00000000E+00
  0.00000000E+00  0.00000000E+00  0.00000000E+00
  0.00000000E+00  0.00000000E+00  0.00000000E+00
  0.00000000E+00  0.00000000E+00  0.00000000E+00
  0.00000000E+00  0.00000000E+00  0.00000000E+00
  0.00000000E+00  0.00000000E+00  0.00000000E+00
  0.00000000E+00  0.00000000E+00  0.00000000E+00
  0.00000000E+00  0.00000000E+00  0.00000000E+00
  0.00000000E+00  0.00000000E+00  0.00000000E+00
  0.00000000E+00  0.00000000E+00  0.00000000E+00
  0.00000000E+00  0.00000000E+00  0.00000000E+00
  0.00000000E+00  0.00000000E+00  0.00000000E+00
  0.00000000E+00  0.00000000E+00  0.00000000E+00
  0.00000000E+00  0.00000000E+00  0.00000000E+00
  0.00000000E+00  0.00000000E+00  0.00000000E+00
  0.00000000E+00  0.00000000E+00  0.00000000E+00
  0.00000000E+00  0.00000000E+00  0.00000000E+00
  0.00000000E+00  0.00000000E+00  0.00000000E+00
  0.00000000E+00  0.00000000E+00  0.00000000E+00
  0.00000000E+00  0.00000000E+00  0.00000000E+00
  0.00000000E+00  0.00000000E+00  0.00000000E+00
  0.00000000E+00  0.00000000E+00  0.00000000E+00
  0.00000000E+00  0.00000000E+00  0.00000000E+00
  0.00000000E+00  0.00000000E+00  0.00000000E+00
  0.00000000E+00  0.00000000E+00  0.00000000E+00
  0.00000000E+00  0.00000000E+00  0.00000000E+00
  0.00000000E+00  0.00000000E+00  0.00000000E+00
  0.00000000E+00  0.00000000E+00  0.00000000E+00
  0.00000000E+00  0.00000000E+00  0.00000000E+00
  0.00000000E+00  0.00000000E+00  0.00000000E+00
  0.00000000E+00  0.00000000E+00  0.00000000E+00
  0.00000000E+00  0.00000000E+00  0.00000000E+00
  0.00000000E+00  0.00000000E+00  0.00000000E+00
  0.00000000E+00  0.00000000E+00  0.00000000E+00
  0.00000000E+00  0.00000000E+00  0.00000000E+00
  0.00000000E+00  0.00000000E+00  0.00000000E+00
  0.00000000E+00  0.00000000E+00  0.00000000E+00
  0.00000000E+00  0.00000000E+00  0.00000000E+00
  0.00000000E+00  0.00000000E+00  0.00000000E+00
  0.00000000E+00  0.00000000E+00  0.00000000E+00
  0.00000000E+00  0.00000000E+00  0.00000000E+00
  0.00000000E+00  0.00000000E+00  0.00000000E+00
  0.00000000E+00  0.00000000E+00  0.00000000E+00
  0.00000000E+00  0.00000000E+00  0.00000000E+00
  0.00000000E+00  0.00000000E+00  0.00000000E+00
  0.00000000E+00  0.00000000E+00  0.00000000E+00
  0.00000000E+00  0.00000000E+00  0.00000000E+00
  0.00000000E+00  0.00000000E+00  0.00000000E+00
  0.00000000E+00  0.00000000E+00  0.00000000E+00
