Nb Ta                                   
    1.000000000000000     
    13.2684985223126510   -0.0005597498390982   -0.0003791881317770
    -0.0005595002647508   13.2668780112342386    0.0005012786475110
    -0.0003792393233982    0.0005011827813464   13.2668803650974230
   Nb   Ta
    32    96
Direct
  0.0011417371672053 -0.0000186123482603  0.2503230545391963
  0.6233030047631276  0.6252286268072715  0.3731314619715382
  0.7482135384055636 -0.0008266177991659  0.2497182797269007
  0.6269463849544632  0.6254108194252858  0.6241083121715891
  0.4994262018951782  0.2500643137694905  0.7505899925582493
  0.8758491725792290  0.6240712885017428  0.3759392402435072
  0.1234696381007576  0.6248462077751311  0.1250566526735182
  0.4999856007896469  0.2486875319222553  0.0014057276934408
  0.1238211726039904  0.6260619732633700  0.6246057444114267
  0.0014853081826346  0.2506306977562833  0.7507278272050385
  0.3747661804846714  0.6244763928776674  0.6249600886916976
  0.6255344814944414  0.8728482796820644  0.1255938626604402
  0.2503985630822509  0.2490210470394060  0.2494542201379313
  0.8748599112794081  0.3755482042427394  0.1248829735066762
  0.6240975316031393  0.1258069665431210  0.8744966754305851
  0.6243820307542994  0.1253493046105956  0.6246253094337825
  0.2503769047038641  0.0012685188404357  0.0006318436084777
  0.7490783108992737  0.2490048954939567  0.7499817356329094
  0.5004764572075505  0.2496364592445450  0.4989559342228092
  0.3775578854322309  0.6250606587945537  0.1259971878659358
  0.1242714785653739  0.1242828244224110  0.1253540178000689
  0.5000045979736808  0.4993582603400836  0.2503387666457759
  0.1239544832129767  0.3736904022824080  0.6246749352216724
  0.6265402621445723  0.1257413910757194  0.1260219461241462
  0.6253887031194149  0.6253704679104011  0.8770348947393657
  0.5006953993290022 -0.0002266787188964  0.7502369530228554
  0.3744387436412071  0.1252987546389606  0.1238967073520327
  0.7488540079327888  0.7506190039073453  0.0000398607679781
  0.7499029000672933  0.7496892286661118  0.4986314093145845
  0.5007454819537348  0.7513916545816279  0.2495646548817835
  0.8745357419712609  0.8767089697812489  0.3744413479821488
  0.0004575195222204  0.2504831835166412  0.4990390850878879
  0.6240704218270133  0.8757735196054028  0.3758930277628751
  0.3744102746263135  0.6249559616293612  0.3740747781986105
  0.5022101108562919 -0.0008057475821802  0.0021774689066618
  0.8744742092776170  0.1220492542219881  0.1262571078798615
  0.1246107145078533  0.1257049033628084  0.3757812274530841
  0.2517507966052036  0.0000055389937228  0.2511142393857231
  0.0004171890119234  0.7502385476396171  0.4990305972364648
  0.2497408988600552  0.2507064325443495  0.7497976078241163
  0.8760016704944671  0.1262553482324355  0.8742180495247324
  0.1254291386546706  0.6244162970283533  0.8748894845640819
  0.2503859464720551  0.0003002592793203  0.4995777438079728
 -0.0002400327178612  0.2498268475406104  0.0021791847405909
 -0.0009096363090952  0.0006031063159586 -0.0013213899558302
  0.3749358016277718  0.1252748675009847  0.6253609234688368
  0.8752547364254148  0.1257032190566070  0.3741431662508240
  0.3749869230651607  0.8760000277988788  0.8752283822431289
  0.1252881013507516  0.3748527232852346  0.3733431934204871
  0.1248958866689839  0.1252115167345465  0.8739713832254985
  0.5000888080879803  0.7479256571149895  0.7497765716174977
 -0.0005164915108660 -0.0015941247151753  0.7505101827082565
  0.5006404808656092  0.5020246360041090  0.7499461938731924
  0.7492711647152243  0.4992875218063921  0.4994234091535812
  0.3757918967235630  0.3746858249168991  0.8750033877343967
  0.6244288502654231  0.3738781611675788  0.8749765186215780
  0.3756647946705320  0.8738834161473938  0.3744044991963021
  0.8768888454115928  0.1263669963548056  0.6255654937861901
  0.3777004627990525  0.3734453640329834  0.6252048661130253
  0.0002239232291358  0.5011715387844448  0.5005082324920007
 -0.0004192221853425  0.4992559954041999  0.0006122878440135
  0.3753370418078948  0.3752301163152763  0.3744975821218220
  0.2506625487487121  0.5001642654350997  0.0006736363195023
  0.2492902128371221  0.5014573709741821  0.2491719852761065
  0.1246422464801495  0.3753949291602847  0.8760028457182948
  0.8758467882749402  0.6253231154723446  0.8758196769083363
  0.8741743140578493  0.6255680655417610  0.6254482105859897
  0.4989896673970249  0.7500911344793639 -0.0009279836579672
 -0.0008717630728218  0.5002170667341680  0.2498015022129723
  0.7490455163129256  0.7493597040854035  0.7503035044178775
  0.7487633175665626  0.5014563509046229  0.7504193700109592
  0.2488172441672495  0.7495202084808186  0.2490870825993084
  0.8739384108650013  0.8736780881492670  0.6256595783235162
  0.7501686363819506  0.4976562999631292 -0.0005874259626302
  0.8733519998197343  0.3745572137051116  0.6254665614105716
  0.7503663354361421  0.0017227984196244  0.5016019991312589
  0.3745027148505460  0.1245078601655967  0.8741461570842346
  0.4988460567080604  0.0015937271043643  0.2487767775368437
  0.6252873861478900  0.8747697882559765  0.6249672319341312
  0.3739849731165534  0.8745812305977172  0.1249156844397530
  0.7516661470396213  0.7495491526102490  0.2515090602105297
  0.1270684922584845  0.3749931506087548  0.1254904918377806
  0.4997805719021902  0.5014892663681012 -0.0017426865512113
  0.0004577501284474  0.5008672132202919  0.7489180817386809
  0.8730308498219305  0.6267697120054163  0.1229724401851661
  0.0016968942479381  0.7503395894826317  0.0003642789440215
  0.1263657599042928  0.6247657282126867  0.3751632306694133
  0.7482741548654595  0.0018551131646438 -0.0014615565341867
  0.2497036234245900  0.2509500069175227  0.5014058497877675
  0.8749900234573952  0.3743582601983910  0.8726619453725285
  0.6245597355181801  0.8748252290887115  0.8737774417586222
  0.2490141337607418  0.0003865141352168  0.7490619713019875
  0.4989700363864953  0.7492506773126115  0.5015230479714106
  0.2491133292518656  0.2503847415064446 -0.0011432079309540
  0.6240982069587998  0.3744638207436508  0.3748719227610058
  0.1259876772668808  0.8748624178394765  0.3743519026972947
  0.8756414056752851  0.3738583716499285  0.3770754358184248
  0.5005358901511903  0.5020194468517774  0.5013442089170442
  0.6247015733889062  0.3742949860496527  0.6254478955332893
  0.6228859381131931  0.3770020428506593  0.1251308482493745
  0.7495203532246142  0.2493005559030088  0.4993119059601231
 -0.0011591732150064 -0.0017751682240973  0.5002976033515472
  0.5009486738475336  0.2477260314078904  0.2492355607548525
  0.7521320837146155  0.4996250404640043  0.2510920609784246
  0.8740046582189536  0.8741062204400210  0.8759937586925657
  0.2503300967955955  0.7499747162301368  0.7491654523351987
 -0.0007343430367663  0.7488758942519131  0.2505960345422234
  0.3731695849626540  0.6247403666953136  0.8747072537251221
  0.3755552340161151  0.3749508894037122  0.1250709707380082
  0.1251241531458185  0.8757454522717869  0.6246005231303274
  0.2506098471583768  0.7497645998299634  0.5006647856305066
 -0.0013168539056011  0.2511728632061666  0.2478334428369084
  0.1250465220514354  0.8758905808290127  0.1253200779437190
  0.5003646307424114 -0.0006989494836136  0.4991577544978391
  0.7500503368405985  0.2516243607207735  0.2493752689019509
  0.3748526606646138  0.1261058826895907  0.3764153130573615
  0.8754356118174649  0.8755058332225225  0.1239635371408531
  0.6255216142225999  0.1245334894059802  0.3747836913189446
  0.1261858851334718  0.8751991046130680  0.8759269714694690
  0.0002532640664007  0.7502457395873550  0.7501492703854232
  0.1237907115703255  0.1243391060601207  0.6247533667734966
  0.2499932452453003  0.4991141670037647  0.5010845676626583
  0.7510469465338754  0.2498894815271218  0.0016422265372310
  0.7508504155517439 -0.0000831982806846  0.7500273263196060
  0.6264874311364500  0.6239123751180946  0.1256155913056217
  0.2502266650355363  0.7483852090973574  0.0009795075532083
  0.2498225156544530  0.4990207814403723  0.7484250200752413
  0.3757653871880934  0.8766857707552408  0.6257360548289935
 
  0.00000000E+00  0.00000000E+00  0.00000000E+00
  0.00000000E+00  0.00000000E+00  0.00000000E+00
  0.00000000E+00  0.00000000E+00  0.00000000E+00
  0.00000000E+00  0.00000000E+00  0.00000000E+00
  0.00000000E+00  0.00000000E+00  0.00000000E+00
  0.00000000E+00  0.00000000E+00  0.00000000E+00
  0.00000000E+00  0.00000000E+00  0.00000000E+00
  0.00000000E+00  0.00000000E+00  0.00000000E+00
  0.00000000E+00  0.00000000E+00  0.00000000E+00
  0.00000000E+00  0.00000000E+00  0.00000000E+00
  0.00000000E+00  0.00000000E+00  0.00000000E+00
  0.00000000E+00  0.00000000E+00  0.00000000E+00
  0.00000000E+00  0.00000000E+00  0.00000000E+00
  0.00000000E+00  0.00000000E+00  0.00000000E+00
  0.00000000E+00  0.00000000E+00  0.00000000E+00
  0.00000000E+00  0.00000000E+00  0.00000000E+00
  0.00000000E+00  0.00000000E+00  0.00000000E+00
  0.00000000E+00  0.00000000E+00  0.00000000E+00
  0.00000000E+00  0.00000000E+00  0.00000000E+00
  0.00000000E+00  0.00000000E+00  0.00000000E+00
  0.00000000E+00  0.00000000E+00  0.00000000E+00
  0.00000000E+00  0.00000000E+00  0.00000000E+00
  0.00000000E+00  0.00000000E+00  0.00000000E+00
  0.00000000E+00  0.00000000E+00  0.00000000E+00
  0.00000000E+00  0.00000000E+00  0.00000000E+00
  0.00000000E+00  0.00000000E+00  0.00000000E+00
  0.00000000E+00  0.00000000E+00  0.00000000E+00
  0.00000000E+00  0.00000000E+00  0.00000000E+00
  0.00000000E+00  0.00000000E+00  0.00000000E+00
  0.00000000E+00  0.00000000E+00  0.00000000E+00
  0.00000000E+00  0.00000000E+00  0.00000000E+00
  0.00000000E+00  0.00000000E+00  0.00000000E+00
  0.00000000E+00  0.00000000E+00  0.00000000E+00
  0.00000000E+00  0.00000000E+00  0.00000000E+00
  0.00000000E+00  0.00000000E+00  0.00000000E+00
  0.00000000E+00  0.00000000E+00  0.00000000E+00
  0.00000000E+00  0.00000000E+00  0.00000000E+00
  0.00000000E+00  0.00000000E+00  0.00000000E+00
  0.00000000E+00  0.00000000E+00  0.00000000E+00
  0.00000000E+00  0.00000000E+00  0.00000000E+00
  0.00000000E+00  0.00000000E+00  0.00000000E+00
  0.00000000E+00  0.00000000E+00  0.00000000E+00
  0.00000000E+00  0.00000000E+00  0.00000000E+00
  0.00000000E+00  0.00000000E+00  0.00000000E+00
  0.00000000E+00  0.00000000E+00  0.00000000E+00
  0.00000000E+00  0.00000000E+00  0.00000000E+00
  0.00000000E+00  0.00000000E+00  0.00000000E+00
  0.00000000E+00  0.00000000E+00  0.00000000E+00
  0.00000000E+00  0.00000000E+00  0.00000000E+00
  0.00000000E+00  0.00000000E+00  0.00000000E+00
  0.00000000E+00  0.00000000E+00  0.00000000E+00
  0.00000000E+00  0.00000000E+00  0.00000000E+00
  0.00000000E+00  0.00000000E+00  0.00000000E+00
  0.00000000E+00  0.00000000E+00  0.00000000E+00
  0.00000000E+00  0.00000000E+00  0.00000000E+00
  0.00000000E+00  0.00000000E+00  0.00000000E+00
  0.00000000E+00  0.00000000E+00  0.00000000E+00
  0.00000000E+00  0.00000000E+00  0.00000000E+00
  0.00000000E+00  0.00000000E+00  0.00000000E+00
  0.00000000E+00  0.00000000E+00  0.00000000E+00
  0.00000000E+00  0.00000000E+00  0.00000000E+00
  0.00000000E+00  0.00000000E+00  0.00000000E+00
  0.00000000E+00  0.00000000E+00  0.00000000E+00
  0.00000000E+00  0.00000000E+00  0.00000000E+00
  0.00000000E+00  0.00000000E+00  0.00000000E+00
  0.00000000E+00  0.00000000E+00  0.00000000E+00
  0.00000000E+00  0.00000000E+00  0.00000000E+00
  0.00000000E+00  0.00000000E+00  0.00000000E+00
  0.00000000E+00  0.00000000E+00  0.00000000E+00
  0.00000000E+00  0.00000000E+00  0.00000000E+00
  0.00000000E+00  0.00000000E+00  0.00000000E+00
  0.00000000E+00  0.00000000E+00  0.00000000E+00
  0.00000000E+00  0.00000000E+00  0.00000000E+00
  0.00000000E+00  0.00000000E+00  0.00000000E+00
  0.00000000E+00  0.00000000E+00  0.00000000E+00
  0.00000000E+00  0.00000000E+00  0.00000000E+00
  0.00000000E+00  0.00000000E+00  0.00000000E+00
  0.00000000E+00  0.00000000E+00  0.00000000E+00
  0.00000000E+00  0.00000000E+00  0.00000000E+00
  0.00000000E+00  0.00000000E+00  0.00000000E+00
  0.00000000E+00  0.00000000E+00  0.00000000E+00
  0.00000000E+00  0.00000000E+00  0.00000000E+00
  0.00000000E+00  0.00000000E+00  0.00000000E+00
  0.00000000E+00  0.00000000E+00  0.00000000E+00
  0.00000000E+00  0.00000000E+00  0.00000000E+00
  0.00000000E+00  0.00000000E+00  0.00000000E+00
  0.00000000E+00  0.00000000E+00  0.00000000E+00
  0.00000000E+00  0.00000000E+00  0.00000000E+00
  0.00000000E+00  0.00000000E+00  0.00000000E+00
  0.00000000E+00  0.00000000E+00  0.00000000E+00
  0.00000000E+00  0.00000000E+00  0.00000000E+00
  0.00000000E+00  0.00000000E+00  0.00000000E+00
  0.00000000E+00  0.00000000E+00  0.00000000E+00
  0.00000000E+00  0.00000000E+00  0.00000000E+00
  0.00000000E+00  0.00000000E+00  0.00000000E+00
  0.00000000E+00  0.00000000E+00  0.00000000E+00
  0.00000000E+00  0.00000000E+00  0.00000000E+00
  0.00000000E+00  0.00000000E+00  0.00000000E+00
  0.00000000E+00  0.00000000E+00  0.00000000E+00
  0.00000000E+00  0.00000000E+00  0.00000000E+00
  0.00000000E+00  0.00000000E+00  0.00000000E+00
  0.00000000E+00  0.00000000E+00  0.00000000E+00
  0.00000000E+00  0.00000000E+00  0.00000000E+00
  0.00000000E+00  0.00000000E+00  0.00000000E+00
  0.00000000E+00  0.00000000E+00  0.00000000E+00
  0.00000000E+00  0.00000000E+00  0.00000000E+00
  0.00000000E+00  0.00000000E+00  0.00000000E+00
  0.00000000E+00  0.00000000E+00  0.00000000E+00
  0.00000000E+00  0.00000000E+00  0.00000000E+00
  0.00000000E+00  0.00000000E+00  0.00000000E+00
  0.00000000E+00  0.00000000E+00  0.00000000E+00
  0.00000000E+00  0.00000000E+00  0.00000000E+00
  0.00000000E+00  0.00000000E+00  0.00000000E+00
  0.00000000E+00  0.00000000E+00  0.00000000E+00
  0.00000000E+00  0.00000000E+00  0.00000000E+00
  0.00000000E+00  0.00000000E+00  0.00000000E+00
  0.00000000E+00  0.00000000E+00  0.00000000E+00
  0.00000000E+00  0.00000000E+00  0.00000000E+00
  0.00000000E+00  0.00000000E+00  0.00000000E+00
  0.00000000E+00  0.00000000E+00  0.00000000E+00
  0.00000000E+00  0.00000000E+00  0.00000000E+00
  0.00000000E+00  0.00000000E+00  0.00000000E+00
  0.00000000E+00  0.00000000E+00  0.00000000E+00
  0.00000000E+00  0.00000000E+00  0.00000000E+00
  0.00000000E+00  0.00000000E+00  0.00000000E+00
  0.00000000E+00  0.00000000E+00  0.00000000E+00
  0.00000000E+00  0.00000000E+00  0.00000000E+00
  0.00000000E+00  0.00000000E+00  0.00000000E+00
