Nb Ti                                   
    1.000000000000000     
    13.1320044552728774    0.0203595031962767   -0.0542657263077031
    -6.4780538766243305    9.2713329158287259    0.0264747289344312
     0.0929738209213447   -0.0081147326139432   18.6195904548260209
  Nb              Ti            
    92    36
Direct
     0.0593281095658936    0.1241322862543782    0.8139726206417193
     0.1899393369463178    0.8752349276918093    0.1862391316943550
     0.5657688453475207    0.3749410526551147    0.8123030963906425
     0.1879950521189211    0.3786639309783218    0.6913122189348910
     0.3124265051248254    0.1262562293730782    0.0633222266188374
     0.4390334531227884    0.1316982242530159    0.1862207596295110
     0.6857118519279025    0.1239224492752112    0.4369264850969274
     0.5646842512080589    0.6288141794486689    0.0660505400251101
     0.8086205661506334    0.1204428737682461    0.3138279306227734
     0.3139832516337138    0.3759707904850740    0.0602196852989470
     0.4312983902878874    0.8761945322312699    0.9358477060478309
     0.3130174366252839    0.1246303225741119    0.8122943267521031
     0.4398895667635894    0.1273839468681145    0.9391022529539181
     0.8135489463743520    0.8807928263147313    0.3112309749779857
     0.0604891380203237    0.3690332576202516    0.0616738183540205
     0.5634577022564274    0.1278663553211992    0.5624810656155885
     0.6839763965163305    0.6200208188843003    0.1859801690603144
     0.0613006467713058    0.8733895940722594    0.5622786988338385
     0.1946984466598876    0.3801422969250423    0.4354169597850842
     0.1875105366935546    0.6232293170975799    0.4380567413459892
     0.1810428822451989    0.1199240739296632    0.1888721614382275
     0.9361602950102562    0.3727573160772436    0.9367564865870782
     0.3158544319871780    0.3753838824942601    0.3122406438203483
     0.1919879473317666    0.3796143751096537    0.1888578284330171
     0.5636434936810306    0.1243190260962999    0.0658043604782882
     0.9304668241417161    0.8680492840371872    0.1874730204416130
     0.6895465825558246    0.1223843125133638    0.6870674665048367
     0.9368069213649507    0.6220405179429358    0.4339426330880584
     0.6890303768771032    0.3753230742727395    0.1889558260918658
     0.6901591066879867    0.6235213194854787    0.6872640378354131
     0.9370169652472387    0.6250482382009215    0.1873934239217411
     0.3126383961455578    0.1273126288494319    0.5605348696981525
     0.8119255321257740    0.1254436233094280    0.5626216732317377
     0.1844122614405798    0.1229691054399911    0.6884136166930082
     0.3125196215528561    0.6249867160262672    0.5627866440485384
     0.0626625522247708    0.1215745014015695    0.5620784073324365
     0.6872178507600004    0.8736717461248170    0.6884620618409871
     0.4368202746075798    0.3740266146452381    0.9373376573451787
     0.1869332146256076    0.6261326554148002    0.1859688770193273
     0.5617525918269033    0.6270764589577609    0.8138114282862451
     0.9397797640741862    0.1301204269837763    0.4391518111739230
     0.3117951074598265    0.6260707852548638    0.0648831544026785
     0.4378041016540133    0.1258914555800973    0.4362892693873430
     0.8128581765696584    0.8773612648119039    0.5647283146733243
     0.5636006639032989    0.3739042547609350    0.5626607570270988
     0.4360610387198862    0.8714788752706906    0.6904441902132912
     0.4395451733624786    0.3782801243889989    0.6866879111725768
     0.1852941660548691    0.8698416536291596    0.4388009403165812
     0.5606863919022067    0.8734300814510568    0.8149953022197969
     0.8144290002747054    0.3762444095301494    0.5629237926766284
     0.9364149970354194    0.8737110890105676    0.6872298054878297
     0.0593924590477598    0.1208962254490657    0.0629011108918931
     0.1849763156346299    0.1207084010713209    0.4357122318094669
     0.0553466600909167    0.3661383072184172    0.8140132767042116
     0.9391900375301826    0.3778669648323851    0.4393646503290645
     0.8168317822365858    0.8758607483018345    0.8099615520275051
     0.8139259476288302    0.6280819119021919    0.8149407793084270
     0.8135306327211526    0.6244116716478493    0.5614916288553266
     0.1854700101699996    0.6222502515161352    0.6854093401609759
     0.0639416248513102    0.8781333788540140    0.0617074679996545
     0.4373704774496622    0.1251137077439699    0.6869328121746580
     0.0622287763717340    0.6198333231185629    0.3098673954813447
     0.5635948711004738    0.6263855511970752    0.3111695936871110
     0.6907219563705872    0.1305356497101821    0.1928300838944385
     0.6822970603187126    0.6200346100821401    0.9394148857206857
     0.6870660751890384    0.3751069893374978    0.9369420559801841
     0.3084269647391248    0.8751856142394466    0.3122577634878589
     0.4423709253087979    0.6360267471328176    0.4361789115070899
     0.3165180855063776    0.1304052768646767    0.3120907128373325
     0.0575341758666939    0.3701778159956701    0.3114018964749817
     0.4392877369275926    0.6270940884008899    0.6863600425288494
     0.3166590413440917    0.8749638310775822    0.5623548880201812
     0.9312024644383029    0.8705184683930561    0.4362275446739434
     0.0631833444859021    0.1269526670963345    0.3141096658554041
     0.4426332506419726    0.6340236976778226    0.1876655291708781
     0.9365729524837618    0.6215398237210290    0.9351103743989269
     0.8142713478702395    0.6289696042214694    0.0604699143654300
     0.1897833867035890    0.3790068955196413    0.9359567929115118
     0.5658369455321460    0.1239679702176399    0.8119685042489143
     0.3091227297551533    0.3763702744976974    0.5633783722564820
     0.4384168408613287    0.8774763224646194    0.4346803444491276
     0.6850272119992983    0.6190468291238092    0.4336537807151072
     0.1892777854013529    0.6229058020456975    0.9402329317887886
     0.3158835498157106    0.8774230845554128    0.0627599466006523
     0.1863744862570979    0.8706522999204849    0.6859950096678392
     0.3105648722490478    0.8781069523850532    0.8114955154699808
     0.3136928530037364    0.3733095970885578    0.8148621931043336
     0.6924042202103188    0.3735997359876367    0.6878758504774551
     0.6858523745456281    0.3751150596400254    0.4366866105547991
     0.8054722973640351    0.3718058635270778    0.0602366385704624
     0.0597613817449159    0.6230665235527083    0.0618001393086752
     0.8135948196721496    0.8794464021763113    0.0624214415612553
     0.8148209405061791    0.3778708670938668    0.8129172734160799
     0.3075382269687604    0.6230796535760117    0.8129648240883857
     0.5582969213648309    0.8717165546180022    0.0570694631847957
     0.6848095825041158    0.1216883826699798    0.9405287541348577
     0.5581720747635568    0.1216458592625472    0.3112418991745068
     0.5638852036681063    0.3797499048925337    0.3123737662379995
     0.8108881806019602    0.1263619645569097    0.0689610932664861
     0.4412120791528026    0.6328405902629114    0.9409283788417380
     0.9375792124916427    0.6271860711146575    0.6917477996176454
     0.1841293295156251    0.1250746516654288    0.9371074222633358
     0.9377693888279391    0.3756618421777279    0.6862437984264583
     0.5597307367154389    0.8756757983308222    0.5633577331825974
     0.0637884024209865    0.8745289888752215    0.3123947283481130
     0.9394523934167613    0.1254441270394660    0.6866804079016858
     0.9332815934306576    0.8702200647684555    0.9368361747305959
     0.8132889645929852    0.6295040857319841    0.3097775351563403
     0.5624930062877850    0.3744357143194618    0.0626321594441151
     0.0705830806831022    0.6230429523151230    0.8148280274160195
     0.8125524797646062    0.3736898769655609    0.3125971943919564
     0.5633389200832852    0.8712085458456913    0.3139685557404122
     0.4333310569643173    0.3763080996532774    0.1864344678854531
     0.9409601271978707    0.1245132666150163    0.1896789333720459
     0.1859208652209040    0.8695181440881631    0.9369474496314367
     0.3108248624729105    0.6242870117275724    0.3106518335444969
     0.6963932065102244    0.8768185318514663    0.9338014631954836
     0.5637073375843594    0.6225517869174054    0.5582269529990934
     0.6905931080413917    0.8748900812100935    0.4402633164409170
     0.0650731358763589    0.3717385837901623    0.5633309922938845
     0.8099461185880767    0.1177940045890336    0.8153944188223653
     0.4406781555663106    0.8811179949777017    0.1892286799309332
     0.0630266457657103    0.8742062275519246    0.8105119368927013
     0.6881788810296221    0.8800521080866102    0.1841774133388636
     0.9426797228883455    0.1309353151153150    0.9404845644520511
     0.4368134067659525    0.3782406310041485    0.4390026398685948
     0.0609501730211335    0.6243274271391760    0.5626725479812201
     0.9341574617395858    0.3729060950018261    0.1829494387876054
 
  0.00000000E+00  0.00000000E+00  0.00000000E+00
  0.00000000E+00  0.00000000E+00  0.00000000E+00
  0.00000000E+00  0.00000000E+00  0.00000000E+00
  0.00000000E+00  0.00000000E+00  0.00000000E+00
  0.00000000E+00  0.00000000E+00  0.00000000E+00
  0.00000000E+00  0.00000000E+00  0.00000000E+00
  0.00000000E+00  0.00000000E+00  0.00000000E+00
  0.00000000E+00  0.00000000E+00  0.00000000E+00
  0.00000000E+00  0.00000000E+00  0.00000000E+00
  0.00000000E+00  0.00000000E+00  0.00000000E+00
  0.00000000E+00  0.00000000E+00  0.00000000E+00
  0.00000000E+00  0.00000000E+00  0.00000000E+00
  0.00000000E+00  0.00000000E+00  0.00000000E+00
  0.00000000E+00  0.00000000E+00  0.00000000E+00
  0.00000000E+00  0.00000000E+00  0.00000000E+00
  0.00000000E+00  0.00000000E+00  0.00000000E+00
  0.00000000E+00  0.00000000E+00  0.00000000E+00
  0.00000000E+00  0.00000000E+00  0.00000000E+00
  0.00000000E+00  0.00000000E+00  0.00000000E+00
  0.00000000E+00  0.00000000E+00  0.00000000E+00
  0.00000000E+00  0.00000000E+00  0.00000000E+00
  0.00000000E+00  0.00000000E+00  0.00000000E+00
  0.00000000E+00  0.00000000E+00  0.00000000E+00
  0.00000000E+00  0.00000000E+00  0.00000000E+00
  0.00000000E+00  0.00000000E+00  0.00000000E+00
  0.00000000E+00  0.00000000E+00  0.00000000E+00
  0.00000000E+00  0.00000000E+00  0.00000000E+00
  0.00000000E+00  0.00000000E+00  0.00000000E+00
  0.00000000E+00  0.00000000E+00  0.00000000E+00
  0.00000000E+00  0.00000000E+00  0.00000000E+00
  0.00000000E+00  0.00000000E+00  0.00000000E+00
  0.00000000E+00  0.00000000E+00  0.00000000E+00
  0.00000000E+00  0.00000000E+00  0.00000000E+00
  0.00000000E+00  0.00000000E+00  0.00000000E+00
  0.00000000E+00  0.00000000E+00  0.00000000E+00
  0.00000000E+00  0.00000000E+00  0.00000000E+00
  0.00000000E+00  0.00000000E+00  0.00000000E+00
  0.00000000E+00  0.00000000E+00  0.00000000E+00
  0.00000000E+00  0.00000000E+00  0.00000000E+00
  0.00000000E+00  0.00000000E+00  0.00000000E+00
  0.00000000E+00  0.00000000E+00  0.00000000E+00
  0.00000000E+00  0.00000000E+00  0.00000000E+00
  0.00000000E+00  0.00000000E+00  0.00000000E+00
  0.00000000E+00  0.00000000E+00  0.00000000E+00
  0.00000000E+00  0.00000000E+00  0.00000000E+00
  0.00000000E+00  0.00000000E+00  0.00000000E+00
  0.00000000E+00  0.00000000E+00  0.00000000E+00
  0.00000000E+00  0.00000000E+00  0.00000000E+00
  0.00000000E+00  0.00000000E+00  0.00000000E+00
  0.00000000E+00  0.00000000E+00  0.00000000E+00
  0.00000000E+00  0.00000000E+00  0.00000000E+00
  0.00000000E+00  0.00000000E+00  0.00000000E+00
  0.00000000E+00  0.00000000E+00  0.00000000E+00
  0.00000000E+00  0.00000000E+00  0.00000000E+00
  0.00000000E+00  0.00000000E+00  0.00000000E+00
  0.00000000E+00  0.00000000E+00  0.00000000E+00
  0.00000000E+00  0.00000000E+00  0.00000000E+00
  0.00000000E+00  0.00000000E+00  0.00000000E+00
  0.00000000E+00  0.00000000E+00  0.00000000E+00
  0.00000000E+00  0.00000000E+00  0.00000000E+00
  0.00000000E+00  0.00000000E+00  0.00000000E+00
  0.00000000E+00  0.00000000E+00  0.00000000E+00
  0.00000000E+00  0.00000000E+00  0.00000000E+00
  0.00000000E+00  0.00000000E+00  0.00000000E+00
  0.00000000E+00  0.00000000E+00  0.00000000E+00
  0.00000000E+00  0.00000000E+00  0.00000000E+00
  0.00000000E+00  0.00000000E+00  0.00000000E+00
  0.00000000E+00  0.00000000E+00  0.00000000E+00
  0.00000000E+00  0.00000000E+00  0.00000000E+00
  0.00000000E+00  0.00000000E+00  0.00000000E+00
  0.00000000E+00  0.00000000E+00  0.00000000E+00
  0.00000000E+00  0.00000000E+00  0.00000000E+00
  0.00000000E+00  0.00000000E+00  0.00000000E+00
  0.00000000E+00  0.00000000E+00  0.00000000E+00
  0.00000000E+00  0.00000000E+00  0.00000000E+00
  0.00000000E+00  0.00000000E+00  0.00000000E+00
  0.00000000E+00  0.00000000E+00  0.00000000E+00
  0.00000000E+00  0.00000000E+00  0.00000000E+00
  0.00000000E+00  0.00000000E+00  0.00000000E+00
  0.00000000E+00  0.00000000E+00  0.00000000E+00
  0.00000000E+00  0.00000000E+00  0.00000000E+00
  0.00000000E+00  0.00000000E+00  0.00000000E+00
  0.00000000E+00  0.00000000E+00  0.00000000E+00
  0.00000000E+00  0.00000000E+00  0.00000000E+00
  0.00000000E+00  0.00000000E+00  0.00000000E+00
  0.00000000E+00  0.00000000E+00  0.00000000E+00
  0.00000000E+00  0.00000000E+00  0.00000000E+00
  0.00000000E+00  0.00000000E+00  0.00000000E+00
  0.00000000E+00  0.00000000E+00  0.00000000E+00
  0.00000000E+00  0.00000000E+00  0.00000000E+00
  0.00000000E+00  0.00000000E+00  0.00000000E+00
  0.00000000E+00  0.00000000E+00  0.00000000E+00
  0.00000000E+00  0.00000000E+00  0.00000000E+00
  0.00000000E+00  0.00000000E+00  0.00000000E+00
  0.00000000E+00  0.00000000E+00  0.00000000E+00
  0.00000000E+00  0.00000000E+00  0.00000000E+00
  0.00000000E+00  0.00000000E+00  0.00000000E+00
  0.00000000E+00  0.00000000E+00  0.00000000E+00
  0.00000000E+00  0.00000000E+00  0.00000000E+00
  0.00000000E+00  0.00000000E+00  0.00000000E+00
  0.00000000E+00  0.00000000E+00  0.00000000E+00
  0.00000000E+00  0.00000000E+00  0.00000000E+00
  0.00000000E+00  0.00000000E+00  0.00000000E+00
  0.00000000E+00  0.00000000E+00  0.00000000E+00
  0.00000000E+00  0.00000000E+00  0.00000000E+00
  0.00000000E+00  0.00000000E+00  0.00000000E+00
  0.00000000E+00  0.00000000E+00  0.00000000E+00
  0.00000000E+00  0.00000000E+00  0.00000000E+00
  0.00000000E+00  0.00000000E+00  0.00000000E+00
  0.00000000E+00  0.00000000E+00  0.00000000E+00
  0.00000000E+00  0.00000000E+00  0.00000000E+00
  0.00000000E+00  0.00000000E+00  0.00000000E+00
  0.00000000E+00  0.00000000E+00  0.00000000E+00
  0.00000000E+00  0.00000000E+00  0.00000000E+00
  0.00000000E+00  0.00000000E+00  0.00000000E+00
  0.00000000E+00  0.00000000E+00  0.00000000E+00
  0.00000000E+00  0.00000000E+00  0.00000000E+00
  0.00000000E+00  0.00000000E+00  0.00000000E+00
  0.00000000E+00  0.00000000E+00  0.00000000E+00
  0.00000000E+00  0.00000000E+00  0.00000000E+00
  0.00000000E+00  0.00000000E+00  0.00000000E+00
  0.00000000E+00  0.00000000E+00  0.00000000E+00
  0.00000000E+00  0.00000000E+00  0.00000000E+00
  0.00000000E+00  0.00000000E+00  0.00000000E+00
  0.00000000E+00  0.00000000E+00  0.00000000E+00
  0.00000000E+00  0.00000000E+00  0.00000000E+00
  0.00000000E+00  0.00000000E+00  0.00000000E+00
  0.00000000E+00  0.00000000E+00  0.00000000E+00
