Hf Ti                                   
    1.000000000000000     
    12.5365349055538964   -0.0071035461210070   -0.0025164362633004
    -6.2744218947469932   10.8724803624553132   -0.0015077659296044
    -0.0040339457618504   -0.0050965880109113   19.7920076419315336
  Hf              Ti            
    92    36
Direct
     0.0770477568158391    0.1631244072917899    0.8157416960014789
     0.1672069819748368    0.8345866675803304    0.1875130864423003
     0.5869339929892129    0.4182507745244828    0.8135463946371220
     0.1597202370466816    0.3321866585559630    0.6871147665629513
     0.3343707366268484    0.1696154665412347    0.0625975810958962
     0.4214510441099740    0.0837687243377080    0.1869983760962824
     0.6650783503674054    0.0775429924658087    0.4354385775157625
     0.5829423480572948    0.6717265453946296    0.0620098109553717
     0.8312686523382652    0.1703761775781570    0.3087947067524754
     0.3392714754612716    0.4201244253562203    0.0641383922605586
     0.4231238809311047    0.8327520136986993    0.9386293889494164
     0.3284987553871650    0.1633799785489756    0.8161797161880965
     0.4124742242079985    0.0776572480218642    0.9374678079398948
     0.8261386474061521    0.9191934896268359    0.3090033331303805
     0.0798400279395074    0.4151445665872290    0.0631698192114005
     0.5851466781514325    0.1652359587973909    0.5624498270279427
     0.6640882255199382    0.5804750550052078    0.1882976327240078
     0.0818455132062348    0.9156133369442356    0.5614101901915850
     0.1668043015546913    0.3335794163005477    0.4375814807329030
     0.1674713948391731    0.5838365739323415    0.4386555302967774
     0.1640003911934806    0.0825238743472672    0.1873689833888137
     0.9097086546478860    0.3231621031638023    0.9373292145926722
     0.3380462877333879    0.4169854462237886    0.3114351114397049
     0.1637122324361006    0.3298002254112886    0.1868623461643096
     0.5867578459240396    0.1644670356490214    0.0600832412935067
     0.9140858373038306    0.8321329664739329    0.1897599293310508
     0.6715014699701060    0.0840870842104426    0.6884680322343452
     0.9144613211205709    0.5822545108723856    0.4368636697658632
     0.6643739616670380    0.3299316481386111    0.1908441255819805
     0.6665317873385610    0.5846169132244109    0.6868243003089124
     0.9149503450206649    0.5792248245491580    0.1890233134907641
     0.3337750530472771    0.1680106964538026    0.5613333044023247
     0.8373654778845183    0.1683016672147446    0.5653250654043316
     0.1633491506325802    0.0803197487478073    0.6904629887693069
     0.3337795758912291    0.6666468451641925    0.5630382998131886
     0.0801662647595037    0.1650271366713291    0.5639715898590013
     0.6669026931156613    0.8344551543395712    0.6867128260740641
     0.4177440595240681    0.3363604715151027    0.9389213072917966
     0.1697465597252690    0.5875198935727933    0.1881577441074252
     0.5815879001155657    0.6698394932431593    0.8150352107707114
     0.9138578728330770    0.0817346933297989    0.4365698001611091
     0.3369992438674743    0.6678864277321380    0.0626163423257350
     0.4201948373393707    0.0859823152558861    0.4358699876872654
     0.8285208566632044    0.9147710070159837    0.5619029294294994
     0.5823315529493142    0.4173206737969853    0.5601600755999940
     0.4174005729350682    0.8328633821513333    0.6888869507892698
     0.4150579054300638    0.3316695078660458    0.6884393932630805
     0.1664063047994119    0.8328951233056171    0.4373299897256380
     0.5876360464954106    0.9195658301671058    0.8153873684124490
     0.8408052024575619    0.4204550282492793    0.5649079343353279
     0.9194112915092554    0.8374938914415510    0.6897428138899321
     0.0778379764083756    0.1635036438257968    0.0594991288686022
     0.1678363759132162    0.0841016981644396    0.4347215322323773
     0.0767893381432917    0.4158466734164991    0.8125801203091163
     0.9164623050092815    0.3343809206468210    0.4368325582635889
     0.8344982263396233    0.9193698593938853    0.8163657148932769
     0.8387302340725403    0.6686866511521239    0.8128052205676995
     0.8365999732861270    0.6678371589716644    0.5638391436429108
     0.1599440263239550    0.5815243841500235    0.6880903799511709
     0.0832115876073775    0.9174553473601214    0.0594361718596346
     0.4169831794190449    0.0830401897791016    0.6899751504689943
     0.0813652441920528    0.6690603661578538    0.3130830378906547
     0.5874851723253343    0.6751556107862822    0.3117564918300563
     0.6665822053306938    0.0777229650374742    0.1858819574303763
     0.6669776728453922    0.5876508352076042    0.9388984748622911
     0.6691395322551771    0.3367477914784840    0.9382295344033251
     0.3381521732361207    0.9162908280768606    0.3106931770989910
     0.4198527607601431    0.5856069999623780    0.4366171195915176
     0.3422285610727347    0.1724588756162247    0.3106121165667839
     0.0827701729978834    0.4193958335463824    0.3108206807958011
     0.4161176528032308    0.5843097706721853    0.6880330262474198
     0.3347351945039599    0.9147312031870971    0.5625473659556968
     0.9136154910799624    0.8310922771671270    0.4315537963953537
     0.0790198234843148    0.1626863645229636    0.3106062626654253
     0.4181089773895120    0.5884639669454550    0.1892814318303460
     0.9211581260408964    0.5856697307258890    0.9348290020677461
     0.8330433362627628    0.6673296465232688    0.0616348199947840
     0.1676023960403835    0.3342778670801400    0.9380068810749822
     0.5909689015302004    0.1668609501679743    0.8159390050247511
     0.3355966839872737    0.4185085560737035    0.5614103547966152
     0.4217234528868353    0.8320172979022860    0.4354654495668032
     0.6653870412239169    0.5849414751074736    0.4354540329647285
     0.1704420959025104    0.5885573190447383    0.9343729576894240
     0.3352901059813902    0.9146815755217963    0.0624750276026350
     0.1589777744315135    0.8269451541473453    0.6890196516553835
     0.3250196260570514    0.9074824470434470    0.8148273440459333
     0.3314043284743261    0.4208528636255245    0.8139959750323484
     0.6737323047384425    0.3367627640517286    0.6885311202519460
     0.6656672691864368    0.3320591368569638    0.4326151226383521
     0.8311281660798805    0.4139409350120763    0.0635444177575852
     0.0845822066782345    0.6685923316023226    0.0606356861733014
     0.8289745054167269    0.9198919749209121    0.0621282325461773
     0.8387105123668425    0.4182300407989015    0.8112438808936814
     0.3338324061287531    0.6663359332837423    0.8134301680253474
     0.5865524627962573    0.9176697132796032    0.0629183306064747
     0.6746133318547261    0.0772714453313034    0.9401032764677988
     0.5840542665728508    0.1631439486855373    0.3113786070964459
     0.5819358538513244    0.4170118147601321    0.3116191167623441
     0.8332164005600987    0.1637281739299428    0.0619784369367143
     0.4159207270860763    0.5864167302769474    0.9368416994849705
     0.9200291954753951    0.5801507960388311    0.6900647089895826
     0.1592918826915351    0.0755649314486148    0.9366007334682962
     0.9170366116098360    0.3325420697110342    0.6896027651544403
     0.5835450656970858    0.9123453296575159    0.5607098669671728
     0.0863069106870817    0.9166747662474337    0.3112325190952814
     0.9155945418079451    0.0859136847595840    0.6908012769042657
     0.9195632869593054    0.8389840517356015    0.9376927878889755
     0.8290878616514971    0.6575413519220515    0.3113579556027892
     0.5820304122946003    0.4143281105093727    0.0650066558055355
     0.0817163805777504    0.6679027347339147    0.8121721471367636
     0.8325489734289795    0.4166736453372427    0.3112956927392939
     0.5801479595767045    0.9122501776705364    0.3095510488038666
     0.4219209902506253    0.3361414939778724    0.1880438465445287
     0.9152893119507308    0.0877179683562712    0.1848515467852067
     0.1614815393253313    0.8326506599213896    0.9353465615705009
     0.3349186353022027    0.6702538347699435    0.3112449668810865
     0.6680309284967357    0.8359322733833531    0.9397910562544703
     0.5839633546369547    0.6715825172182075    0.5613565438396269
     0.6643749523728408    0.8334771398416835    0.4370427742859128
     0.0820697631333374    0.4179422804300590    0.5632874726501659
     0.8336517241906410    0.1670234569557606    0.8137846322332102
     0.4230157739673044    0.8326982765278778    0.1881119398690590
     0.0821117382288445    0.9135944468885171    0.8173728566030558
     0.6631951803794010    0.8374530031238011    0.1866770633438095
     0.9093143442548280    0.0805370835929347    0.9379604417693749
     0.4189884172358042    0.3350794060558339    0.4347065937714976
     0.0810433524208665    0.6638216946643553    0.5640587148338987
     0.9132618391993641    0.3304475249540386    0.1867443340136550
 
  0.00000000E+00  0.00000000E+00  0.00000000E+00
  0.00000000E+00  0.00000000E+00  0.00000000E+00
  0.00000000E+00  0.00000000E+00  0.00000000E+00
  0.00000000E+00  0.00000000E+00  0.00000000E+00
  0.00000000E+00  0.00000000E+00  0.00000000E+00
  0.00000000E+00  0.00000000E+00  0.00000000E+00
  0.00000000E+00  0.00000000E+00  0.00000000E+00
  0.00000000E+00  0.00000000E+00  0.00000000E+00
  0.00000000E+00  0.00000000E+00  0.00000000E+00
  0.00000000E+00  0.00000000E+00  0.00000000E+00
  0.00000000E+00  0.00000000E+00  0.00000000E+00
  0.00000000E+00  0.00000000E+00  0.00000000E+00
  0.00000000E+00  0.00000000E+00  0.00000000E+00
  0.00000000E+00  0.00000000E+00  0.00000000E+00
  0.00000000E+00  0.00000000E+00  0.00000000E+00
  0.00000000E+00  0.00000000E+00  0.00000000E+00
  0.00000000E+00  0.00000000E+00  0.00000000E+00
  0.00000000E+00  0.00000000E+00  0.00000000E+00
  0.00000000E+00  0.00000000E+00  0.00000000E+00
  0.00000000E+00  0.00000000E+00  0.00000000E+00
  0.00000000E+00  0.00000000E+00  0.00000000E+00
  0.00000000E+00  0.00000000E+00  0.00000000E+00
  0.00000000E+00  0.00000000E+00  0.00000000E+00
  0.00000000E+00  0.00000000E+00  0.00000000E+00
  0.00000000E+00  0.00000000E+00  0.00000000E+00
  0.00000000E+00  0.00000000E+00  0.00000000E+00
  0.00000000E+00  0.00000000E+00  0.00000000E+00
  0.00000000E+00  0.00000000E+00  0.00000000E+00
  0.00000000E+00  0.00000000E+00  0.00000000E+00
  0.00000000E+00  0.00000000E+00  0.00000000E+00
  0.00000000E+00  0.00000000E+00  0.00000000E+00
  0.00000000E+00  0.00000000E+00  0.00000000E+00
  0.00000000E+00  0.00000000E+00  0.00000000E+00
  0.00000000E+00  0.00000000E+00  0.00000000E+00
  0.00000000E+00  0.00000000E+00  0.00000000E+00
  0.00000000E+00  0.00000000E+00  0.00000000E+00
  0.00000000E+00  0.00000000E+00  0.00000000E+00
  0.00000000E+00  0.00000000E+00  0.00000000E+00
  0.00000000E+00  0.00000000E+00  0.00000000E+00
  0.00000000E+00  0.00000000E+00  0.00000000E+00
  0.00000000E+00  0.00000000E+00  0.00000000E+00
  0.00000000E+00  0.00000000E+00  0.00000000E+00
  0.00000000E+00  0.00000000E+00  0.00000000E+00
  0.00000000E+00  0.00000000E+00  0.00000000E+00
  0.00000000E+00  0.00000000E+00  0.00000000E+00
  0.00000000E+00  0.00000000E+00  0.00000000E+00
  0.00000000E+00  0.00000000E+00  0.00000000E+00
  0.00000000E+00  0.00000000E+00  0.00000000E+00
  0.00000000E+00  0.00000000E+00  0.00000000E+00
  0.00000000E+00  0.00000000E+00  0.00000000E+00
  0.00000000E+00  0.00000000E+00  0.00000000E+00
  0.00000000E+00  0.00000000E+00  0.00000000E+00
  0.00000000E+00  0.00000000E+00  0.00000000E+00
  0.00000000E+00  0.00000000E+00  0.00000000E+00
  0.00000000E+00  0.00000000E+00  0.00000000E+00
  0.00000000E+00  0.00000000E+00  0.00000000E+00
  0.00000000E+00  0.00000000E+00  0.00000000E+00
  0.00000000E+00  0.00000000E+00  0.00000000E+00
  0.00000000E+00  0.00000000E+00  0.00000000E+00
  0.00000000E+00  0.00000000E+00  0.00000000E+00
  0.00000000E+00  0.00000000E+00  0.00000000E+00
  0.00000000E+00  0.00000000E+00  0.00000000E+00
  0.00000000E+00  0.00000000E+00  0.00000000E+00
  0.00000000E+00  0.00000000E+00  0.00000000E+00
  0.00000000E+00  0.00000000E+00  0.00000000E+00
  0.00000000E+00  0.00000000E+00  0.00000000E+00
  0.00000000E+00  0.00000000E+00  0.00000000E+00
  0.00000000E+00  0.00000000E+00  0.00000000E+00
  0.00000000E+00  0.00000000E+00  0.00000000E+00
  0.00000000E+00  0.00000000E+00  0.00000000E+00
  0.00000000E+00  0.00000000E+00  0.00000000E+00
  0.00000000E+00  0.00000000E+00  0.00000000E+00
  0.00000000E+00  0.00000000E+00  0.00000000E+00
  0.00000000E+00  0.00000000E+00  0.00000000E+00
  0.00000000E+00  0.00000000E+00  0.00000000E+00
  0.00000000E+00  0.00000000E+00  0.00000000E+00
  0.00000000E+00  0.00000000E+00  0.00000000E+00
  0.00000000E+00  0.00000000E+00  0.00000000E+00
  0.00000000E+00  0.00000000E+00  0.00000000E+00
  0.00000000E+00  0.00000000E+00  0.00000000E+00
  0.00000000E+00  0.00000000E+00  0.00000000E+00
  0.00000000E+00  0.00000000E+00  0.00000000E+00
  0.00000000E+00  0.00000000E+00  0.00000000E+00
  0.00000000E+00  0.00000000E+00  0.00000000E+00
  0.00000000E+00  0.00000000E+00  0.00000000E+00
  0.00000000E+00  0.00000000E+00  0.00000000E+00
  0.00000000E+00  0.00000000E+00  0.00000000E+00
  0.00000000E+00  0.00000000E+00  0.00000000E+00
  0.00000000E+00  0.00000000E+00  0.00000000E+00
  0.00000000E+00  0.00000000E+00  0.00000000E+00
  0.00000000E+00  0.00000000E+00  0.00000000E+00
  0.00000000E+00  0.00000000E+00  0.00000000E+00
  0.00000000E+00  0.00000000E+00  0.00000000E+00
  0.00000000E+00  0.00000000E+00  0.00000000E+00
  0.00000000E+00  0.00000000E+00  0.00000000E+00
  0.00000000E+00  0.00000000E+00  0.00000000E+00
  0.00000000E+00  0.00000000E+00  0.00000000E+00
  0.00000000E+00  0.00000000E+00  0.00000000E+00
  0.00000000E+00  0.00000000E+00  0.00000000E+00
  0.00000000E+00  0.00000000E+00  0.00000000E+00
  0.00000000E+00  0.00000000E+00  0.00000000E+00
  0.00000000E+00  0.00000000E+00  0.00000000E+00
  0.00000000E+00  0.00000000E+00  0.00000000E+00
  0.00000000E+00  0.00000000E+00  0.00000000E+00
  0.00000000E+00  0.00000000E+00  0.00000000E+00
  0.00000000E+00  0.00000000E+00  0.00000000E+00
  0.00000000E+00  0.00000000E+00  0.00000000E+00
  0.00000000E+00  0.00000000E+00  0.00000000E+00
  0.00000000E+00  0.00000000E+00  0.00000000E+00
  0.00000000E+00  0.00000000E+00  0.00000000E+00
  0.00000000E+00  0.00000000E+00  0.00000000E+00
  0.00000000E+00  0.00000000E+00  0.00000000E+00
  0.00000000E+00  0.00000000E+00  0.00000000E+00
  0.00000000E+00  0.00000000E+00  0.00000000E+00
  0.00000000E+00  0.00000000E+00  0.00000000E+00
  0.00000000E+00  0.00000000E+00  0.00000000E+00
  0.00000000E+00  0.00000000E+00  0.00000000E+00
  0.00000000E+00  0.00000000E+00  0.00000000E+00
  0.00000000E+00  0.00000000E+00  0.00000000E+00
  0.00000000E+00  0.00000000E+00  0.00000000E+00
  0.00000000E+00  0.00000000E+00  0.00000000E+00
  0.00000000E+00  0.00000000E+00  0.00000000E+00
  0.00000000E+00  0.00000000E+00  0.00000000E+00
  0.00000000E+00  0.00000000E+00  0.00000000E+00
  0.00000000E+00  0.00000000E+00  0.00000000E+00
  0.00000000E+00  0.00000000E+00  0.00000000E+00
  0.00000000E+00  0.00000000E+00  0.00000000E+00
  0.00000000E+00  0.00000000E+00  0.00000000E+00
