#ISTART =             0     #  startjob: no WAVECAR file  
ISTART =             1     #  startjob: no WAVECAR file  
ICHARG =             1     #  charge: from atoms     
#ICHARG = 12                # playing with convergence
#ICHARG = 2                # playing with convergence
#AMIX = 0.1
#BMIX = 0.01
#INIWAV =             1     #  random initialization for wf.  
NELM   =             170    #  maximum of 40 electronic steps
NELMIN =              2    #  minimum of two steps
#NELMDL =             -5    #  no update of charge for 3 steps 
PREC   =             PRECISION
ENCUT  =             350.0
EDIFF  =             1.0E-6 # accuracy for electronic minimization
ISPIN  =             1
NSW    = 240  !   allow 10 steps
#ISIF   = 2   !   relax ions only
#ISIF   = 7   !   relax volume only
ISIF   = 3   !   relax volume ions shape
IBRION = 2   !   use CG algorithm
POTIM  = 0.1 !   reduce trial step
#LREAL  = Auto
LREAL  = F
ISYM = 0

#LORBIT = 11

# GGA+U
#LDAU      = .TRUE.
#LDAUTYPE  = 1
#LDAUL     = -1 2 -1
#LDAUU     = 0.0 6.00 0.00
#LDAUJ     = 0.0 1.00 0.00
#LDAUPRINT = 2
#LMAXMIX   = 4 
