# Ta hcp
1.0
       12.9600000381         0.0000000000         0.0000000000
       -6.4800000191        11.2236892661         0.0000000000
        0.0000000000         0.0000000000        20.6800003052
   Ta   V
  100  28
Direct
     0.916666687         0.083333336         0.937500000
     0.916666687         0.083333336         0.187500000
     0.916666687         0.083333336         0.437500000
     0.916666687         0.083333336         0.687500000
     0.916666687         0.333333343         0.937500000
     0.916666687         0.333333343         0.187500000
     0.916666687         0.333333343         0.437500000
     0.916666687         0.333333343         0.687500000
     0.916666687         0.583333313         0.937500000
     0.916666687         0.583333313         0.187500000
     0.916666687         0.583333313         0.437500000
     0.916666687         0.583333313         0.687500000
     0.916666687         0.833333313         0.937500000
     0.916666687         0.833333313         0.187500000
     0.916666687         0.833333313         0.437500000
     0.916666687         0.833333313         0.687500000
     0.166666687         0.083333336         0.937500000
     0.166666687         0.083333336         0.187500000
     0.166666687         0.083333336         0.437500000
     0.166666687         0.083333336         0.687500000
     0.166666687         0.333333343         0.937500000
     0.166666687         0.333333343         0.187500000
     0.166666687         0.333333343         0.437500000
     0.166666687         0.333333343         0.687500000
     0.166666687         0.583333313         0.937500000
     0.166666687         0.583333313         0.187500000
     0.166666687         0.583333313         0.437500000
     0.166666687         0.583333313         0.687500000
     0.166666687         0.833333313         0.937500000
     0.166666687         0.833333313         0.187500000
     0.166666687         0.833333313         0.437500000
     0.166666687         0.833333313         0.687500000
     0.416666687         0.083333336         0.937500000
     0.416666687         0.083333336         0.187500000
     0.416666687         0.083333336         0.437500000
     0.416666687         0.083333336         0.687500000
     0.416666687         0.333333343         0.937500000
     0.416666687         0.333333343         0.187500000
     0.416666687         0.333333343         0.437500000
     0.416666687         0.333333343         0.687500000
     0.416666687         0.583333313         0.937500000
     0.416666687         0.583333313         0.187500000
     0.416666687         0.583333313         0.437500000
     0.416666687         0.583333313         0.687500000
     0.416666687         0.833333313         0.937500000
     0.416666687         0.833333313         0.187500000
     0.416666687         0.833333313         0.437500000
     0.416666687         0.833333313         0.687500000
     0.666666687         0.083333336         0.937500000
     0.666666687         0.083333336         0.187500000
     0.666666687         0.083333336         0.437500000
     0.666666687         0.083333336         0.687500000
     0.666666687         0.333333343         0.937500000
     0.666666687         0.333333343         0.187500000
     0.666666687         0.333333343         0.437500000
     0.666666687         0.333333343         0.687500000
     0.666666687         0.583333313         0.937500000
     0.666666687         0.583333313         0.187500000
     0.666666687         0.583333313         0.437500000
     0.666666687         0.583333313         0.687500000
     0.666666687         0.833333313         0.937500000
     0.666666687         0.833333313         0.187500000
     0.666666687         0.833333313         0.437500000
     0.666666687         0.833333313         0.687500000
     0.083333336         0.916666687         0.062500000
     0.083333336         0.916666687         0.312500000
     0.083333336         0.916666687         0.562500000
     0.083333336         0.916666687         0.812500000
     0.083333336         0.166666687         0.062500000
     0.083333336         0.166666687         0.312500000
     0.083333336         0.166666687         0.562500000
     0.083333336         0.166666687         0.812500000
     0.083333336         0.416666687         0.062500000
     0.083333336         0.416666687         0.312500000
     0.083333336         0.416666687         0.562500000
     0.083333336         0.416666687         0.812500000
     0.083333336         0.666666687         0.062500000
     0.083333336         0.666666687         0.312500000
     0.083333336         0.666666687         0.562500000
     0.083333336         0.666666687         0.812500000
     0.333333343         0.916666687         0.062500000
     0.333333343         0.916666687         0.312500000
     0.333333343         0.916666687         0.562500000
     0.333333343         0.916666687         0.812500000
     0.333333343         0.166666687         0.062500000
     0.333333343         0.166666687         0.312500000
     0.333333343         0.166666687         0.562500000
     0.333333343         0.166666687         0.812500000
     0.333333343         0.416666687         0.062500000
     0.333333343         0.416666687         0.312500000
     0.333333343         0.416666687         0.562500000
     0.333333343         0.416666687         0.812500000
     0.333333343         0.666666687         0.062500000
     0.333333343         0.666666687         0.312500000
     0.333333343         0.666666687         0.562500000
     0.333333343         0.666666687         0.812500000
     0.583333313         0.916666687         0.062500000
     0.583333313         0.916666687         0.312500000
     0.583333313         0.916666687         0.562500000
     0.583333313         0.916666687         0.812500000
     0.583333313         0.166666687         0.062500000
     0.583333313         0.166666687         0.312500000
     0.583333313         0.166666687         0.562500000
     0.583333313         0.166666687         0.812500000
     0.583333313         0.416666687         0.062500000
     0.583333313         0.416666687         0.312500000
     0.583333313         0.416666687         0.562500000
     0.583333313         0.416666687         0.812500000
     0.583333313         0.666666687         0.062500000
     0.583333313         0.666666687         0.312500000
     0.583333313         0.666666687         0.562500000
     0.583333313         0.666666687         0.812500000
     0.833333313         0.916666687         0.062500000
     0.833333313         0.916666687         0.312500000
     0.833333313         0.916666687         0.562500000
     0.833333313         0.916666687         0.812500000
     0.833333313         0.166666687         0.062500000
     0.833333313         0.166666687         0.312500000
     0.833333313         0.166666687         0.562500000
     0.833333313         0.166666687         0.812500000
     0.833333313         0.416666687         0.062500000
     0.833333313         0.416666687         0.312500000
     0.833333313         0.416666687         0.562500000
     0.833333313         0.416666687         0.812500000
     0.833333313         0.666666687         0.062500000
     0.833333313         0.666666687         0.312500000
     0.833333313         0.666666687         0.562500000
     0.833333313         0.666666687         0.812500000
