Hf                                      
    1.000000000000000     
    12.8082373315198144   -0.0000141381465104   -0.0000000329734005
    -6.4041309294769366   11.0922517632591724    0.0000000408283207
     0.0000000141701518   -0.0000000077433768   20.2298148144022925
  Hf            
   128
Direct
     0.6666663992286291    0.0833338007257822    0.4374959469236597
     0.5833336679207091    0.6666665150409742    0.8124926763453791
     0.0833336675257600    0.6666665122137407    0.3124927842173727
     0.1666664002545533    0.5833337968652457    0.9374961645848233
     0.6666663466563533    0.0833335027236358    0.1875074976711305
     0.4166664018767765    0.8333337964473027    0.9374961655873659
     0.3333336136668530    0.1666662144205195    0.0625041663733874
     0.5833336702523304    0.9166665169863101    0.8124926762622924
     0.4166664042485813    0.8333337971001574    0.4374959461644594
     0.0833336636152313    0.1666665130983185    0.3124927844475057
     0.3333336700541075    0.1666665144255109    0.3124927840605630
     0.3333336106405537    0.1666662131759275    0.5625036929322877
     0.0833336667492360    0.4166665125281528    0.8124926752093420
     0.1666663427026268    0.3333334969962696    0.1875074967134120
     0.5833336744865052    0.9166665202252334    0.3124927841778173
     0.9166663394205699    0.3333334976240434    0.1875074973394536
     0.4166663459310981    0.8333334950202573    0.6875070713489152
     0.3333336696455871    0.9166665126998805    0.3124927843556743
     0.9166663449046960    0.8333334978572419    0.1875074967775314
     0.8333336151784451    0.6666662228883952    0.5625036921902675
     0.9166664033025178    0.8333337996900567    0.9374961657522402
     0.0833336096205332    0.4166662143753856    0.0625041654951298
     0.1666663949423739    0.0833337950352003    0.4374959470019927
     0.9166664011677986    0.5833338029181169    0.9374961654189190
     0.0833336674979475    0.1666665131233440    0.8124926759392366
     0.8333336115666707    0.1666662115334119    0.5625036919620863
     0.3333336677604612    0.4166665149313850    0.3124927833573531
     0.5833336655910374    0.1666665130365015    0.8124926755695345
     0.8333336652846941    0.4166665158699413    0.3124927848665476
     0.3333336636654757    0.1666665113105778    0.8124926760435774
     0.1666663956302244    0.0833337942243556    0.9374961654686075
     0.6666663478089918    0.8333334982633960    0.1875074956084154
     0.9166663978883245    0.3333337970404667    0.9374961662155381
     0.1666663399086067    0.0833334941990353    0.6875070712677451
     0.3333336649965060    0.4166665132360459    0.8124926760940061
     0.6666663956746685    0.3333337980411084    0.9374961649367477
     0.9166663483354921    0.5833335047620901    0.6875070714640414
     0.9166663441959294    0.3333334956943974    0.6875070707746975
     0.8333336097115748    0.1666662140438662    0.0625041659492876
     0.0833336688198859    0.9166665143899965    0.8124926764188937
     0.5833336175381161    0.9166662199808973    0.0625041662018153
     0.1666664000689810    0.5833337963346537    0.4374959467444816
     0.0833336710973784    0.6666665159523395    0.8124926751832968
     0.4166663997256640    0.0833337961939551    0.9374961656122914
     0.0833336085062716    0.1666662129796144    0.0625041647594518
     0.6666663481789312    0.8333334998567415    0.6875070722098738
     0.9166663397412949    0.0833334997016972    0.1875074965515136
     0.5833336113659916    0.1666662129720499    0.5625036938324961
     0.5833336139072229    0.6666662174332892    0.5625036934843410
     0.4166663965338928    0.3333337961070920    0.9374961658978379
     0.8333336108820688    0.4166662176889326    0.0625041660869932
     0.5833336149949692    0.1666662168684062    0.0625041661396115
     0.9166664001255902    0.8333338004885448    0.4374959458384171
     0.4166663399092917    0.0833334932863369    0.6875070713977040
     0.0833336112540564    0.9166662103174897    0.0625041650652582
     0.0833336110517953    0.1666662134323324    0.5625036938447443
     0.4166663500703411    0.8333334976089554    0.1875074974816811
     0.0833336631568029    0.4166665117889345    0.3124927844721174
     0.1666663441770206    0.8333334960446113    0.1875074968462346
     0.9166663500959725    0.8333335029091639    0.6875070723759116
     0.0833336129332705    0.9166662143249199    0.5625036931117957
     0.6666664019461406    0.8333338004880942    0.4374959477877586
     0.0833336671558977    0.9166665107345761    0.3124927839270639
     0.6666663490244384    0.5833335041412238    0.6875070711935546
     0.0833336137563880    0.4166662130844107    0.5625036929092632
     0.9166663459056741    0.0833335008402220    0.6875070726523760
     0.6666664061604354    0.5833338021509605    0.9374961656618537
     0.8333336643927169    0.1666665152535582    0.3124927840508193
     0.8333336700933692    0.6666665213620558    0.8124926766592627
     0.8333336738746949    0.9166665169502602    0.8124926765214529
     0.6666663441029623    0.3333335010332286    0.1875074979243070
     0.8333336675178638    0.1666665146419457    0.8124926763242707
     0.1666663409636707    0.0833334943137791    0.1875074970397340
     0.8333336688128513    0.4166665184289005    0.8124926766044108
     0.1666663476152096    0.8333335016003797    0.6875070716916137
     0.4166663473925271    0.3333334995252966    0.1875074977084256
     0.8333336180537637    0.9166662172691715    0.0625041643686721
     0.9166663983821012    0.5833338007729932    0.4374959462641347
     0.0833336173472827    0.6666662165771092    0.5625036933428857
     0.5833336713459593    0.1666665178476891    0.3124927840600392
     0.3333336091139960    0.4166662113853169    0.5625036944596896
     0.4166663449751963    0.5833334950269393    0.6875070723574317
     0.3333336708589382    0.6666665126968174    0.8124926757959543
     0.6666663458204256    0.0833334977007124    0.6875070723822369
     0.8333336697572419    0.9166665159221542    0.3124927831385420
     0.3333336124746762    0.9166662127693624    0.0625041661540637
     0.4166663959623380    0.3333337966773045    0.4374959461885139
     0.4166664021571362    0.0833337985779510    0.4374959466748527
     0.9166663981934667    0.0833338002266288    0.9374961645352859
     0.9166663956649194    0.0833337987567688    0.4374959469990872
     0.1666663995782585    0.3333337970219426    0.9374961644459255
     0.3333336670523302    0.9166665113610845    0.8124926762045580
     0.9166663956214820    0.3333337947402267    0.4374959464893880
     0.1666664003697502    0.8333337974319184    0.9374961647583626
     0.1666663991115184    0.3333337962766823    0.4374959469613288
     0.1666663494114696    0.5833334982362463    0.6875070715164069
     0.3333336108208604    0.4166662133827913    0.0625041656206001
     0.4166663382998567    0.3333334950033299    0.6875070717645594
     0.3333336728147835    0.6666665117865872    0.3124927844069910
     0.3333336154975923    0.6666662128257742    0.0625041662806690
     0.6666663398023057    0.3333334974637305    0.6875070720919852
     0.4166663517393133    0.5833334983791250    0.1875074965613694
     0.1666663444507192    0.3333334943349250    0.6875070726859069
     0.4166664017093471    0.5833337939202952    0.4374959475668415
     0.1666663447071317    0.5833334968597642    0.1875074972895457
     0.6666664021739254    0.8333337990190701    0.9374961651323582
     0.6666663498658121    0.5833335018102854    0.1875074970652552
     0.6666664007231393    0.0833338004805993    0.9374961650764246
     0.3333336167370219    0.6666662135859265    0.5625036927977549
     0.5833336167006501    0.9166662186070611    0.5625036930255023
     0.5833336143108719    0.4166662193152700    0.0625041659925845
     0.5833336159006808    0.6666662162970901    0.0625041646029526
     0.8333336129211885    0.6666662180695545    0.0625041662622657
     0.6666664043778144    0.5833338013885303    0.4374959470196363
     0.4166663489209453    0.0833334977778174    0.1875074977749433
     0.8333336207495685    0.9166662195047610    0.5625036938912815
     0.9166663434484389    0.5833334990684668    0.1875074973407973
     0.8333336124638391    0.4166662177226311    0.5625036921139093
     0.3333336136954146    0.9166662138809937    0.5625036923003993
     0.5833336093928321    0.4166662174410271    0.5625036928269950
     0.6666663946560812    0.3333337962408677    0.4374959471375370
     0.1666664005841576    0.8333337981651324    0.4374959474676928
     0.0833336129039629    0.6666662132649940    0.0625041649911910
     0.8333336660788482    0.6666665153294316    0.3124927835731569
     0.4166664013539668    0.5833337947897720    0.9374961655623387
     0.5833336704682128    0.4166665193244325    0.3124927844954718
     0.5833336717924053    0.6666665157789811    0.3124927853036455
     0.5833336643275022    0.4166665183047115    0.8124926757987628
 
  0.00000000E+00  0.00000000E+00  0.00000000E+00
  0.00000000E+00  0.00000000E+00  0.00000000E+00
  0.00000000E+00  0.00000000E+00  0.00000000E+00
  0.00000000E+00  0.00000000E+00  0.00000000E+00
  0.00000000E+00  0.00000000E+00  0.00000000E+00
  0.00000000E+00  0.00000000E+00  0.00000000E+00
  0.00000000E+00  0.00000000E+00  0.00000000E+00
  0.00000000E+00  0.00000000E+00  0.00000000E+00
  0.00000000E+00  0.00000000E+00  0.00000000E+00
  0.00000000E+00  0.00000000E+00  0.00000000E+00
  0.00000000E+00  0.00000000E+00  0.00000000E+00
  0.00000000E+00  0.00000000E+00  0.00000000E+00
  0.00000000E+00  0.00000000E+00  0.00000000E+00
  0.00000000E+00  0.00000000E+00  0.00000000E+00
  0.00000000E+00  0.00000000E+00  0.00000000E+00
  0.00000000E+00  0.00000000E+00  0.00000000E+00
  0.00000000E+00  0.00000000E+00  0.00000000E+00
  0.00000000E+00  0.00000000E+00  0.00000000E+00
  0.00000000E+00  0.00000000E+00  0.00000000E+00
  0.00000000E+00  0.00000000E+00  0.00000000E+00
  0.00000000E+00  0.00000000E+00  0.00000000E+00
  0.00000000E+00  0.00000000E+00  0.00000000E+00
  0.00000000E+00  0.00000000E+00  0.00000000E+00
  0.00000000E+00  0.00000000E+00  0.00000000E+00
  0.00000000E+00  0.00000000E+00  0.00000000E+00
  0.00000000E+00  0.00000000E+00  0.00000000E+00
  0.00000000E+00  0.00000000E+00  0.00000000E+00
  0.00000000E+00  0.00000000E+00  0.00000000E+00
  0.00000000E+00  0.00000000E+00  0.00000000E+00
  0.00000000E+00  0.00000000E+00  0.00000000E+00
  0.00000000E+00  0.00000000E+00  0.00000000E+00
  0.00000000E+00  0.00000000E+00  0.00000000E+00
  0.00000000E+00  0.00000000E+00  0.00000000E+00
  0.00000000E+00  0.00000000E+00  0.00000000E+00
  0.00000000E+00  0.00000000E+00  0.00000000E+00
  0.00000000E+00  0.00000000E+00  0.00000000E+00
  0.00000000E+00  0.00000000E+00  0.00000000E+00
  0.00000000E+00  0.00000000E+00  0.00000000E+00
  0.00000000E+00  0.00000000E+00  0.00000000E+00
  0.00000000E+00  0.00000000E+00  0.00000000E+00
  0.00000000E+00  0.00000000E+00  0.00000000E+00
  0.00000000E+00  0.00000000E+00  0.00000000E+00
  0.00000000E+00  0.00000000E+00  0.00000000E+00
  0.00000000E+00  0.00000000E+00  0.00000000E+00
  0.00000000E+00  0.00000000E+00  0.00000000E+00
  0.00000000E+00  0.00000000E+00  0.00000000E+00
  0.00000000E+00  0.00000000E+00  0.00000000E+00
  0.00000000E+00  0.00000000E+00  0.00000000E+00
  0.00000000E+00  0.00000000E+00  0.00000000E+00
  0.00000000E+00  0.00000000E+00  0.00000000E+00
  0.00000000E+00  0.00000000E+00  0.00000000E+00
  0.00000000E+00  0.00000000E+00  0.00000000E+00
  0.00000000E+00  0.00000000E+00  0.00000000E+00
  0.00000000E+00  0.00000000E+00  0.00000000E+00
  0.00000000E+00  0.00000000E+00  0.00000000E+00
  0.00000000E+00  0.00000000E+00  0.00000000E+00
  0.00000000E+00  0.00000000E+00  0.00000000E+00
  0.00000000E+00  0.00000000E+00  0.00000000E+00
  0.00000000E+00  0.00000000E+00  0.00000000E+00
  0.00000000E+00  0.00000000E+00  0.00000000E+00
  0.00000000E+00  0.00000000E+00  0.00000000E+00
  0.00000000E+00  0.00000000E+00  0.00000000E+00
  0.00000000E+00  0.00000000E+00  0.00000000E+00
  0.00000000E+00  0.00000000E+00  0.00000000E+00
  0.00000000E+00  0.00000000E+00  0.00000000E+00
  0.00000000E+00  0.00000000E+00  0.00000000E+00
  0.00000000E+00  0.00000000E+00  0.00000000E+00
  0.00000000E+00  0.00000000E+00  0.00000000E+00
  0.00000000E+00  0.00000000E+00  0.00000000E+00
  0.00000000E+00  0.00000000E+00  0.00000000E+00
  0.00000000E+00  0.00000000E+00  0.00000000E+00
  0.00000000E+00  0.00000000E+00  0.00000000E+00
  0.00000000E+00  0.00000000E+00  0.00000000E+00
  0.00000000E+00  0.00000000E+00  0.00000000E+00
  0.00000000E+00  0.00000000E+00  0.00000000E+00
  0.00000000E+00  0.00000000E+00  0.00000000E+00
  0.00000000E+00  0.00000000E+00  0.00000000E+00
  0.00000000E+00  0.00000000E+00  0.00000000E+00
  0.00000000E+00  0.00000000E+00  0.00000000E+00
  0.00000000E+00  0.00000000E+00  0.00000000E+00
  0.00000000E+00  0.00000000E+00  0.00000000E+00
  0.00000000E+00  0.00000000E+00  0.00000000E+00
  0.00000000E+00  0.00000000E+00  0.00000000E+00
  0.00000000E+00  0.00000000E+00  0.00000000E+00
  0.00000000E+00  0.00000000E+00  0.00000000E+00
  0.00000000E+00  0.00000000E+00  0.00000000E+00
  0.00000000E+00  0.00000000E+00  0.00000000E+00
  0.00000000E+00  0.00000000E+00  0.00000000E+00
  0.00000000E+00  0.00000000E+00  0.00000000E+00
  0.00000000E+00  0.00000000E+00  0.00000000E+00
  0.00000000E+00  0.00000000E+00  0.00000000E+00
  0.00000000E+00  0.00000000E+00  0.00000000E+00
  0.00000000E+00  0.00000000E+00  0.00000000E+00
  0.00000000E+00  0.00000000E+00  0.00000000E+00
  0.00000000E+00  0.00000000E+00  0.00000000E+00
  0.00000000E+00  0.00000000E+00  0.00000000E+00
  0.00000000E+00  0.00000000E+00  0.00000000E+00
  0.00000000E+00  0.00000000E+00  0.00000000E+00
  0.00000000E+00  0.00000000E+00  0.00000000E+00
  0.00000000E+00  0.00000000E+00  0.00000000E+00
  0.00000000E+00  0.00000000E+00  0.00000000E+00
  0.00000000E+00  0.00000000E+00  0.00000000E+00
  0.00000000E+00  0.00000000E+00  0.00000000E+00
  0.00000000E+00  0.00000000E+00  0.00000000E+00
  0.00000000E+00  0.00000000E+00  0.00000000E+00
  0.00000000E+00  0.00000000E+00  0.00000000E+00
  0.00000000E+00  0.00000000E+00  0.00000000E+00
  0.00000000E+00  0.00000000E+00  0.00000000E+00
  0.00000000E+00  0.00000000E+00  0.00000000E+00
  0.00000000E+00  0.00000000E+00  0.00000000E+00
  0.00000000E+00  0.00000000E+00  0.00000000E+00
  0.00000000E+00  0.00000000E+00  0.00000000E+00
  0.00000000E+00  0.00000000E+00  0.00000000E+00
  0.00000000E+00  0.00000000E+00  0.00000000E+00
  0.00000000E+00  0.00000000E+00  0.00000000E+00
  0.00000000E+00  0.00000000E+00  0.00000000E+00
  0.00000000E+00  0.00000000E+00  0.00000000E+00
  0.00000000E+00  0.00000000E+00  0.00000000E+00
  0.00000000E+00  0.00000000E+00  0.00000000E+00
  0.00000000E+00  0.00000000E+00  0.00000000E+00
  0.00000000E+00  0.00000000E+00  0.00000000E+00
  0.00000000E+00  0.00000000E+00  0.00000000E+00
  0.00000000E+00  0.00000000E+00  0.00000000E+00
  0.00000000E+00  0.00000000E+00  0.00000000E+00
  0.00000000E+00  0.00000000E+00  0.00000000E+00
  0.00000000E+00  0.00000000E+00  0.00000000E+00
  0.00000000E+00  0.00000000E+00  0.00000000E+00
  0.00000000E+00  0.00000000E+00  0.00000000E+00
