Hf Nb                                   
    1.000000000000000     
    11.7466513859143458    1.0928845532053013   -0.0049682865987129
    -4.9799029175916463   10.7082815849555129   -0.0023881990703433
    -0.0274911484375898   -0.0175680695703082   19.1787973943864216
  Hf             Nb           
              52              76
Direct
  0.3143341789416831  0.1806579693639015  0.5619650532627604
  0.8021638043577672  0.9460431332243174  0.0664926875812704
  0.4502372085996799  0.8133554424454648  0.9371556971338635
  0.6663115164035061  0.0694717528351302  0.4292089760927005
  0.5579609831297382  0.1722199835024756  0.3168851323482422
  0.8103388582475048  0.6834059053957661  0.0598085199524796
  0.3099876732278595  0.1828542228352052  0.3081440642103034
  0.9342922260535808  0.5548558557957495  0.9385686662466290
  0.9385670134917961  0.0622265123070337  0.9352440521237266
  0.9389296655470799  0.5631927226621803  0.6880147143494667
  0.0716741784867493  0.6983642084077865  0.8118020641717905
  0.6742708899069939  0.0573013655876622  0.9409277174482151
  0.5579382376887558  0.6881375765865388  0.0626359719999428
  0.4303368833762217  0.0551022593049378  0.1872117039235290
  0.0616445740513473  0.4413578169751508  0.5668905441543085
  0.9474989198711302  0.3171729334751501  0.4306614948212964
  0.2002362876870831  0.7890859551797784  0.9472818585849418
  0.9379378783750009  0.8052225032862413  0.4381642908007672
  0.0608395111007535  0.6898707441313725  0.0775250502778430
  0.0577238179381042  0.6936284807506455  0.3096894530103753
  0.5562515465253262  0.6824641321658163  0.8125468038264967
  0.1935743266454346  0.8105509152594541  0.4390304885224902
  0.1962427507899503  0.3107080578955730  0.1804882312481033
  0.4346971642982834  0.0584348132133176  0.6862588541966438
  0.1834847957768829  0.5706703471314026  0.1905911037314228
  0.0661577826384195  0.4320673251111601  0.0563675764768158
  0.3054290357956591  0.9249197080488080  0.8149844758916269
  0.5576671341596262  0.9397669134267571  0.5611720615521570
  0.9728341466722158  0.8234088523369062  0.9334532819407310
  0.8100325773415914  0.6838593687142143  0.8129320550067635
  0.9377981027320538  0.3102765405831333  0.1887072668414848
  0.8175599872720415  0.1851390210507876  0.5611801947596869
  0.6855949937287182  0.3232406274412846  0.1939823109860188
  0.3175811750295161  0.4426240673852065  0.5629129762699178
  0.0583095941368851  0.1961769813466754  0.3133871544331872
  0.0652530513664461  0.1961573913069569  0.8070602925066306
  0.3116889722111248  0.4345060928146475  0.8087856601923483
  0.9306864746464943  0.0588565137305023  0.4415752691698643
  0.6913634614864096  0.5743970150175475  0.4384041787225065
  0.5639339669685957  0.1846324268915180  0.0622047413195776
  0.5639266181057239  0.6792307869747342  0.5635252346240733
  0.7120828371951020  0.8112434046631797  0.9329222862891557
  0.5565906265953852  0.6801820259169276  0.3133376313832970
  0.3113852157629138  0.4432929147342102  0.3134619128117181
  0.6917195917504132  0.8311717971622822  0.4402023307728674
  0.6939966179216338  0.0637798559733163  0.6912427266743540
  0.3224253549647340  0.1813587692966399  0.8158485989313293
  0.8070369106499319  0.4484846140308481  0.5602174448846802
  0.4448177591599180  0.3268022692237414  0.6884995482581250
  0.6817730431272371  0.3242758033063701  0.4338849609174153
  0.6913389323289234  0.3183169676190079  0.9362117763289789
  0.6935409002166917  0.0614561268473965  0.1863592544079417
  0.8110005387491530  0.4296113197122705  0.8084436013349292
  0.1943497983958360  0.3046182746551590  0.4402342480725728
  0.9418086451455490  0.8165219559508176  0.6879084456593270
  0.0617625301344107  0.9483708867976779  0.8052203555454868
  0.4337037540663300  0.3092224815360137  0.9416398519639456
  0.9443897404885492  0.0571700309782196  0.1884653535276437
  0.8139252859844370  0.9281844556092939  0.5714821426658898
  0.5399857541263454  0.9318526463091498  0.0723689738429989
  0.8110160563765799  0.4316655573113701  0.0664951954810090
  0.4164679687019117  0.0574668538579115  0.4410263443289893
  0.4367612885819391  0.8028418473162416  0.1884736706749110
  0.5642454112651819  0.4359706640134468  0.0622636866361598
  0.8096189636021760  0.1882469120938252  0.3124243935938689
  0.4323689068739685  0.5482784556040777  0.9394306268907243
  0.8230522363328093  0.6967687172468616  0.5725184011595679
  0.3223172233904934  0.4411869559827609  0.0596951365250792
  0.1793802166300303  0.0560125163594770  0.1852444232513123
  0.8114484329655199  0.9441550921218134  0.8042862627101955
  0.5547851434252182  0.9250904362497727  0.3087234051242197
  0.1915551475213444  0.0651431635612637  0.9398805838103316
  0.0596870185066831  0.6937552073060884  0.5627010751765951
  0.8211391502115334  0.4492425203140966  0.3144443724187683
  0.3069656081979439  0.6824213969980000  0.0610286831550145
  0.0578834438777461  0.1792157788753583  0.0631337290469433
  0.4318689074040389  0.5640778109350086  0.4373168721356773
  0.3086539523738334  0.6932410071624271  0.5625973477352985
  0.1854430602716138  0.8106408815925906  0.6824066147795775
  0.5711869849486113  0.1810609127191563  0.8117273716922396
  0.8092091125089200  0.6984061350492149  0.3071148343618744
  0.4256683948665657  0.0677965919937950  0.9379218660836366
  0.5642993937507098  0.4307510422380129  0.3108907408845690
  0.6904279887708259  0.8089957326643611  0.1909555346071257
  0.9365705274471859  0.3052365796462731  0.6929011264304850
  0.3089574661028173  0.1890195384655226  0.0639987154898373
  0.1938103067427625  0.5579381558610094  0.4365811688186816
  0.3129329502567864  0.6977348902905001  0.3171153337329473
  0.9123795533250397  0.5556877334489373  0.1902983849095903
  0.6818287141414235  0.5597197440678126  0.6868427414568434
  0.4388372571230950  0.8075680726607375  0.6901278138607274
  0.1971785373179064  0.8305911775848309  0.1895414115978662
  0.9377518915799540  0.8148927601355891  0.1899951772667256
  0.0665219507441672  0.9441928382752324  0.0660640931039195
  0.4415399445804323  0.3174924870060571  0.1811569499521938
  0.3092405832592793  0.6798789915552718  0.8094832414343881
  0.4328488894352778  0.3219247688259348  0.4334388433318356
  0.1877684705647684  0.3069539273341683  0.9392944403887333
  0.3036688229034426  0.9275187149305903  0.5650302011999323
  0.4348814548484145  0.5566512542566746  0.1839717791106318
  0.1780618107897825  0.3124141318710815  0.6795173161170704
  0.4386906495965201  0.8093628189374791  0.4336414845483120
  0.8112873139580046  0.1912302532865355  0.8156783060357352
  0.0568960946973429  0.4512601686060732  0.3140955554705394
  0.5719115402414905  0.4314292017172717  0.8169921951434327
  0.3071744569388514  0.9310475866087569  0.3126539092992089
  0.6961839804062430  0.3174473332462799  0.6885000667755760
  0.0701317500109655  0.1912341628102074  0.5635953170108755
  0.5582217178567717  0.4224647410130979  0.5577620580106750
  0.1802829102110673  0.0592230303024209  0.4348325146829923
  0.9413136239262656  0.3079520647177533  0.9312287704051462
  0.0607773294484790  0.9425097434486597  0.3125307009652184
  0.6785798004642957  0.5697120204368877  0.1892292939599496
  0.1935387627513262  0.5673676296780761  0.6895861606653633
  0.9556766872198176  0.5636021315444939  0.4395987442813628
  0.8268979095831086  0.2034105591947306  0.0552241122878119
  0.3112019165507890  0.9385557947169599  0.0622305177304252
  0.8133157872738596  0.9391836521487870  0.3075558754809760
  0.0689403900324092  0.9419632011528607  0.5636542479087991
  0.5720283005325292  0.1985051056161444  0.5673678762144940
  0.5635636611932503  0.9386359932713538  0.8082641924761278
  0.1983557349120881  0.5447954903063077  0.9297918902087694
  0.4343092075565902  0.5770144205359967  0.6869066403134030
  0.6932722751365239  0.8085495588983321  0.6900412468171891
  0.9405619958195391  0.0596420314901576  0.6829101588459761
  0.6688052663617955  0.5546613415054416  0.9369901713189275
  0.0567114765824449  0.4395589451947393  0.8099071989748238
  0.1802153646457188  0.0603020696097894  0.6893915147161300
 
  0.00000000E+00  0.00000000E+00  0.00000000E+00
  0.00000000E+00  0.00000000E+00  0.00000000E+00
  0.00000000E+00  0.00000000E+00  0.00000000E+00
  0.00000000E+00  0.00000000E+00  0.00000000E+00
  0.00000000E+00  0.00000000E+00  0.00000000E+00
  0.00000000E+00  0.00000000E+00  0.00000000E+00
  0.00000000E+00  0.00000000E+00  0.00000000E+00
  0.00000000E+00  0.00000000E+00  0.00000000E+00
  0.00000000E+00  0.00000000E+00  0.00000000E+00
  0.00000000E+00  0.00000000E+00  0.00000000E+00
  0.00000000E+00  0.00000000E+00  0.00000000E+00
  0.00000000E+00  0.00000000E+00  0.00000000E+00
  0.00000000E+00  0.00000000E+00  0.00000000E+00
  0.00000000E+00  0.00000000E+00  0.00000000E+00
  0.00000000E+00  0.00000000E+00  0.00000000E+00
  0.00000000E+00  0.00000000E+00  0.00000000E+00
  0.00000000E+00  0.00000000E+00  0.00000000E+00
  0.00000000E+00  0.00000000E+00  0.00000000E+00
  0.00000000E+00  0.00000000E+00  0.00000000E+00
  0.00000000E+00  0.00000000E+00  0.00000000E+00
  0.00000000E+00  0.00000000E+00  0.00000000E+00
  0.00000000E+00  0.00000000E+00  0.00000000E+00
  0.00000000E+00  0.00000000E+00  0.00000000E+00
  0.00000000E+00  0.00000000E+00  0.00000000E+00
  0.00000000E+00  0.00000000E+00  0.00000000E+00
  0.00000000E+00  0.00000000E+00  0.00000000E+00
  0.00000000E+00  0.00000000E+00  0.00000000E+00
  0.00000000E+00  0.00000000E+00  0.00000000E+00
  0.00000000E+00  0.00000000E+00  0.00000000E+00
  0.00000000E+00  0.00000000E+00  0.00000000E+00
  0.00000000E+00  0.00000000E+00  0.00000000E+00
  0.00000000E+00  0.00000000E+00  0.00000000E+00
  0.00000000E+00  0.00000000E+00  0.00000000E+00
  0.00000000E+00  0.00000000E+00  0.00000000E+00
  0.00000000E+00  0.00000000E+00  0.00000000E+00
  0.00000000E+00  0.00000000E+00  0.00000000E+00
  0.00000000E+00  0.00000000E+00  0.00000000E+00
  0.00000000E+00  0.00000000E+00  0.00000000E+00
  0.00000000E+00  0.00000000E+00  0.00000000E+00
  0.00000000E+00  0.00000000E+00  0.00000000E+00
  0.00000000E+00  0.00000000E+00  0.00000000E+00
  0.00000000E+00  0.00000000E+00  0.00000000E+00
  0.00000000E+00  0.00000000E+00  0.00000000E+00
  0.00000000E+00  0.00000000E+00  0.00000000E+00
  0.00000000E+00  0.00000000E+00  0.00000000E+00
  0.00000000E+00  0.00000000E+00  0.00000000E+00
  0.00000000E+00  0.00000000E+00  0.00000000E+00
  0.00000000E+00  0.00000000E+00  0.00000000E+00
  0.00000000E+00  0.00000000E+00  0.00000000E+00
  0.00000000E+00  0.00000000E+00  0.00000000E+00
  0.00000000E+00  0.00000000E+00  0.00000000E+00
  0.00000000E+00  0.00000000E+00  0.00000000E+00
  0.00000000E+00  0.00000000E+00  0.00000000E+00
  0.00000000E+00  0.00000000E+00  0.00000000E+00
  0.00000000E+00  0.00000000E+00  0.00000000E+00
  0.00000000E+00  0.00000000E+00  0.00000000E+00
  0.00000000E+00  0.00000000E+00  0.00000000E+00
  0.00000000E+00  0.00000000E+00  0.00000000E+00
  0.00000000E+00  0.00000000E+00  0.00000000E+00
  0.00000000E+00  0.00000000E+00  0.00000000E+00
  0.00000000E+00  0.00000000E+00  0.00000000E+00
  0.00000000E+00  0.00000000E+00  0.00000000E+00
  0.00000000E+00  0.00000000E+00  0.00000000E+00
  0.00000000E+00  0.00000000E+00  0.00000000E+00
  0.00000000E+00  0.00000000E+00  0.00000000E+00
  0.00000000E+00  0.00000000E+00  0.00000000E+00
  0.00000000E+00  0.00000000E+00  0.00000000E+00
  0.00000000E+00  0.00000000E+00  0.00000000E+00
  0.00000000E+00  0.00000000E+00  0.00000000E+00
  0.00000000E+00  0.00000000E+00  0.00000000E+00
  0.00000000E+00  0.00000000E+00  0.00000000E+00
  0.00000000E+00  0.00000000E+00  0.00000000E+00
  0.00000000E+00  0.00000000E+00  0.00000000E+00
  0.00000000E+00  0.00000000E+00  0.00000000E+00
  0.00000000E+00  0.00000000E+00  0.00000000E+00
  0.00000000E+00  0.00000000E+00  0.00000000E+00
  0.00000000E+00  0.00000000E+00  0.00000000E+00
  0.00000000E+00  0.00000000E+00  0.00000000E+00
  0.00000000E+00  0.00000000E+00  0.00000000E+00
  0.00000000E+00  0.00000000E+00  0.00000000E+00
  0.00000000E+00  0.00000000E+00  0.00000000E+00
  0.00000000E+00  0.00000000E+00  0.00000000E+00
  0.00000000E+00  0.00000000E+00  0.00000000E+00
  0.00000000E+00  0.00000000E+00  0.00000000E+00
  0.00000000E+00  0.00000000E+00  0.00000000E+00
  0.00000000E+00  0.00000000E+00  0.00000000E+00
  0.00000000E+00  0.00000000E+00  0.00000000E+00
  0.00000000E+00  0.00000000E+00  0.00000000E+00
  0.00000000E+00  0.00000000E+00  0.00000000E+00
  0.00000000E+00  0.00000000E+00  0.00000000E+00
  0.00000000E+00  0.00000000E+00  0.00000000E+00
  0.00000000E+00  0.00000000E+00  0.00000000E+00
  0.00000000E+00  0.00000000E+00  0.00000000E+00
  0.00000000E+00  0.00000000E+00  0.00000000E+00
  0.00000000E+00  0.00000000E+00  0.00000000E+00
  0.00000000E+00  0.00000000E+00  0.00000000E+00
  0.00000000E+00  0.00000000E+00  0.00000000E+00
  0.00000000E+00  0.00000000E+00  0.00000000E+00
  0.00000000E+00  0.00000000E+00  0.00000000E+00
  0.00000000E+00  0.00000000E+00  0.00000000E+00
  0.00000000E+00  0.00000000E+00  0.00000000E+00
  0.00000000E+00  0.00000000E+00  0.00000000E+00
  0.00000000E+00  0.00000000E+00  0.00000000E+00
  0.00000000E+00  0.00000000E+00  0.00000000E+00
  0.00000000E+00  0.00000000E+00  0.00000000E+00
  0.00000000E+00  0.00000000E+00  0.00000000E+00
  0.00000000E+00  0.00000000E+00  0.00000000E+00
  0.00000000E+00  0.00000000E+00  0.00000000E+00
  0.00000000E+00  0.00000000E+00  0.00000000E+00
  0.00000000E+00  0.00000000E+00  0.00000000E+00
  0.00000000E+00  0.00000000E+00  0.00000000E+00
  0.00000000E+00  0.00000000E+00  0.00000000E+00
  0.00000000E+00  0.00000000E+00  0.00000000E+00
  0.00000000E+00  0.00000000E+00  0.00000000E+00
  0.00000000E+00  0.00000000E+00  0.00000000E+00
  0.00000000E+00  0.00000000E+00  0.00000000E+00
  0.00000000E+00  0.00000000E+00  0.00000000E+00
  0.00000000E+00  0.00000000E+00  0.00000000E+00
  0.00000000E+00  0.00000000E+00  0.00000000E+00
  0.00000000E+00  0.00000000E+00  0.00000000E+00
  0.00000000E+00  0.00000000E+00  0.00000000E+00
  0.00000000E+00  0.00000000E+00  0.00000000E+00
  0.00000000E+00  0.00000000E+00  0.00000000E+00
  0.00000000E+00  0.00000000E+00  0.00000000E+00
  0.00000000E+00  0.00000000E+00  0.00000000E+00
  0.00000000E+00  0.00000000E+00  0.00000000E+00
  0.00000000E+00  0.00000000E+00  0.00000000E+00
  0.00000000E+00  0.00000000E+00  0.00000000E+00
