Nb Ta                                   
    1.000000000000000     
    13.2749124442023909   -0.0001025841601057    0.0001309633762461
    -0.0001026253077607   13.2759024792617151    0.0000420806890572
     0.0001310250720956    0.0000421274472216   13.2747749098063910
   Nb   Ta
     8   120
Direct
  0.3760127534262139  0.6248334031763157  0.8761512864545120
  0.4986113706696694  0.7496688100499256  0.2505080880912177
  0.3755723507456555  0.6254427878459246  0.3737278242624980
 -0.0002667825940624  0.5000238184705734  0.2500007411606187
  0.3748255355031551  0.6248383691347316  0.6250323189217216
  0.1242135875812341  0.6249841745936799  0.8750233041641705
  0.1250295620580378  0.1248964509306657  0.1247601175868917
  0.7510818604057657  0.7500169184067799  0.2499090794650677
  0.1249680096166938  0.6243265670830429  0.1265425181412108
  0.7499381369960539  0.2501681310298134  0.7500033673132758
  0.2500510551480856 -0.0002766232567342  0.4999359957257545
  0.7500565493351743  0.7501649672502304  0.5008924405345732
  0.1250891171696081  0.1250612367577203  0.8737627999527314
  0.3745600645772308  0.3751890414113878  0.1246630472423506
  0.6249524491009570  0.1249703999926081  0.8750749046199967
  0.4998266184645629  0.5004177000572907 -0.0000853826380222
  0.8751485631810625  0.1250604765255166  0.8751299750122493
  0.1249047974601955  0.3756721442598422  0.3744900830449487
  0.3745570416515350  0.8760378250231410  0.8749359808221657
  0.7498060487800856 -0.0003934910968049  0.4996402262532081
  0.2495106906267672  0.0001300433492167  0.2493285410132725
  0.5001753399459414  0.2502295522058297  0.2499887364377950
  0.6245509062262405  0.6259745321298282  0.1256995527109471
  0.8749742202895613  0.1250687213821582  0.6249463488459485
  0.6260359635310142  0.6259417291142590  0.3743673330074742
  0.5001564527577008 -0.0000793801557109  0.7499890723246927
  0.2497426909446083  0.2503027494281467  0.4999017130898483
  0.3752529352748968  0.6255212361511496  0.1251716876887471
  0.4994236003111452  0.5010144576186361  0.4997439690992327
  0.8751510209566787  0.6250463130674528  0.6252207316876067
  0.7498123099536499 -0.0004893578992663  0.0002414417812591
  0.2492917685277251  0.2496749411822743  0.0008413468067997
  0.3747327981387011  0.8758362351074253  0.6251873458435721
  0.6260063210231979  0.6248225762060624  0.6251169765481662
  0.6260892171325447  0.6248534794455399  0.8748522154020132
  0.0004604652461185  0.5002363703573705  0.7504717164569572
  0.5001865416349909  0.2501162593780154  0.7499858349162580
  0.1248938910886989  0.3772146042936292  0.1253414472700753
  0.6246502504531165  0.3754513108838284  0.6249346271282312
  0.6245887693099381  0.8747751498298572  0.6250882255604647
  0.2499262099344625 -0.0001046758070252  0.7498197540775889
  0.2499206573209605  0.7491297581832211 -0.0006147318155133
  0.7485963724479300  0.4988601197897224  0.2498304810879478
  0.3750464616238122  0.8741885795728471  0.1252755418250693
  0.6247128822916558  0.8738100279972129  0.1258802796686565
  0.5002905081971617  0.0008247841160470  0.2499844609050678
  0.7501271348251091  0.2503849102545723  0.0000783771276823
  0.1254372315574348  0.3737987332236956  0.8749969954455526
  0.0002100141356559  0.0002765990766783  0.0006985054235377
  0.8751488197793543  0.6249878746194366  0.1256630243152292
  0.2500243392724946  0.2500779662925552  0.7498404577054176
  0.3745971675366981  0.3739811376794688  0.8750735475355161
  0.2492315442631623  0.2498050842893106  0.2493718181867506
  0.8751110137634588  0.1250180163390492  0.3750727442750227
  0.0002566038732378  0.0001188948977342  0.2494722264466580
  0.3746062409827642  0.1250702501983466  0.3749271496899971
  0.1242708702116525  0.6251290345617784  0.6237725601837246
 -0.0002796847611742  0.4997742176656614  0.5009929962763605
  0.8758453767300860  0.3755260492217022  0.1252637369538038
  0.1236198433334697  0.6244103919949516  0.3748143333969443
  0.7499927261189737  0.5000259049644953  0.0006694430136603
  0.7500380495994127 -0.0001517978232169  0.7499784286092367
  0.1254754162098582  0.8750449059424823  0.3752681940709464
  0.6247583644157452  0.3753877194427078  0.8749157529333448
  0.0002519954792919  0.7494842483769774 -0.0000603923255118
  0.8756846241138095  0.3754109109015020  0.3744098407323834
  0.8750114423785481  0.6249553205252826  0.3741750500371860
  0.5001348078621582  0.2502075500121828  0.0000545456387480
  0.0003125124093914  0.5005230462540446 -0.0015220827620649
  0.7497643787860506  0.0008435941411641  0.2500997755146256
  0.2496185319827024  0.0003064350837412  0.0008039016268420
  0.8751788887889275  0.3750142995483851  0.8751248225918421
  0.1252337455240821  0.1248963255767467  0.3763011792416346
  0.2508916286372425  0.5007437946786826  0.4996617894237116
  0.7499761706563259  0.7503740260190807  0.7498645477449439
  0.1253915085104388  0.8760069218847489  0.8751337677013322
  0.6250507049490456  0.1251664697131805  0.1247617951013030
  0.8753272678550718  0.8749291644368407  0.8751439748939090
 -0.0001146667889110 -0.0002162799546977  0.7498500222723139
  0.3747866242913470  0.3737951990440180  0.3752401888594028
  0.4993036937585570  0.7492260083774007  0.7498859384904217
  0.5003201451714657 -0.0003260179669219  0.4996104135844169
  0.8750230216815095  0.3751012546747314  0.6251589652310070
  0.0009674024863490  0.7515098805596754  0.2500270160512644
  0.3751810287582105  0.8756988848231524  0.3746270285159208
  0.6247346595807519  0.3751419962662654  0.3754542526017736
  0.8736985047449433  0.1249657013522170  0.1247598446983366
  0.7501211319624068  0.2502808600634825  0.4998004481527444
  0.0003434309604910  0.2497571829111557  0.0007854947007480
  0.1251070917824893  0.1250859182347965  0.6250043899909583
  0.3747406044924009  0.1249874413732283  0.8751635189850328
  0.6246750649131221  0.8737033840603190  0.3743010182465984
  0.6250005478769117  0.1251583118777781  0.3751287742207611
  0.6247066568664136  0.8748207173990220  0.8747615511550596
  0.2519347034600176  0.5004138105670785  0.2507230869473753
  0.2499266924009325  0.5007725430181978 -0.0006628819403826
  0.8751769884206793  0.8748876881071689  0.6251264076676717
  0.1256236600676090  0.3754903199260713  0.6252332768309024
  0.2503935578912248  0.7487989021729552  0.7504818046232794
  0.8745225060079318  0.8747212766890591  0.3745790543034758
  0.2503652705317723  0.5011071303055190  0.7504466555129996
  0.7501342300626936  0.5000608744578513  0.4995936089954466
  0.7500460694321677  0.4997189703118795  0.7498701988704388
  0.6250090646082316  0.1249765341234857  0.6250000253470135
 -0.0001687846698063  0.2502413068955261  0.7498288500477083
 -0.0003182544031565  0.7502244681673903  0.4995977184168867
  0.4992560190755384  0.5006561314226903  0.7499015591320404
  0.7499075463095843  0.7502130369288675 -0.0006405265018614
  0.0004426449399341  0.7497267218610350  0.7505240904857852
  0.7500973749527726  0.2503661977687373  0.2500780285265181
  0.3747705137336101  0.3742125104205067  0.6250680532524058
  0.6247156085824287  0.3750747528262146  0.1246984448142187
  0.5002709701763576 -0.0005440946666435  0.0003967599568759
  0.4998651939451240  0.4991394576036022  0.2504087416580474
  0.1255499819559777  0.8743366220219312  0.6251019124837806
  0.2490967272875726  0.7497013601333740  0.2506251746897638
  0.4997962214047339  0.7498720620190218 -0.0013816340490105
  0.3760457582141802  0.1250744572534502  0.1248955204517059
  0.5001845448311742  0.2500093969427569  0.4999549576490429
 -0.0000422382535615  0.2504390283939092  0.4998251702624268
  0.0004559072386045  0.2483302768457622  0.2494312854468276
  0.3749053468219377  0.1250087588104576  0.6249817328946097
  0.2510218654058508  0.7492098488677089  0.4996208640284022
  0.8737333325148148  0.6250288623742770  0.8749649628746539
  0.4993848372350465  0.7492736573497529  0.5011294341145304
  0.1254321721380149  0.8735695341152601  0.1244802181002910
 -0.0001954697980813 -0.0003753523630447  0.4998933745000793
  0.8746472806930158  0.8745912806652184  0.1251490315997000
 
  0.00000000E+00  0.00000000E+00  0.00000000E+00
  0.00000000E+00  0.00000000E+00  0.00000000E+00
  0.00000000E+00  0.00000000E+00  0.00000000E+00
  0.00000000E+00  0.00000000E+00  0.00000000E+00
  0.00000000E+00  0.00000000E+00  0.00000000E+00
  0.00000000E+00  0.00000000E+00  0.00000000E+00
  0.00000000E+00  0.00000000E+00  0.00000000E+00
  0.00000000E+00  0.00000000E+00  0.00000000E+00
  0.00000000E+00  0.00000000E+00  0.00000000E+00
  0.00000000E+00  0.00000000E+00  0.00000000E+00
  0.00000000E+00  0.00000000E+00  0.00000000E+00
  0.00000000E+00  0.00000000E+00  0.00000000E+00
  0.00000000E+00  0.00000000E+00  0.00000000E+00
  0.00000000E+00  0.00000000E+00  0.00000000E+00
  0.00000000E+00  0.00000000E+00  0.00000000E+00
  0.00000000E+00  0.00000000E+00  0.00000000E+00
  0.00000000E+00  0.00000000E+00  0.00000000E+00
  0.00000000E+00  0.00000000E+00  0.00000000E+00
  0.00000000E+00  0.00000000E+00  0.00000000E+00
  0.00000000E+00  0.00000000E+00  0.00000000E+00
  0.00000000E+00  0.00000000E+00  0.00000000E+00
  0.00000000E+00  0.00000000E+00  0.00000000E+00
  0.00000000E+00  0.00000000E+00  0.00000000E+00
  0.00000000E+00  0.00000000E+00  0.00000000E+00
  0.00000000E+00  0.00000000E+00  0.00000000E+00
  0.00000000E+00  0.00000000E+00  0.00000000E+00
  0.00000000E+00  0.00000000E+00  0.00000000E+00
  0.00000000E+00  0.00000000E+00  0.00000000E+00
  0.00000000E+00  0.00000000E+00  0.00000000E+00
  0.00000000E+00  0.00000000E+00  0.00000000E+00
  0.00000000E+00  0.00000000E+00  0.00000000E+00
  0.00000000E+00  0.00000000E+00  0.00000000E+00
  0.00000000E+00  0.00000000E+00  0.00000000E+00
  0.00000000E+00  0.00000000E+00  0.00000000E+00
  0.00000000E+00  0.00000000E+00  0.00000000E+00
  0.00000000E+00  0.00000000E+00  0.00000000E+00
  0.00000000E+00  0.00000000E+00  0.00000000E+00
  0.00000000E+00  0.00000000E+00  0.00000000E+00
  0.00000000E+00  0.00000000E+00  0.00000000E+00
  0.00000000E+00  0.00000000E+00  0.00000000E+00
  0.00000000E+00  0.00000000E+00  0.00000000E+00
  0.00000000E+00  0.00000000E+00  0.00000000E+00
  0.00000000E+00  0.00000000E+00  0.00000000E+00
  0.00000000E+00  0.00000000E+00  0.00000000E+00
  0.00000000E+00  0.00000000E+00  0.00000000E+00
  0.00000000E+00  0.00000000E+00  0.00000000E+00
  0.00000000E+00  0.00000000E+00  0.00000000E+00
  0.00000000E+00  0.00000000E+00  0.00000000E+00
  0.00000000E+00  0.00000000E+00  0.00000000E+00
  0.00000000E+00  0.00000000E+00  0.00000000E+00
  0.00000000E+00  0.00000000E+00  0.00000000E+00
  0.00000000E+00  0.00000000E+00  0.00000000E+00
  0.00000000E+00  0.00000000E+00  0.00000000E+00
  0.00000000E+00  0.00000000E+00  0.00000000E+00
  0.00000000E+00  0.00000000E+00  0.00000000E+00
  0.00000000E+00  0.00000000E+00  0.00000000E+00
  0.00000000E+00  0.00000000E+00  0.00000000E+00
  0.00000000E+00  0.00000000E+00  0.00000000E+00
  0.00000000E+00  0.00000000E+00  0.00000000E+00
  0.00000000E+00  0.00000000E+00  0.00000000E+00
  0.00000000E+00  0.00000000E+00  0.00000000E+00
  0.00000000E+00  0.00000000E+00  0.00000000E+00
  0.00000000E+00  0.00000000E+00  0.00000000E+00
  0.00000000E+00  0.00000000E+00  0.00000000E+00
  0.00000000E+00  0.00000000E+00  0.00000000E+00
  0.00000000E+00  0.00000000E+00  0.00000000E+00
  0.00000000E+00  0.00000000E+00  0.00000000E+00
  0.00000000E+00  0.00000000E+00  0.00000000E+00
  0.00000000E+00  0.00000000E+00  0.00000000E+00
  0.00000000E+00  0.00000000E+00  0.00000000E+00
  0.00000000E+00  0.00000000E+00  0.00000000E+00
  0.00000000E+00  0.00000000E+00  0.00000000E+00
  0.00000000E+00  0.00000000E+00  0.00000000E+00
  0.00000000E+00  0.00000000E+00  0.00000000E+00
  0.00000000E+00  0.00000000E+00  0.00000000E+00
  0.00000000E+00  0.00000000E+00  0.00000000E+00
  0.00000000E+00  0.00000000E+00  0.00000000E+00
  0.00000000E+00  0.00000000E+00  0.00000000E+00
  0.00000000E+00  0.00000000E+00  0.00000000E+00
  0.00000000E+00  0.00000000E+00  0.00000000E+00
  0.00000000E+00  0.00000000E+00  0.00000000E+00
  0.00000000E+00  0.00000000E+00  0.00000000E+00
  0.00000000E+00  0.00000000E+00  0.00000000E+00
  0.00000000E+00  0.00000000E+00  0.00000000E+00
  0.00000000E+00  0.00000000E+00  0.00000000E+00
  0.00000000E+00  0.00000000E+00  0.00000000E+00
  0.00000000E+00  0.00000000E+00  0.00000000E+00
  0.00000000E+00  0.00000000E+00  0.00000000E+00
  0.00000000E+00  0.00000000E+00  0.00000000E+00
  0.00000000E+00  0.00000000E+00  0.00000000E+00
  0.00000000E+00  0.00000000E+00  0.00000000E+00
  0.00000000E+00  0.00000000E+00  0.00000000E+00
  0.00000000E+00  0.00000000E+00  0.00000000E+00
  0.00000000E+00  0.00000000E+00  0.00000000E+00
  0.00000000E+00  0.00000000E+00  0.00000000E+00
  0.00000000E+00  0.00000000E+00  0.00000000E+00
  0.00000000E+00  0.00000000E+00  0.00000000E+00
  0.00000000E+00  0.00000000E+00  0.00000000E+00
  0.00000000E+00  0.00000000E+00  0.00000000E+00
  0.00000000E+00  0.00000000E+00  0.00000000E+00
  0.00000000E+00  0.00000000E+00  0.00000000E+00
  0.00000000E+00  0.00000000E+00  0.00000000E+00
  0.00000000E+00  0.00000000E+00  0.00000000E+00
  0.00000000E+00  0.00000000E+00  0.00000000E+00
  0.00000000E+00  0.00000000E+00  0.00000000E+00
  0.00000000E+00  0.00000000E+00  0.00000000E+00
  0.00000000E+00  0.00000000E+00  0.00000000E+00
  0.00000000E+00  0.00000000E+00  0.00000000E+00
  0.00000000E+00  0.00000000E+00  0.00000000E+00
  0.00000000E+00  0.00000000E+00  0.00000000E+00
  0.00000000E+00  0.00000000E+00  0.00000000E+00
  0.00000000E+00  0.00000000E+00  0.00000000E+00
  0.00000000E+00  0.00000000E+00  0.00000000E+00
  0.00000000E+00  0.00000000E+00  0.00000000E+00
  0.00000000E+00  0.00000000E+00  0.00000000E+00
  0.00000000E+00  0.00000000E+00  0.00000000E+00
  0.00000000E+00  0.00000000E+00  0.00000000E+00
  0.00000000E+00  0.00000000E+00  0.00000000E+00
  0.00000000E+00  0.00000000E+00  0.00000000E+00
  0.00000000E+00  0.00000000E+00  0.00000000E+00
  0.00000000E+00  0.00000000E+00  0.00000000E+00
  0.00000000E+00  0.00000000E+00  0.00000000E+00
  0.00000000E+00  0.00000000E+00  0.00000000E+00
  0.00000000E+00  0.00000000E+00  0.00000000E+00
  0.00000000E+00  0.00000000E+00  0.00000000E+00
  0.00000000E+00  0.00000000E+00  0.00000000E+00
  0.00000000E+00  0.00000000E+00  0.00000000E+00
  0.00000000E+00  0.00000000E+00  0.00000000E+00
