Nb Ta                                   
    1.000000000000000     
    13.2567161544475258    0.0004517128130923   -0.0002305749408465
     0.0004515785688707   13.2567631328876647   -0.0001752499173853
    -0.0002304667528666   -0.0001753561049930   13.2587381045959738
   Nb   Ta
    64    64
Direct
 -0.0002458922196262  0.7515315089896922  0.7486954604274629
  0.2494474259238945  0.7483745768925663  0.0017746773495788
  0.2500500685059926  0.4988960624027637  0.7514359919061202
  0.4995795692664281  0.7497189249099884  0.7489573077579468
  0.7495423969562476  0.2486670807492956  0.4997378108350340
  0.1261136490878924  0.6271000664861072  0.8727921980281975
  0.1259726221505619  0.8734200477018667  0.6253600031846495
  0.6259797136592219  0.1249142033711621  0.1256195270785546
  0.2494607415001164  0.2516889461802615 -0.0016583829947751
  0.2496348322852103  0.0003032345612220  0.0004443099089410
  0.0013588274493147 -0.0006808058768538  0.2512671692930106
  0.1248869091414978  0.3765026813753765  0.8762665802775118
  0.7500127256348919  0.2506758499242292  0.7495861667295922
  0.1255951267134831  0.1228308766015113  0.8756071127823598
  0.6255729968042113  0.6243979434962366  0.3765452137446714
 -0.0013940045286666  0.5019580529165998  0.2514952829823737
  0.6228637697018273  0.8740930573529490  0.8734533843907161
 -0.0006516665322396  0.0019096417059892 -0.0012957192364370
  0.0003543678166705  0.5000351577169875 -0.0008998153528530
  0.7489298955010518  0.2500908131133784  0.0010791194468130
 -0.0010500852732305  0.7488106279311261  0.0013032527896408
  0.6269655130765404  0.3754935370572918  0.6244686735628620
  0.6221068325023162  0.6250182538331759  0.1231166794095545
  0.2496995554907802  0.2493009168406495  0.2494266873595927
  0.2508625362028190  0.7502383945724227  0.4998885497054463
  0.8739457975369701  0.8734898182925465  0.6255673800954470
  0.8766994961610246  0.6249769211602463  0.1240023415521464
  0.1257011303165606  0.3753766927103623  0.3726407148198663
  0.8746613662263351  0.8754992288690534  0.3721496292414493
  0.3748508724867536  0.8746105656030492  0.1228905440518115
  0.8758016261925252  0.6234089644024345  0.3765690337797667
  0.7484542789101717 -0.0006094586953508  0.2499481824839388
  0.5016373574868829  0.7511695706366450  0.0015416143612510
  0.2501351670443226  0.5011958034053997  0.2487112675708592
  0.1226152360578939  0.8752368983299781  0.1239136726175686
 -0.0002687140174171  0.4987239967028759  0.7495060887342385
  0.5014829775428717  0.5010545322006238  0.2513383657944108
  0.3726417449916227  0.6235972352818878  0.3734384264449059
  0.7492254095326606  0.5000369060517733  0.4996842682818124
  0.6262715195512742  0.3749477370648139  0.1256217041319494
  0.6266194000710295  0.8749585044708271  0.1264970783736110
  0.3731230661659006  0.3752400484207601  0.1260804732636374
  0.5004240533572645  0.4996990439202933  0.7471319775454697
  0.5002687966769082  0.0007002432614356  0.4990200410893387
  0.4998701407976487  0.4972894518123552  0.0009243134510958
  0.1247990798286214  0.1260249823384029  0.1268651523823426
  0.7494985949180472  0.2501266696968317  0.2491374920888369
  0.8751563475129481  0.1265988694219189  0.3735270074497328
  0.7509194455915674  0.7511464816370966  0.7528709036241508
  0.1244524332691390  0.3763336108864170  0.6247580306440580
  0.1258192515453431  0.6236184436446441  0.1262406924945208
  0.5003663138449189 -0.0004941887780215  0.7508775617961383
  0.3742441076117352  0.3746321751830390  0.6255517574603294
  0.5023225476078355  0.0009642708745322  0.0017410577498788
  0.2507405049205549  0.4992309413934641  0.5007064074492681
  0.5001209480732483  0.2489147957118257  0.2489197489180424
  0.4980307662511460  0.2508679688548286  0.7486264237166034
  0.2503572522216763  0.2505175172552691  0.5014065267325236
 -0.0000165507688037  0.2494213054027533  0.2510037640089888
  0.2501309777967241  0.7503573895463460  0.7499934346525874
  0.7509458066339233  0.7510850493205432  0.4979327007649500
  0.8775685616424456  0.8753184349209984  0.8770235294633242
  0.3738109606242838  0.6258744900435174  0.6273107338617473
  0.8754989171411139  0.6242913207296197  0.8735994725078597
  0.2481880262013857  0.0013490378032151  0.7492290715799099
  0.6246583124444557  0.8765546525168161  0.3764799718779748
  0.4999262119026790  0.2507483941942801  0.0013725278274803
  0.4993492083696988  0.7460858852639212  0.4980777416119466
  0.3758265763544762  0.3737341160339252  0.3733516586814934
  0.2503108140036306  0.7519392541085370  0.2484558868394845
  0.4999038083464499  0.7510266149868389  0.2518202563221267
 -0.0000330083123578  0.7494885429120619  0.2511051547206357
  0.7496865914200418  0.5024596492342162  0.2472385368502401
  0.4998976789734976  0.2522265193522036  0.5011204980981857
  0.6249016777315124  0.1232335386238169  0.6254309356941439
  0.1262689456531477  0.1243830007589642  0.3759423923325010
  0.8771602288912087  0.3734921685309194  0.1250095155871081
  0.1262681101481502  0.6261145982845403  0.3766476159227422
  0.8746233008935601  0.6238143977092400  0.6252074507318894
  0.8728687644670032  0.3748425424201430  0.3740929681914844
  0.1258891237554993  0.8745480115600395  0.3750813708950319
  0.3750186717211861  0.1261564895646422  0.3750518094491198
  0.2494889401230148  0.4999585246148234 -0.0008607254869345
  0.1226130520947778  0.3755941243400088  0.1262349341534081
  0.7517584336878160 -0.0018394049728097  0.7506587993695154
  0.6238597775287129  0.8739194152473468  0.6233931176108604
  0.1262775436319788  0.8738108446938834  0.8761422008626426
  0.2488823568713944 -0.0003148647551714  0.5009906802469632
  0.6245937871781112  0.1267707400155487  0.8728442937910730
  0.8735394819155592  0.3735698762523550  0.8759350580691856
  0.6220261519747944  0.6241623536405887  0.8736522193705017
  0.3764374422485101  0.3754443464644429  0.8748331690592678
  0.3758179915263268  0.1235222986252421  0.6252427223807124
  0.1240373988127112  0.6252125463061604  0.6242137654888660
  0.8743528026963309  0.3751802200423673  0.6247971687538143
  0.0000716942949616  0.0006629313284156  0.7488181769396016
  0.3733876837269328  0.8746404491736787  0.8745386770350945
  0.0029513429183242  0.2496391115688433  0.7509003350379178
  0.7529896427010373  0.0002250574067174  0.5011575930499895
  0.3755417409899501  0.6247885398517701  0.1234438421462208
 -0.0013940705580870 -0.0006702575651448  0.5015430938265139
  0.6236200617696820  0.1248182906603030  0.3760778513229919
  0.0011646586699905  0.2492608881366899 -0.0016128130714109
  0.8749142655689284  0.1276395957821862  0.6266896579291080
  0.4997731295989420  0.5003976449865019  0.5006734900439378
  0.8755763961777430  0.8774086180447979  0.1253324830923165
  0.1246840222241733  0.1254571174832373  0.6228155620899110
  0.7499045761750358  0.7498612444786357  0.0006645648598139
  0.3737459546585527  0.1256814105751161  0.1240841281814883
  0.8747331264966081  0.1239731286983706  0.1240926271468039
  0.6279565924611279  0.6273656640271448  0.6263847578346148
  0.8728831823433034  0.1266780175594285  0.8753259850176546
  0.6256018256349002  0.3737086346258223  0.3744016625082890
  0.4983039785005098 -0.0011188673658647  0.2489258957570549
 -0.0008835870615858  0.7507956544803440  0.4990007861353394
  0.0004678821238187  0.2515927104587402  0.5002407847134012
  0.7497533766784344  0.7475537678867772  0.2482052159165629
  0.3769391870242760  0.8757010674092538  0.6255497987329968
  0.2483455778057487  0.2488541802113142  0.7511105594978699
  0.2514980059284533 -0.0019378377996643  0.2497405465451900
  0.7485091663879153 -0.0020174109611491 -0.0024502037964160
  0.3770091768582706  0.6254112057733158  0.8764104495673347
  0.3765753023083210  0.1242617462068493  0.8759130046415592
  0.3750874534244980  0.8758101948441641  0.3770344378972509
  0.7502547636184054  0.5018277160468479  0.0002632360034818
  0.7498943928115447  0.5001768354371114  0.7519230948010145
  0.6246087652602047  0.3750137742544852  0.8748731795106919
  0.0005571130509376  0.4986278591298252  0.4993980153854150
 
  0.00000000E+00  0.00000000E+00  0.00000000E+00
  0.00000000E+00  0.00000000E+00  0.00000000E+00
  0.00000000E+00  0.00000000E+00  0.00000000E+00
  0.00000000E+00  0.00000000E+00  0.00000000E+00
  0.00000000E+00  0.00000000E+00  0.00000000E+00
  0.00000000E+00  0.00000000E+00  0.00000000E+00
  0.00000000E+00  0.00000000E+00  0.00000000E+00
  0.00000000E+00  0.00000000E+00  0.00000000E+00
  0.00000000E+00  0.00000000E+00  0.00000000E+00
  0.00000000E+00  0.00000000E+00  0.00000000E+00
  0.00000000E+00  0.00000000E+00  0.00000000E+00
  0.00000000E+00  0.00000000E+00  0.00000000E+00
  0.00000000E+00  0.00000000E+00  0.00000000E+00
  0.00000000E+00  0.00000000E+00  0.00000000E+00
  0.00000000E+00  0.00000000E+00  0.00000000E+00
  0.00000000E+00  0.00000000E+00  0.00000000E+00
  0.00000000E+00  0.00000000E+00  0.00000000E+00
  0.00000000E+00  0.00000000E+00  0.00000000E+00
  0.00000000E+00  0.00000000E+00  0.00000000E+00
  0.00000000E+00  0.00000000E+00  0.00000000E+00
  0.00000000E+00  0.00000000E+00  0.00000000E+00
  0.00000000E+00  0.00000000E+00  0.00000000E+00
  0.00000000E+00  0.00000000E+00  0.00000000E+00
  0.00000000E+00  0.00000000E+00  0.00000000E+00
  0.00000000E+00  0.00000000E+00  0.00000000E+00
  0.00000000E+00  0.00000000E+00  0.00000000E+00
  0.00000000E+00  0.00000000E+00  0.00000000E+00
  0.00000000E+00  0.00000000E+00  0.00000000E+00
  0.00000000E+00  0.00000000E+00  0.00000000E+00
  0.00000000E+00  0.00000000E+00  0.00000000E+00
  0.00000000E+00  0.00000000E+00  0.00000000E+00
  0.00000000E+00  0.00000000E+00  0.00000000E+00
  0.00000000E+00  0.00000000E+00  0.00000000E+00
  0.00000000E+00  0.00000000E+00  0.00000000E+00
  0.00000000E+00  0.00000000E+00  0.00000000E+00
  0.00000000E+00  0.00000000E+00  0.00000000E+00
  0.00000000E+00  0.00000000E+00  0.00000000E+00
  0.00000000E+00  0.00000000E+00  0.00000000E+00
  0.00000000E+00  0.00000000E+00  0.00000000E+00
  0.00000000E+00  0.00000000E+00  0.00000000E+00
  0.00000000E+00  0.00000000E+00  0.00000000E+00
  0.00000000E+00  0.00000000E+00  0.00000000E+00
  0.00000000E+00  0.00000000E+00  0.00000000E+00
  0.00000000E+00  0.00000000E+00  0.00000000E+00
  0.00000000E+00  0.00000000E+00  0.00000000E+00
  0.00000000E+00  0.00000000E+00  0.00000000E+00
  0.00000000E+00  0.00000000E+00  0.00000000E+00
  0.00000000E+00  0.00000000E+00  0.00000000E+00
  0.00000000E+00  0.00000000E+00  0.00000000E+00
  0.00000000E+00  0.00000000E+00  0.00000000E+00
  0.00000000E+00  0.00000000E+00  0.00000000E+00
  0.00000000E+00  0.00000000E+00  0.00000000E+00
  0.00000000E+00  0.00000000E+00  0.00000000E+00
  0.00000000E+00  0.00000000E+00  0.00000000E+00
  0.00000000E+00  0.00000000E+00  0.00000000E+00
  0.00000000E+00  0.00000000E+00  0.00000000E+00
  0.00000000E+00  0.00000000E+00  0.00000000E+00
  0.00000000E+00  0.00000000E+00  0.00000000E+00
  0.00000000E+00  0.00000000E+00  0.00000000E+00
  0.00000000E+00  0.00000000E+00  0.00000000E+00
  0.00000000E+00  0.00000000E+00  0.00000000E+00
  0.00000000E+00  0.00000000E+00  0.00000000E+00
  0.00000000E+00  0.00000000E+00  0.00000000E+00
  0.00000000E+00  0.00000000E+00  0.00000000E+00
  0.00000000E+00  0.00000000E+00  0.00000000E+00
  0.00000000E+00  0.00000000E+00  0.00000000E+00
  0.00000000E+00  0.00000000E+00  0.00000000E+00
  0.00000000E+00  0.00000000E+00  0.00000000E+00
  0.00000000E+00  0.00000000E+00  0.00000000E+00
  0.00000000E+00  0.00000000E+00  0.00000000E+00
  0.00000000E+00  0.00000000E+00  0.00000000E+00
  0.00000000E+00  0.00000000E+00  0.00000000E+00
  0.00000000E+00  0.00000000E+00  0.00000000E+00
  0.00000000E+00  0.00000000E+00  0.00000000E+00
  0.00000000E+00  0.00000000E+00  0.00000000E+00
  0.00000000E+00  0.00000000E+00  0.00000000E+00
  0.00000000E+00  0.00000000E+00  0.00000000E+00
  0.00000000E+00  0.00000000E+00  0.00000000E+00
  0.00000000E+00  0.00000000E+00  0.00000000E+00
  0.00000000E+00  0.00000000E+00  0.00000000E+00
  0.00000000E+00  0.00000000E+00  0.00000000E+00
  0.00000000E+00  0.00000000E+00  0.00000000E+00
  0.00000000E+00  0.00000000E+00  0.00000000E+00
  0.00000000E+00  0.00000000E+00  0.00000000E+00
  0.00000000E+00  0.00000000E+00  0.00000000E+00
  0.00000000E+00  0.00000000E+00  0.00000000E+00
  0.00000000E+00  0.00000000E+00  0.00000000E+00
  0.00000000E+00  0.00000000E+00  0.00000000E+00
  0.00000000E+00  0.00000000E+00  0.00000000E+00
  0.00000000E+00  0.00000000E+00  0.00000000E+00
  0.00000000E+00  0.00000000E+00  0.00000000E+00
  0.00000000E+00  0.00000000E+00  0.00000000E+00
  0.00000000E+00  0.00000000E+00  0.00000000E+00
  0.00000000E+00  0.00000000E+00  0.00000000E+00
  0.00000000E+00  0.00000000E+00  0.00000000E+00
  0.00000000E+00  0.00000000E+00  0.00000000E+00
  0.00000000E+00  0.00000000E+00  0.00000000E+00
  0.00000000E+00  0.00000000E+00  0.00000000E+00
  0.00000000E+00  0.00000000E+00  0.00000000E+00
  0.00000000E+00  0.00000000E+00  0.00000000E+00
  0.00000000E+00  0.00000000E+00  0.00000000E+00
  0.00000000E+00  0.00000000E+00  0.00000000E+00
  0.00000000E+00  0.00000000E+00  0.00000000E+00
  0.00000000E+00  0.00000000E+00  0.00000000E+00
  0.00000000E+00  0.00000000E+00  0.00000000E+00
  0.00000000E+00  0.00000000E+00  0.00000000E+00
  0.00000000E+00  0.00000000E+00  0.00000000E+00
  0.00000000E+00  0.00000000E+00  0.00000000E+00
  0.00000000E+00  0.00000000E+00  0.00000000E+00
  0.00000000E+00  0.00000000E+00  0.00000000E+00
  0.00000000E+00  0.00000000E+00  0.00000000E+00
  0.00000000E+00  0.00000000E+00  0.00000000E+00
  0.00000000E+00  0.00000000E+00  0.00000000E+00
  0.00000000E+00  0.00000000E+00  0.00000000E+00
  0.00000000E+00  0.00000000E+00  0.00000000E+00
  0.00000000E+00  0.00000000E+00  0.00000000E+00
  0.00000000E+00  0.00000000E+00  0.00000000E+00
  0.00000000E+00  0.00000000E+00  0.00000000E+00
  0.00000000E+00  0.00000000E+00  0.00000000E+00
  0.00000000E+00  0.00000000E+00  0.00000000E+00
  0.00000000E+00  0.00000000E+00  0.00000000E+00
  0.00000000E+00  0.00000000E+00  0.00000000E+00
  0.00000000E+00  0.00000000E+00  0.00000000E+00
  0.00000000E+00  0.00000000E+00  0.00000000E+00
  0.00000000E+00  0.00000000E+00  0.00000000E+00
  0.00000000E+00  0.00000000E+00  0.00000000E+00
  0.00000000E+00  0.00000000E+00  0.00000000E+00
  0.00000000E+00  0.00000000E+00  0.00000000E+00
