Nb Ti                                   
    1.000000000000000     
    11.2789665054116757    1.0571401287356588   -0.0921922810991508
    -4.7399331418754747   10.3421756426883498   -0.0870855481376954
     0.1451329815846720    0.1602409206879117   18.6363995457245402
  Nb              Ti            
    88    40
Direct
     0.8106782891191544    0.1886843607659655    0.0657091506763374
     0.5641662508985580    0.9409474924432224    0.3142973572966776
     0.9389933873277408    0.0670845291560962    0.4357855573655438
     0.0642063138771097    0.1843799008450396    0.0615970449480915
     0.8138986263093045    0.6867924644793786    0.3142827176173535
     0.5600878650624200    0.4326566001100501    0.5634283381153158
     0.6892926751357583    0.0639307040406722    0.9381700523558419
     0.1893558334519182    0.3111517993356263    0.6881443302508187
     0.3058486769759009    0.1882404800257137    0.3158216843489807
     0.6831826890507131    0.8071022551363007    0.1863834086427217
     0.3109476224205908    0.4432634126865560    0.0595467863710034
     0.1849068246880197    0.5618388930918889    0.9374579467032961
     0.6851800201583911    0.8125227650956284    0.6889011973009240
     0.1905040546766940    0.3171789095918104    0.9350810211657172
     0.3141682952987971    0.9344075289629115    0.5616484952590041
     0.0622843109504197    0.9353558322327267    0.0617830793133740
     0.9359638226689281    0.5642916885032261    0.1881884145375694
     0.6863003913885141    0.3049383679369885    0.4371748499069769
     0.3094302717813263    0.6912490490017674    0.0606280033559098
     0.0635545320737048    0.4371097629302086    0.0637144023607651
     0.8136109710375276    0.4360081132119834    0.3153923384933671
     0.3126233255570068    0.4383477972467588    0.8125281768281902
     0.0606343223836411    0.6902786455367711    0.0633385891562350
     0.9387913676481026    0.5666722378476794    0.9380956028120023
     0.5567977887065113    0.6885878244488767    0.0630205109175488
     0.5675199570508094    0.4429796893458200    0.3103576044518246
     0.9392723400189200    0.0692493116136558    0.1896506046677880
     0.0582423921395201    0.6838160120061920    0.5593237040917324
     0.3191051611876690    0.9404267490515219    0.3111855520773690
     0.4338882878961218    0.8163971609155498    0.9353350351389309
     0.8112963551320111    0.6855790581933354    0.5630477476394697
     0.0694459585301494    0.4352330748770638    0.5609065433942590
     0.1903050875562643    0.8159287737195466    0.4365513405196852
     0.8145407039592176    0.4367344843505777    0.0628134252187616
     0.0589191142852591    0.6842948557696246    0.8129655045346421
     0.5658628563594434    0.1900425831722859    0.5635306013646570
     0.5634506463313814    0.9368423922857977    0.0602389768257030
     0.0632921100845897    0.6869012125726623    0.3142091097182579
     0.5626366692418849    0.1862682943690381    0.0626641705380772
     0.3121218870792288    0.6858418010872639    0.3073241236584331
     0.0593330449534300    0.1848565270363921    0.8149269621056870
     0.3176642422558528    0.4422420926996318    0.5608542349616348
     0.1872817889044182    0.0601480417952304    0.4360022042158658
     0.9340520439320236    0.0631587272333287    0.9368523149283150
     0.8152906630356859    0.9385998526091842    0.0635244136575812
     0.5605609526848133    0.9416508990554737    0.5606081395780064
     0.8134268487352643    0.6909237928655123    0.8139164196500004
     0.6902406855938412    0.0599939182513113    0.6867373679488270
     0.6881752439225615    0.0599240624412956    0.1901446122572477
     0.4380920912110804    0.5594357045779733    0.4361387032554234
     0.8120025905952558    0.1845455336578036    0.5627992025717194
     0.0670291260926558    0.9341269411928882    0.3115132571916017
     0.9398784584277422    0.0622588834214723    0.6897214469222657
     0.5648678416391878    0.6886662254499841    0.8081890591547964
     0.3156566431009389    0.4369035658355070    0.3140178213900475
     0.0626311681583101    0.4329857579725049    0.3114228520199960
     0.9358052374500636    0.3128873340891099    0.9379244922291099
     0.6930451470201487    0.5672379173947603    0.1884907038242490
     0.3080818248797328    0.9406493205933409    0.0602441698935018
     0.6899734731187156    0.5559625339439548    0.9357923353666909
     0.1871169425941812    0.5603342386914211    0.6876648948495544
     0.3085844616889271    0.6831164616083685    0.8140086277758827
     0.9448107980634765    0.5661882013655029    0.6886043245557333
     0.6881654201169745    0.8122767888406142    0.4382106254659507
     0.0690607040800246    0.9398560255920189    0.5642310777302305
     0.5640316136534752    0.6920323305393146    0.3135637373185922
     0.4348763833592243    0.0599965215111598    0.9347393121256246
     0.9341478393498905    0.5640259413881905    0.4376028869438549
     0.4357822176212704    0.5629399111004668    0.6864264322778008
     0.1874052800670865    0.0637052633254934    0.6873465836182782
     0.9368962778579051    0.8189100622522835    0.9357564556821648
     0.3066936339148403    0.6881773392959990    0.5646177531941641
     0.6855491836909748    0.3113109899198384    0.9387141498468341
     0.9390655948183206    0.3134999732834363    0.1878316433834320
     0.6927774347813103    0.0595723633198483    0.4380174538417664
     0.4383583031640544    0.8142935495110608    0.1857205335690237
     0.5585411037236320    0.1860952478787659    0.8138593984740794
     0.9293974207836849    0.8118099423348271    0.6878543640080247
     0.4371484711350166    0.0589173117282635    0.1845182789843583
     0.5550698187442438    0.4346299611455412    0.8143009455083937
     0.1848987525761530    0.5613106247712335    0.1857468447518101
     0.0616595238031174    0.1830168465820610    0.3115497219530218
     0.0554787005327955    0.1858471656681074    0.5632962955302976
     0.4401083863664953    0.3144615623093532    0.6879017235947695
     0.6853002630542007    0.5598357587922674    0.4418231561584764
     0.6876199622572796    0.3065246535227205    0.6902046608416409
     0.4340303399523959    0.0644656233640447    0.6859871871697558
     0.4339210951289093    0.3080723404544872    0.9385801255274064
     0.1930946927281919    0.3156632422183895    0.1861429547534363
     0.6908251427438723    0.3152931441168809    0.1896225581314205
     0.3104027103770688    0.1868646096972865    0.5599778036913640
     0.8079067976273822    0.4405385918067469    0.8128512648099665
     0.9366517915554033    0.3130986581452349    0.6853888519361262
     0.8126182519464901    0.9335037205509743    0.5627839880936614
     0.1883699982879894    0.8140408173206558    0.1891341588964871
     0.9352745006741936    0.8188875753317664    0.1877612208355608
     0.5540294813511818    0.1903916818555676    0.3104289027402863
     0.4369655302759481    0.3004510628086556    0.1943515692452885
     0.8163860324107179    0.4344215160332373    0.5657124504070425
     0.3225035860394600    0.9333595853370183    0.8090442120892557
     0.1880249355425954    0.0648657420375924    0.1869074339624938
     0.8117570851086637    0.1885150713045788    0.3137459634420676
     0.6812242782617295    0.8062403635674541    0.9378403490764535
     0.8088125456786176    0.1870640506245065    0.8118745206689679
     0.4366666744711848    0.8159150652389201    0.6885175561110223
     0.4379326449592540    0.5583515964944710    0.1877843609759057
     0.1880801129382875    0.5641547255504251    0.4349627486414917
     0.4416559058582023    0.3132634941564629    0.4344294682559839
     0.5602675510497773    0.6909144820564445    0.5614739025534069
     0.4341765785309869    0.8036957490664351    0.4370412852942450
     0.5739902820525707    0.9418756320410248    0.8140035477550402
     0.4424233999705426    0.0608675104027843    0.4384844473675091
     0.1844402303682783    0.0681453929859577    0.9394033861024744
     0.1881737118399238    0.3092790733141483    0.4393851346401828
     0.3191042730458556    0.1975867452312222    0.0653206099186533
     0.1808768605313860    0.8118819769643860    0.6862392211167571
     0.1839157290491703    0.8149094587119229    0.9337070590016037
     0.9378178862026024    0.8171435166380739    0.4386265603011973
     0.9388813848355921    0.3186115298764319    0.4387490636906684
     0.6896793812632255    0.5583080807327331    0.6894242985643170
     0.8143934889359182    0.9339796759279347    0.3112995100174371
     0.8179513438448038    0.9371246042494829    0.8140521849609772
     0.3092757684360705    0.1847918845657874    0.8108716285674977
     0.0696429550368447    0.9362508076861198    0.8104220009822154
     0.5610075255091959    0.4386668610727609    0.0655007167315121
     0.4435452152113404    0.5680786389066477    0.9356160734533556
     0.0604526461658731    0.4360907366699583    0.8120569063067626
     0.8059088391929081    0.6849766764959924    0.0603371181672808
 
  0.00000000E+00  0.00000000E+00  0.00000000E+00
  0.00000000E+00  0.00000000E+00  0.00000000E+00
  0.00000000E+00  0.00000000E+00  0.00000000E+00
  0.00000000E+00  0.00000000E+00  0.00000000E+00
  0.00000000E+00  0.00000000E+00  0.00000000E+00
  0.00000000E+00  0.00000000E+00  0.00000000E+00
  0.00000000E+00  0.00000000E+00  0.00000000E+00
  0.00000000E+00  0.00000000E+00  0.00000000E+00
  0.00000000E+00  0.00000000E+00  0.00000000E+00
  0.00000000E+00  0.00000000E+00  0.00000000E+00
  0.00000000E+00  0.00000000E+00  0.00000000E+00
  0.00000000E+00  0.00000000E+00  0.00000000E+00
  0.00000000E+00  0.00000000E+00  0.00000000E+00
  0.00000000E+00  0.00000000E+00  0.00000000E+00
  0.00000000E+00  0.00000000E+00  0.00000000E+00
  0.00000000E+00  0.00000000E+00  0.00000000E+00
  0.00000000E+00  0.00000000E+00  0.00000000E+00
  0.00000000E+00  0.00000000E+00  0.00000000E+00
  0.00000000E+00  0.00000000E+00  0.00000000E+00
  0.00000000E+00  0.00000000E+00  0.00000000E+00
  0.00000000E+00  0.00000000E+00  0.00000000E+00
  0.00000000E+00  0.00000000E+00  0.00000000E+00
  0.00000000E+00  0.00000000E+00  0.00000000E+00
  0.00000000E+00  0.00000000E+00  0.00000000E+00
  0.00000000E+00  0.00000000E+00  0.00000000E+00
  0.00000000E+00  0.00000000E+00  0.00000000E+00
  0.00000000E+00  0.00000000E+00  0.00000000E+00
  0.00000000E+00  0.00000000E+00  0.00000000E+00
  0.00000000E+00  0.00000000E+00  0.00000000E+00
  0.00000000E+00  0.00000000E+00  0.00000000E+00
  0.00000000E+00  0.00000000E+00  0.00000000E+00
  0.00000000E+00  0.00000000E+00  0.00000000E+00
  0.00000000E+00  0.00000000E+00  0.00000000E+00
  0.00000000E+00  0.00000000E+00  0.00000000E+00
  0.00000000E+00  0.00000000E+00  0.00000000E+00
  0.00000000E+00  0.00000000E+00  0.00000000E+00
  0.00000000E+00  0.00000000E+00  0.00000000E+00
  0.00000000E+00  0.00000000E+00  0.00000000E+00
  0.00000000E+00  0.00000000E+00  0.00000000E+00
  0.00000000E+00  0.00000000E+00  0.00000000E+00
  0.00000000E+00  0.00000000E+00  0.00000000E+00
  0.00000000E+00  0.00000000E+00  0.00000000E+00
  0.00000000E+00  0.00000000E+00  0.00000000E+00
  0.00000000E+00  0.00000000E+00  0.00000000E+00
  0.00000000E+00  0.00000000E+00  0.00000000E+00
  0.00000000E+00  0.00000000E+00  0.00000000E+00
  0.00000000E+00  0.00000000E+00  0.00000000E+00
  0.00000000E+00  0.00000000E+00  0.00000000E+00
  0.00000000E+00  0.00000000E+00  0.00000000E+00
  0.00000000E+00  0.00000000E+00  0.00000000E+00
  0.00000000E+00  0.00000000E+00  0.00000000E+00
  0.00000000E+00  0.00000000E+00  0.00000000E+00
  0.00000000E+00  0.00000000E+00  0.00000000E+00
  0.00000000E+00  0.00000000E+00  0.00000000E+00
  0.00000000E+00  0.00000000E+00  0.00000000E+00
  0.00000000E+00  0.00000000E+00  0.00000000E+00
  0.00000000E+00  0.00000000E+00  0.00000000E+00
  0.00000000E+00  0.00000000E+00  0.00000000E+00
  0.00000000E+00  0.00000000E+00  0.00000000E+00
  0.00000000E+00  0.00000000E+00  0.00000000E+00
  0.00000000E+00  0.00000000E+00  0.00000000E+00
  0.00000000E+00  0.00000000E+00  0.00000000E+00
  0.00000000E+00  0.00000000E+00  0.00000000E+00
  0.00000000E+00  0.00000000E+00  0.00000000E+00
  0.00000000E+00  0.00000000E+00  0.00000000E+00
  0.00000000E+00  0.00000000E+00  0.00000000E+00
  0.00000000E+00  0.00000000E+00  0.00000000E+00
  0.00000000E+00  0.00000000E+00  0.00000000E+00
  0.00000000E+00  0.00000000E+00  0.00000000E+00
  0.00000000E+00  0.00000000E+00  0.00000000E+00
  0.00000000E+00  0.00000000E+00  0.00000000E+00
  0.00000000E+00  0.00000000E+00  0.00000000E+00
  0.00000000E+00  0.00000000E+00  0.00000000E+00
  0.00000000E+00  0.00000000E+00  0.00000000E+00
  0.00000000E+00  0.00000000E+00  0.00000000E+00
  0.00000000E+00  0.00000000E+00  0.00000000E+00
  0.00000000E+00  0.00000000E+00  0.00000000E+00
  0.00000000E+00  0.00000000E+00  0.00000000E+00
  0.00000000E+00  0.00000000E+00  0.00000000E+00
  0.00000000E+00  0.00000000E+00  0.00000000E+00
  0.00000000E+00  0.00000000E+00  0.00000000E+00
  0.00000000E+00  0.00000000E+00  0.00000000E+00
  0.00000000E+00  0.00000000E+00  0.00000000E+00
  0.00000000E+00  0.00000000E+00  0.00000000E+00
  0.00000000E+00  0.00000000E+00  0.00000000E+00
  0.00000000E+00  0.00000000E+00  0.00000000E+00
  0.00000000E+00  0.00000000E+00  0.00000000E+00
  0.00000000E+00  0.00000000E+00  0.00000000E+00
  0.00000000E+00  0.00000000E+00  0.00000000E+00
  0.00000000E+00  0.00000000E+00  0.00000000E+00
  0.00000000E+00  0.00000000E+00  0.00000000E+00
  0.00000000E+00  0.00000000E+00  0.00000000E+00
  0.00000000E+00  0.00000000E+00  0.00000000E+00
  0.00000000E+00  0.00000000E+00  0.00000000E+00
  0.00000000E+00  0.00000000E+00  0.00000000E+00
  0.00000000E+00  0.00000000E+00  0.00000000E+00
  0.00000000E+00  0.00000000E+00  0.00000000E+00
  0.00000000E+00  0.00000000E+00  0.00000000E+00
  0.00000000E+00  0.00000000E+00  0.00000000E+00
  0.00000000E+00  0.00000000E+00  0.00000000E+00
  0.00000000E+00  0.00000000E+00  0.00000000E+00
  0.00000000E+00  0.00000000E+00  0.00000000E+00
  0.00000000E+00  0.00000000E+00  0.00000000E+00
  0.00000000E+00  0.00000000E+00  0.00000000E+00
  0.00000000E+00  0.00000000E+00  0.00000000E+00
  0.00000000E+00  0.00000000E+00  0.00000000E+00
  0.00000000E+00  0.00000000E+00  0.00000000E+00
  0.00000000E+00  0.00000000E+00  0.00000000E+00
  0.00000000E+00  0.00000000E+00  0.00000000E+00
  0.00000000E+00  0.00000000E+00  0.00000000E+00
  0.00000000E+00  0.00000000E+00  0.00000000E+00
  0.00000000E+00  0.00000000E+00  0.00000000E+00
  0.00000000E+00  0.00000000E+00  0.00000000E+00
  0.00000000E+00  0.00000000E+00  0.00000000E+00
  0.00000000E+00  0.00000000E+00  0.00000000E+00
  0.00000000E+00  0.00000000E+00  0.00000000E+00
  0.00000000E+00  0.00000000E+00  0.00000000E+00
  0.00000000E+00  0.00000000E+00  0.00000000E+00
  0.00000000E+00  0.00000000E+00  0.00000000E+00
  0.00000000E+00  0.00000000E+00  0.00000000E+00
  0.00000000E+00  0.00000000E+00  0.00000000E+00
  0.00000000E+00  0.00000000E+00  0.00000000E+00
  0.00000000E+00  0.00000000E+00  0.00000000E+00
  0.00000000E+00  0.00000000E+00  0.00000000E+00
  0.00000000E+00  0.00000000E+00  0.00000000E+00
  0.00000000E+00  0.00000000E+00  0.00000000E+00
  0.00000000E+00  0.00000000E+00  0.00000000E+00
  0.00000000E+00  0.00000000E+00  0.00000000E+00
