Hf Nb                                   
    1.000000000000000     
    13.3355763419095972    0.0686118311207548   -0.2545465597858668
    -6.6175816623253372    9.3961177805755902    0.1350057981020053
     0.3864240109238917   -0.0287962183612169   18.9194996820341537
  Hf             Nb           
              20             108
Direct
  0.0602355504318571  0.1224437130630492  0.0622556234458372
  0.3094065749047128  0.8688648448151561  0.0636804354606181
  0.0608833038102670  0.8750438367441351  0.8110004295969985
  0.4341532713976093  0.6237944148456701  0.9337669656921397
  0.8122818811627340  0.3756776970174307  0.5620179896472326
  0.4416178796078424  0.3800099090673418  0.4398650671818360
  0.8124186642244966  0.3716339381501947  0.8093794561051646
  0.6857530361240087  0.3769299531898065  0.9395509950496345
  0.1872845455612018  0.6261117188730023  0.6846948829751791
  0.5702468373392497  0.1322989582499372  0.0618914900409505
  0.1878530250351897  0.6259293211194356  0.1898812950812883
  0.4393078595469707  0.8792628935885687  0.4388134444224299
  0.5595799833144964  0.6228171550535994  0.5627139125195930
  0.8129495297035340  0.3738262061391479  0.3153390628516923
  0.6853886952937677  0.3665220975740919  0.1826680073149937
  0.6909708131948682  0.6301606532851282  0.1922013192508250
  0.8142133201579782  0.1255493955836565  0.0619583437222716
  0.1835492504461212  0.1201399964116582  0.4373717386119476
  0.1917084697456147  0.6257672465284575  0.9371029718498592
  0.5625947694473978  0.6274601309857384  0.0625550023530434
  0.9377765379491034  0.1236768061291741  0.1929286124266909
  0.5622400038258552  0.8726967079437041  0.8110195729517219
  0.3090539345276531  0.1259606962054149  0.0622387385815193
  0.1877895088187650  0.1227668225276277  0.9337192964040384
  0.3168428383445887  0.6259820067264125  0.5591939780957134
  0.1850183845788183  0.3670744792139157  0.1877493461149981
  0.9377116809184746  0.6229808818309752  0.6873539038182338
  0.6859707938163380  0.8729090644173931  0.6859238767509263
  0.5630993751091223  0.6249676144465948  0.8079535228394820
  0.9350692411076529  0.6216938391204822  0.4382141368973597
  0.3095457255670633  0.3740467177915418  0.3118605483451458
  0.0621842716016832  0.8763565048281519  0.5614801033690624
  0.9363399168492867  0.1227424420815057  0.6869209967897346
  0.5665789231306607  0.3786828165174958  0.3114695654056790
  0.0609196936580065  0.1267878984987714  0.3119166261696482
  0.5537216798043035  0.3743595647531234  0.0639592442059602
  0.8283067499584770  0.3912858808120034  0.0613673639769623
  0.5620993724446525  0.3761974386702271  0.8095632554246621
  0.9427843243862142  0.6309093383823278  0.9333163233519342
  0.0549213121975592  0.6237501219949032  0.0627302486537757
  0.5524837256210425  0.8697060064147123  0.0610702724317325
  0.1896579367122404  0.1263073641045218  0.1907921228000619
  0.5582947781019412  0.6225367218209602  0.3170501338131316
  0.9341430272238844  0.8732673781701367  0.4383857436066685
  0.4292990048177390  0.1170998098372092  0.1889109216589514
  0.3023219323209537  0.3661887330413147  0.5641867112846731
  0.6900520926550300  0.1220693540534697  0.9291433246994524
  0.4425248650260873  0.8803765208749891  0.6871386629074510
  0.9395513017153819  0.1240207283946226  0.4375099127627606
  0.6912683433583713  0.8785397875280305  0.9376914178455856
  0.8118036571696181  0.1166906441696912  0.8093620133058987
  0.1816098176257079  0.3607219981740947  0.9377990768619707
  0.4361117481984478  0.3756266434675302  0.6858529273988374
  0.6820067081061134  0.3741239761518471  0.6874926809841655
  0.3088584302196038  0.8732873933287161  0.5661685531854725
  0.0640716432489290  0.6238957174276345  0.8116847476397608
  0.0626543653356675  0.6315806294522632  0.5596275737399172
  0.0620358016718739  0.3767320809850878  0.3122392508460115
  0.8114160293700450  0.6316413041177699  0.5635986082270463
  0.0634150798673027  0.1304880004057955  0.8105779938199434
  0.3138753090797621  0.1248906544285553  0.5645187618857096
  0.8168392814095760  0.6314570579694637  0.3166990181290351
  0.8142838286605460  0.1215825341939415  0.5627591109525502
  0.9355751238709615  0.8759337957168390  0.6844229583218401
  0.5580247827614307  0.1192348515816664  0.5621771447541385
  0.3134582787763786  0.6256291203825269  0.3165191332460556
  0.9342026527417212  0.3696703699839559  0.1851037323425399
  0.5565362217888796  0.1187233892950822  0.3146713170481968
  0.1889270926614964  0.8817637134101279  0.6848083631761621
  0.4404049408567603  0.3711417954901312  0.9366936243262460
  0.5682032242188122  0.3702787658909963  0.5656831506437807
  0.9386940916794549  0.3666258908896282  0.6862847542440018
  0.1905411301829103  0.8707323332761235  0.4384626806541373
  0.4468514472866785  0.8902029108438649  0.9339839973719334
  0.9370989744290381  0.8769549787927048  0.9395341261431133
  0.0650241459894435  0.8714579023817233  0.0627740497725735
  0.1840246703395788  0.6218798682053857  0.4378928494925040
  0.6858161223966345  0.8769183491485718  0.4394710426047651
  0.4324244759652696  0.6253634501502782  0.6883244123661708
  0.1870350633001154  0.1231806522007133  0.6887021924714464
  0.5569642550850967  0.1198328180921073  0.8110744325275069
  0.3148268698966558  0.3775807128760877  0.8130174918911864
  0.3094104183835519  0.8720094459486974  0.8109024860836057
  0.6868356363084142  0.6319605859986720  0.9328537053680008
  0.0611128679233190  0.3771416881172368  0.5632693477148145
  0.3165630674661461  0.1293531022009834  0.8111140419054961
  0.1869218055832847  0.3782233043102196  0.4385384945005807
  0.6946772856975834  0.1336306604347431  0.4377650264474266
  0.1870883967689716  0.3687403433098180  0.6869877600123510
  0.9402905011043594  0.6289846090082464  0.1916363691557433
  0.0657642877838873  0.6323741285610429  0.3168811066061238
  0.3187982459279486  0.6166423964808927  0.0671341203574052
  0.5651709955178843  0.8738531648170718  0.3119439119019127
  0.6891982840248826  0.8808017629394300  0.1857215803699486
  0.3163868009281546  0.1272283468175311  0.3126812242335170
  0.4349688258599346  0.6233314098465595  0.1922091743134650
  0.4374880216923482  0.1246612849912138  0.6878697140233433
  0.4355947492575837  0.3713814205767139  0.1876589412147131
  0.0697824263914941  0.3865451245931461  0.0631743009853831
  0.6887242101163636  0.6245426798757899  0.6886757270275931
  0.4444336326154487  0.8793402718480392  0.1904294253692955
  0.0638364799311199  0.8791196939653650  0.3156604183039185
  0.3106503541840790  0.8743473589866746  0.3104919888477122
  0.6784879612751622  0.3739398468257178  0.4378548588232623
  0.4354058261088383  0.6270263050080309  0.4342904820469636
  0.4307597558983180  0.1203372615857618  0.9355032253041458
  0.8133226621658072  0.1190007332034116  0.3150717341302038
  0.6884403914974582  0.1185594874880154  0.1952948704673513
  0.8109479358560587  0.8730199119967614  0.3125455390743254
  0.9371326936724119  0.1218375628551245  0.9318586249246166
  0.9342885809585341  0.3687284543618971  0.9395365710427606
  0.8128790998599295  0.8731376751666462  0.8105670321759222
  0.4335803897451975  0.1247092608210014  0.4375221462430419
  0.6893291481113359  0.1283434342768443  0.6868782052841216
  0.3118798425366763  0.3724275184059678  0.0618963327422379
  0.8136477929990955  0.8671675549822176  0.0646265968812494
  0.0601683855589048  0.1242773962308703  0.5651137815786276
  0.0629907972939836  0.3773143997108280  0.8111873616760570
  0.8121929817791027  0.6243904012168653  0.0603265311716295
  0.8141849247484491  0.8780883894771243  0.5624509131609958
  0.8070365691836490  0.6252446437412265  0.8116969178501175
  0.6956532386650376  0.6333270670167053  0.4363005520553528
  0.9437992929042514  0.8819512369868123  0.1875941721973993
  0.5660543982446136  0.8825420235815267  0.5658174181075030
  0.9437959940534862  0.3727874997797894  0.4378685723552752
  0.1871078500483919  0.8801583224414511  0.9368977542322715
  0.1841791814690844  0.8805449977422418  0.1909675405576131
  0.3154540591121709  0.6249182491713995  0.8072847132427304
 
  0.00000000E+00  0.00000000E+00  0.00000000E+00
  0.00000000E+00  0.00000000E+00  0.00000000E+00
  0.00000000E+00  0.00000000E+00  0.00000000E+00
  0.00000000E+00  0.00000000E+00  0.00000000E+00
  0.00000000E+00  0.00000000E+00  0.00000000E+00
  0.00000000E+00  0.00000000E+00  0.00000000E+00
  0.00000000E+00  0.00000000E+00  0.00000000E+00
  0.00000000E+00  0.00000000E+00  0.00000000E+00
  0.00000000E+00  0.00000000E+00  0.00000000E+00
  0.00000000E+00  0.00000000E+00  0.00000000E+00
  0.00000000E+00  0.00000000E+00  0.00000000E+00
  0.00000000E+00  0.00000000E+00  0.00000000E+00
  0.00000000E+00  0.00000000E+00  0.00000000E+00
  0.00000000E+00  0.00000000E+00  0.00000000E+00
  0.00000000E+00  0.00000000E+00  0.00000000E+00
  0.00000000E+00  0.00000000E+00  0.00000000E+00
  0.00000000E+00  0.00000000E+00  0.00000000E+00
  0.00000000E+00  0.00000000E+00  0.00000000E+00
  0.00000000E+00  0.00000000E+00  0.00000000E+00
  0.00000000E+00  0.00000000E+00  0.00000000E+00
  0.00000000E+00  0.00000000E+00  0.00000000E+00
  0.00000000E+00  0.00000000E+00  0.00000000E+00
  0.00000000E+00  0.00000000E+00  0.00000000E+00
  0.00000000E+00  0.00000000E+00  0.00000000E+00
  0.00000000E+00  0.00000000E+00  0.00000000E+00
  0.00000000E+00  0.00000000E+00  0.00000000E+00
  0.00000000E+00  0.00000000E+00  0.00000000E+00
  0.00000000E+00  0.00000000E+00  0.00000000E+00
  0.00000000E+00  0.00000000E+00  0.00000000E+00
  0.00000000E+00  0.00000000E+00  0.00000000E+00
  0.00000000E+00  0.00000000E+00  0.00000000E+00
  0.00000000E+00  0.00000000E+00  0.00000000E+00
  0.00000000E+00  0.00000000E+00  0.00000000E+00
  0.00000000E+00  0.00000000E+00  0.00000000E+00
  0.00000000E+00  0.00000000E+00  0.00000000E+00
  0.00000000E+00  0.00000000E+00  0.00000000E+00
  0.00000000E+00  0.00000000E+00  0.00000000E+00
  0.00000000E+00  0.00000000E+00  0.00000000E+00
  0.00000000E+00  0.00000000E+00  0.00000000E+00
  0.00000000E+00  0.00000000E+00  0.00000000E+00
  0.00000000E+00  0.00000000E+00  0.00000000E+00
  0.00000000E+00  0.00000000E+00  0.00000000E+00
  0.00000000E+00  0.00000000E+00  0.00000000E+00
  0.00000000E+00  0.00000000E+00  0.00000000E+00
  0.00000000E+00  0.00000000E+00  0.00000000E+00
  0.00000000E+00  0.00000000E+00  0.00000000E+00
  0.00000000E+00  0.00000000E+00  0.00000000E+00
  0.00000000E+00  0.00000000E+00  0.00000000E+00
  0.00000000E+00  0.00000000E+00  0.00000000E+00
  0.00000000E+00  0.00000000E+00  0.00000000E+00
  0.00000000E+00  0.00000000E+00  0.00000000E+00
  0.00000000E+00  0.00000000E+00  0.00000000E+00
  0.00000000E+00  0.00000000E+00  0.00000000E+00
  0.00000000E+00  0.00000000E+00  0.00000000E+00
  0.00000000E+00  0.00000000E+00  0.00000000E+00
  0.00000000E+00  0.00000000E+00  0.00000000E+00
  0.00000000E+00  0.00000000E+00  0.00000000E+00
  0.00000000E+00  0.00000000E+00  0.00000000E+00
  0.00000000E+00  0.00000000E+00  0.00000000E+00
  0.00000000E+00  0.00000000E+00  0.00000000E+00
  0.00000000E+00  0.00000000E+00  0.00000000E+00
  0.00000000E+00  0.00000000E+00  0.00000000E+00
  0.00000000E+00  0.00000000E+00  0.00000000E+00
  0.00000000E+00  0.00000000E+00  0.00000000E+00
  0.00000000E+00  0.00000000E+00  0.00000000E+00
  0.00000000E+00  0.00000000E+00  0.00000000E+00
  0.00000000E+00  0.00000000E+00  0.00000000E+00
  0.00000000E+00  0.00000000E+00  0.00000000E+00
  0.00000000E+00  0.00000000E+00  0.00000000E+00
  0.00000000E+00  0.00000000E+00  0.00000000E+00
  0.00000000E+00  0.00000000E+00  0.00000000E+00
  0.00000000E+00  0.00000000E+00  0.00000000E+00
  0.00000000E+00  0.00000000E+00  0.00000000E+00
  0.00000000E+00  0.00000000E+00  0.00000000E+00
  0.00000000E+00  0.00000000E+00  0.00000000E+00
  0.00000000E+00  0.00000000E+00  0.00000000E+00
  0.00000000E+00  0.00000000E+00  0.00000000E+00
  0.00000000E+00  0.00000000E+00  0.00000000E+00
  0.00000000E+00  0.00000000E+00  0.00000000E+00
  0.00000000E+00  0.00000000E+00  0.00000000E+00
  0.00000000E+00  0.00000000E+00  0.00000000E+00
  0.00000000E+00  0.00000000E+00  0.00000000E+00
  0.00000000E+00  0.00000000E+00  0.00000000E+00
  0.00000000E+00  0.00000000E+00  0.00000000E+00
  0.00000000E+00  0.00000000E+00  0.00000000E+00
  0.00000000E+00  0.00000000E+00  0.00000000E+00
  0.00000000E+00  0.00000000E+00  0.00000000E+00
  0.00000000E+00  0.00000000E+00  0.00000000E+00
  0.00000000E+00  0.00000000E+00  0.00000000E+00
  0.00000000E+00  0.00000000E+00  0.00000000E+00
  0.00000000E+00  0.00000000E+00  0.00000000E+00
  0.00000000E+00  0.00000000E+00  0.00000000E+00
  0.00000000E+00  0.00000000E+00  0.00000000E+00
  0.00000000E+00  0.00000000E+00  0.00000000E+00
  0.00000000E+00  0.00000000E+00  0.00000000E+00
  0.00000000E+00  0.00000000E+00  0.00000000E+00
  0.00000000E+00  0.00000000E+00  0.00000000E+00
  0.00000000E+00  0.00000000E+00  0.00000000E+00
  0.00000000E+00  0.00000000E+00  0.00000000E+00
  0.00000000E+00  0.00000000E+00  0.00000000E+00
  0.00000000E+00  0.00000000E+00  0.00000000E+00
  0.00000000E+00  0.00000000E+00  0.00000000E+00
  0.00000000E+00  0.00000000E+00  0.00000000E+00
  0.00000000E+00  0.00000000E+00  0.00000000E+00
  0.00000000E+00  0.00000000E+00  0.00000000E+00
  0.00000000E+00  0.00000000E+00  0.00000000E+00
  0.00000000E+00  0.00000000E+00  0.00000000E+00
  0.00000000E+00  0.00000000E+00  0.00000000E+00
  0.00000000E+00  0.00000000E+00  0.00000000E+00
  0.00000000E+00  0.00000000E+00  0.00000000E+00
  0.00000000E+00  0.00000000E+00  0.00000000E+00
  0.00000000E+00  0.00000000E+00  0.00000000E+00
  0.00000000E+00  0.00000000E+00  0.00000000E+00
  0.00000000E+00  0.00000000E+00  0.00000000E+00
  0.00000000E+00  0.00000000E+00  0.00000000E+00
  0.00000000E+00  0.00000000E+00  0.00000000E+00
  0.00000000E+00  0.00000000E+00  0.00000000E+00
  0.00000000E+00  0.00000000E+00  0.00000000E+00
  0.00000000E+00  0.00000000E+00  0.00000000E+00
  0.00000000E+00  0.00000000E+00  0.00000000E+00
  0.00000000E+00  0.00000000E+00  0.00000000E+00
  0.00000000E+00  0.00000000E+00  0.00000000E+00
  0.00000000E+00  0.00000000E+00  0.00000000E+00
  0.00000000E+00  0.00000000E+00  0.00000000E+00
  0.00000000E+00  0.00000000E+00  0.00000000E+00
  0.00000000E+00  0.00000000E+00  0.00000000E+00
  0.00000000E+00  0.00000000E+00  0.00000000E+00
  0.00000000E+00  0.00000000E+00  0.00000000E+00
