Nb Ta                                   
    1.000000000000000     
    13.2502636681723605   -0.0010894461629455   -0.0001893880794057
    -0.0010892355269265   13.2513877807013944   -0.0007928315384499
    -0.0001894129743359   -0.0007928970092814   13.2499794818066938
   Nb   Ta
    84    44
Direct
  0.2504292523497006  0.7487762698949649  0.0012644759444538
  0.8764492069146945  0.1241945161955778  0.3763418513101331
  0.7520451769569950  0.7496779145841106  0.2509094667304099
  0.1270076689464277  0.3740672067192563  0.3762324514828744
  0.4990369097175870  0.0002361676560353  0.2500237846143007
  0.3740493794607830  0.1250954482400805  0.3752444316668631
  0.1272248710308066  0.8758761254493508  0.6264869016037657
  0.5005131210836664  0.7491087667832697  0.5002794339147334
  0.2496789120821120  0.7481448382904773  0.7486629642832711
  0.3749106785437750  0.6273283269101052  0.8762103006422618
  0.2505001203191417  0.5009017850193872  0.5005721887206561
  0.1258814384731455  0.6243586702017541  0.1239048987083267
  0.0007943875229557  0.5023262425473645  0.0008346542827178
  0.6248579026158728  0.1247850455992382  0.3758443855828235
  0.6247605436802666  0.1239480914915273  0.1250353723932132
 -0.0011712515915096  0.2508480355297711  0.4984144821290259
  0.8739092428795864  0.6237199848621499  0.1255557482974163
 -0.0002667769012735 -0.0009084783277377  0.2486754990524687
 -0.0002090647403019  0.5006591757933448  0.2503868645336074
  0.5000179685360220  0.0003366680813155  0.4998717851769292
  0.6270793513629447  0.6252014185516502  0.6263361336527078
  0.1257480135473899  0.8758971975529724  0.1239753207144504
  0.5010331789770520  0.2495258306019220  0.2493440609013447
  0.6260219308933764  0.1236991217734264  0.8747360341399421
  0.8765002337081904  0.1255156931351069  0.6259797706862468
  0.3744379285840188  0.1248408860380129  0.6250515026864168
  0.1259951340098566  0.8769217230061067  0.3750267166815877
  0.5001071629382929  0.2489192393218426  0.5002958594161799
  0.8751553415308161  0.6241850228545537  0.8734350837244713
  0.8751310108299529  0.3751649039708561  0.3742834162837886
  0.6251021273390911  0.1253850307281144  0.6245288702151520
  0.4994686475442219  0.7492995420102423  0.2495657710239003
  0.6248703055506427  0.3767364537590073  0.8752177464433341
  0.5019214284333537  0.0003559203401645  0.7497340922877894
  0.5015606107969182  0.7486923410471177  0.7506204258919918
  0.3761403762807702  0.3742449737688610  0.8756326736169726
 -0.0001175593153996  0.2490677717952731  0.0009355316267017
  0.6233607474722466  0.3731979142388996  0.3745894093887612
  0.2479078144309236  0.7497431499265411  0.4998271662514834
  0.4989546477945692  0.4998608930525127 -0.0009266530496440
 -0.0009674397083698 -0.0017811180172701  0.7506094220888555
  0.0003382235243398  0.2500629757611798  0.7499501042426481
  0.3750631080205679  0.1224301610377704  0.8746984506993202
  0.2502591912647545  0.2490252705238147  0.5007681835395230
  0.8750023410401873  0.6254109057978841  0.3762773154990381
  0.3735414075843444  0.1267575254033821  0.1249436613381641
  0.8765280944997109  0.1262494905399216  0.1229688827583741
  0.6235512410009403  0.8746568137625379  0.8767249866193201
  0.6233901722861153  0.8748595625955384  0.3736359248221444
  0.3768380798977551  0.8739763979538372  0.1254437015883867
  0.8759611628824332  0.3735229333887216  0.8758893981645489
  0.7504872663097749  0.0014479135848906 -0.0000919359075141
  0.2478173543426715  0.7517554197314700  0.2500004590132128
  0.6254981453380478  0.6271287290189450  0.3743161856925085
  0.8723860949614147  0.8748276322536106  0.1256618931452379
  0.1231781619521343  0.1236688142324544  0.8750142134140353
  0.8741778659794940  0.8753027791556637  0.3750949090959704
  0.2511339331348473  0.2514909983307568 -0.0024563768677671
  0.4993555159108095 -0.0002513012061219  0.0004407891784391
  0.2495533503187426  0.0004825063171551  0.0018769687761401
  0.2488817432456913  0.2491208087284380  0.2501029899617226
  0.5016789881107107  0.5012719744872922  0.4997952207509402
  0.7504874319753250  0.2514663980686119  0.5008732838185237
  0.6228925041372667  0.8748989785275842  0.6239843660659692
  0.8761943746999381  0.3765704124542795  0.6254085454809822
  0.0007617435695362  0.5003085523363546  0.7507901339404949
  0.8743217569031176  0.8748735465261555  0.6233865830654866
 -0.0011035690693018  0.5008986902881720  0.4984578922230533
  0.6233667853769874  0.3744092824803958  0.6249340604362053
  0.8753062484420866  0.8770602723075530  0.8756195580580188
  0.1231469951595800  0.3754778217218141  0.8744455628526296
  0.3739720944370843  0.6256549830942973  0.6238286741798721
 -0.0001806558166345 -0.0025801145960824  0.4998675952731803
  0.1248404278088034  0.3736741005231291  0.1249765126503578
  0.2505671146760990  0.0000487058010195  0.4988265714448791
  0.7516559798513212  0.7491905782950209 -0.0020140720893100
  0.7483942446142695  0.4985817824887184  0.7491374874406219
  0.7493197007787643  0.0001322884993364  0.5002240613991826
  0.3743512638353444  0.6256358213765700  0.3739124507125702
  0.2498970477580986  0.4998440224292440  0.2491357517715576
  0.7506940053757887  0.7493433528879565  0.5012244840727514
  0.1250985651007364  0.6241294758187199  0.3760165611595692
  0.4996282702824375  0.2506943068432824  0.7514120569492507
  0.2500116285055730  0.0031352626791574  0.7492415781621012
  0.1242821498559981  0.1243958739137826  0.3749921584316657
  0.4987836016101443  0.7509077131063776 -0.0005047571172230
  0.1257890464458825  0.3754102654339897  0.6242377826978363
  0.7493612289457300  0.2491102090488714  0.7504410890987087
  0.2528756816201709  0.4980728928680051  0.7521832740761237
  0.0009028982747343  0.7500210000674249  0.2501431860122623
  0.1249239805255338  0.1260243870708380  0.1259931479771503
  0.3757690919263012  0.8749977407549323  0.6253817861596797
  0.3746485359750677  0.3744447914397330  0.3752338774186142
  0.1229289325784103  0.6224675727882443  0.6268534226525792
  0.3763593419004913  0.3759756446802263  0.1272643223151032
 -0.0013701846440175  0.2503407831780135  0.2507691309080648
  0.7499867938827995  0.0025721212002127  0.2507722224800193
  0.3743409908934728  0.3743691060785838  0.6219341802394848
  0.2502103435364703  0.2510567414488840  0.7510614017255722
  0.4974457900723924  0.5004488236065139  0.7490604664506273
  0.0006209329398677 -0.0023072025331239  0.0006040341009849
  0.7483347167491119  0.4989383754681860  0.2518526814198451
  0.0009765734194951  0.7507528367284523  0.4997393385969682
  0.1236547906886866  0.1266383771200112  0.6234123278886412
  0.2513273669590972 -0.0005491165028605  0.2498532941132396
  0.5011915278888103  0.2490046652281160 -0.0006783022254425
  0.8744432071295589  0.3754605154252097  0.1249468501006785
  0.3760953714189106  0.8743632703270970  0.3766252915083288
  0.8753340787737612  0.1251729947196526  0.8749044509438649
  0.1245009652592931  0.6272826348441652  0.8734209948979238
  0.6246829845696201  0.6257625473298936  0.1233466547179199
  0.2497610128187902  0.4990694786552979 -0.0019521329936637
  0.6258989146258629  0.6249580342587948  0.8760740861784555
  0.3758899439066783  0.6233457937815879  0.1256528621016111
  0.7489836042765575 -0.0003642897004284  0.7488900492859725
  0.7514813009445328  0.7529845945656364  0.7499180839861022
  0.7514648751979343  0.2488870273372723  0.2493285946008407
  0.7489172571094511  0.4992227481543998  0.4985234995415472
  0.7477851837482649  0.2507237551600115 -0.0002642929070917
 -0.0002710162212101  0.7513143784758489  0.0009032627559352
  0.5016784348915622  0.5007482604214457  0.2519319827944341
  0.3730109871262615  0.8757025188265336  0.8725088706760303
  0.6257580604031192  0.8734537698967126  0.1254158487475692
  0.8758463890451920  0.6237068868184840  0.6250575116375622
  0.7507989009126742  0.4987509846673739  0.0004032719260221
  0.6244149745672264  0.3763328117795374  0.1252602178135383
 -0.0021562453647530  0.7516321710138054  0.7495764367532310
  0.1282606019270428  0.8735939678205651  0.8746316191776543
 
  0.00000000E+00  0.00000000E+00  0.00000000E+00
  0.00000000E+00  0.00000000E+00  0.00000000E+00
  0.00000000E+00  0.00000000E+00  0.00000000E+00
  0.00000000E+00  0.00000000E+00  0.00000000E+00
  0.00000000E+00  0.00000000E+00  0.00000000E+00
  0.00000000E+00  0.00000000E+00  0.00000000E+00
  0.00000000E+00  0.00000000E+00  0.00000000E+00
  0.00000000E+00  0.00000000E+00  0.00000000E+00
  0.00000000E+00  0.00000000E+00  0.00000000E+00
  0.00000000E+00  0.00000000E+00  0.00000000E+00
  0.00000000E+00  0.00000000E+00  0.00000000E+00
  0.00000000E+00  0.00000000E+00  0.00000000E+00
  0.00000000E+00  0.00000000E+00  0.00000000E+00
  0.00000000E+00  0.00000000E+00  0.00000000E+00
  0.00000000E+00  0.00000000E+00  0.00000000E+00
  0.00000000E+00  0.00000000E+00  0.00000000E+00
  0.00000000E+00  0.00000000E+00  0.00000000E+00
  0.00000000E+00  0.00000000E+00  0.00000000E+00
  0.00000000E+00  0.00000000E+00  0.00000000E+00
  0.00000000E+00  0.00000000E+00  0.00000000E+00
  0.00000000E+00  0.00000000E+00  0.00000000E+00
  0.00000000E+00  0.00000000E+00  0.00000000E+00
  0.00000000E+00  0.00000000E+00  0.00000000E+00
  0.00000000E+00  0.00000000E+00  0.00000000E+00
  0.00000000E+00  0.00000000E+00  0.00000000E+00
  0.00000000E+00  0.00000000E+00  0.00000000E+00
  0.00000000E+00  0.00000000E+00  0.00000000E+00
  0.00000000E+00  0.00000000E+00  0.00000000E+00
  0.00000000E+00  0.00000000E+00  0.00000000E+00
  0.00000000E+00  0.00000000E+00  0.00000000E+00
  0.00000000E+00  0.00000000E+00  0.00000000E+00
  0.00000000E+00  0.00000000E+00  0.00000000E+00
  0.00000000E+00  0.00000000E+00  0.00000000E+00
  0.00000000E+00  0.00000000E+00  0.00000000E+00
  0.00000000E+00  0.00000000E+00  0.00000000E+00
  0.00000000E+00  0.00000000E+00  0.00000000E+00
  0.00000000E+00  0.00000000E+00  0.00000000E+00
  0.00000000E+00  0.00000000E+00  0.00000000E+00
  0.00000000E+00  0.00000000E+00  0.00000000E+00
  0.00000000E+00  0.00000000E+00  0.00000000E+00
  0.00000000E+00  0.00000000E+00  0.00000000E+00
  0.00000000E+00  0.00000000E+00  0.00000000E+00
  0.00000000E+00  0.00000000E+00  0.00000000E+00
  0.00000000E+00  0.00000000E+00  0.00000000E+00
  0.00000000E+00  0.00000000E+00  0.00000000E+00
  0.00000000E+00  0.00000000E+00  0.00000000E+00
  0.00000000E+00  0.00000000E+00  0.00000000E+00
  0.00000000E+00  0.00000000E+00  0.00000000E+00
  0.00000000E+00  0.00000000E+00  0.00000000E+00
  0.00000000E+00  0.00000000E+00  0.00000000E+00
  0.00000000E+00  0.00000000E+00  0.00000000E+00
  0.00000000E+00  0.00000000E+00  0.00000000E+00
  0.00000000E+00  0.00000000E+00  0.00000000E+00
  0.00000000E+00  0.00000000E+00  0.00000000E+00
  0.00000000E+00  0.00000000E+00  0.00000000E+00
  0.00000000E+00  0.00000000E+00  0.00000000E+00
  0.00000000E+00  0.00000000E+00  0.00000000E+00
  0.00000000E+00  0.00000000E+00  0.00000000E+00
  0.00000000E+00  0.00000000E+00  0.00000000E+00
  0.00000000E+00  0.00000000E+00  0.00000000E+00
  0.00000000E+00  0.00000000E+00  0.00000000E+00
  0.00000000E+00  0.00000000E+00  0.00000000E+00
  0.00000000E+00  0.00000000E+00  0.00000000E+00
  0.00000000E+00  0.00000000E+00  0.00000000E+00
  0.00000000E+00  0.00000000E+00  0.00000000E+00
  0.00000000E+00  0.00000000E+00  0.00000000E+00
  0.00000000E+00  0.00000000E+00  0.00000000E+00
  0.00000000E+00  0.00000000E+00  0.00000000E+00
  0.00000000E+00  0.00000000E+00  0.00000000E+00
  0.00000000E+00  0.00000000E+00  0.00000000E+00
  0.00000000E+00  0.00000000E+00  0.00000000E+00
  0.00000000E+00  0.00000000E+00  0.00000000E+00
  0.00000000E+00  0.00000000E+00  0.00000000E+00
  0.00000000E+00  0.00000000E+00  0.00000000E+00
  0.00000000E+00  0.00000000E+00  0.00000000E+00
  0.00000000E+00  0.00000000E+00  0.00000000E+00
  0.00000000E+00  0.00000000E+00  0.00000000E+00
  0.00000000E+00  0.00000000E+00  0.00000000E+00
  0.00000000E+00  0.00000000E+00  0.00000000E+00
  0.00000000E+00  0.00000000E+00  0.00000000E+00
  0.00000000E+00  0.00000000E+00  0.00000000E+00
  0.00000000E+00  0.00000000E+00  0.00000000E+00
  0.00000000E+00  0.00000000E+00  0.00000000E+00
  0.00000000E+00  0.00000000E+00  0.00000000E+00
  0.00000000E+00  0.00000000E+00  0.00000000E+00
  0.00000000E+00  0.00000000E+00  0.00000000E+00
  0.00000000E+00  0.00000000E+00  0.00000000E+00
  0.00000000E+00  0.00000000E+00  0.00000000E+00
  0.00000000E+00  0.00000000E+00  0.00000000E+00
  0.00000000E+00  0.00000000E+00  0.00000000E+00
  0.00000000E+00  0.00000000E+00  0.00000000E+00
  0.00000000E+00  0.00000000E+00  0.00000000E+00
  0.00000000E+00  0.00000000E+00  0.00000000E+00
  0.00000000E+00  0.00000000E+00  0.00000000E+00
  0.00000000E+00  0.00000000E+00  0.00000000E+00
  0.00000000E+00  0.00000000E+00  0.00000000E+00
  0.00000000E+00  0.00000000E+00  0.00000000E+00
  0.00000000E+00  0.00000000E+00  0.00000000E+00
  0.00000000E+00  0.00000000E+00  0.00000000E+00
  0.00000000E+00  0.00000000E+00  0.00000000E+00
  0.00000000E+00  0.00000000E+00  0.00000000E+00
  0.00000000E+00  0.00000000E+00  0.00000000E+00
  0.00000000E+00  0.00000000E+00  0.00000000E+00
  0.00000000E+00  0.00000000E+00  0.00000000E+00
  0.00000000E+00  0.00000000E+00  0.00000000E+00
  0.00000000E+00  0.00000000E+00  0.00000000E+00
  0.00000000E+00  0.00000000E+00  0.00000000E+00
  0.00000000E+00  0.00000000E+00  0.00000000E+00
  0.00000000E+00  0.00000000E+00  0.00000000E+00
  0.00000000E+00  0.00000000E+00  0.00000000E+00
  0.00000000E+00  0.00000000E+00  0.00000000E+00
  0.00000000E+00  0.00000000E+00  0.00000000E+00
  0.00000000E+00  0.00000000E+00  0.00000000E+00
  0.00000000E+00  0.00000000E+00  0.00000000E+00
  0.00000000E+00  0.00000000E+00  0.00000000E+00
  0.00000000E+00  0.00000000E+00  0.00000000E+00
  0.00000000E+00  0.00000000E+00  0.00000000E+00
  0.00000000E+00  0.00000000E+00  0.00000000E+00
  0.00000000E+00  0.00000000E+00  0.00000000E+00
  0.00000000E+00  0.00000000E+00  0.00000000E+00
  0.00000000E+00  0.00000000E+00  0.00000000E+00
  0.00000000E+00  0.00000000E+00  0.00000000E+00
  0.00000000E+00  0.00000000E+00  0.00000000E+00
  0.00000000E+00  0.00000000E+00  0.00000000E+00
  0.00000000E+00  0.00000000E+00  0.00000000E+00
  0.00000000E+00  0.00000000E+00  0.00000000E+00
  0.00000000E+00  0.00000000E+00  0.00000000E+00
  0.00000000E+00  0.00000000E+00  0.00000000E+00
