Hf Ti                                   
    1.000000000000000     
    11.9049632002544801    0.0060643833834150    0.0027896881599273
    -5.9472382701553759   10.2908109392645706   -0.0043090805585776
     0.0044688060034728   -0.0053779022282676   18.7696692529788081
  Hf              Ti            
    16   112
Direct
     0.4187625871079084    0.8316399750406661    0.1878332279455002
     0.5864960863338707    0.6701419145867570    0.5642788323788207
     0.9184042473870572    0.3375221493239441    0.9335559035369797
     0.1688947579772995    0.0837275255420675    0.4422232721108977
     0.8324640847276026    0.1654276422982374    0.0617784989852143
     0.9177276831161429    0.3313431616719154    0.6915038173711341
     0.6684823268973892    0.5884730878156297    0.1840747527674222
     0.6709970438508986    0.5871159664461969    0.9390512527595211
     0.0768562476314554    0.1645426686908767    0.3118093017025200
     0.4143741954353738    0.3301070232579500    0.9365811764550868
     0.5851732775437611    0.4126391095755342    0.3112222650253873
     0.3289894436931878    0.4120495401456092    0.5623342467106490
     0.1619234343553339    0.8310392025758275    0.1866048629578018
     0.3320686186929907    0.4185173769467775    0.3133673927629830
     0.4204632768910598    0.0893798354857688    0.1867781984194870
     0.8331727480662381    0.4172187490061891    0.5622229472340868
     0.3329029584459710    0.4178750826970138    0.8117046982458794
     0.1644349268807887    0.5814229205002823    0.4387992605153436
     0.4161251579609330    0.8322869870911649    0.9366302651917795
     0.3355831866176937    0.4213940018338854    0.0622078438140137
     0.6665394685920893    0.3300286500709063    0.4379189177737535
     0.0821937573822341    0.6634742271712261    0.8119051454902977
     0.1652412877600052    0.0785668186081375    0.9343009168481813
     0.4080752099875219    0.3295889047970645    0.1840156574066330
     0.8319317793616415    0.1624838071164668    0.5627225035601807
     0.5836546129991559    0.4154119844895020    0.8110442210553274
     0.1720324088137796    0.5885326877968876    0.9359614274008246
     0.6686949750185582    0.5829233024813019    0.4372143999660762
     0.3344508148427074    0.6706935655531134    0.8111229665833135
     0.9193632343173183    0.5904705499516649    0.6883334985612725
     0.3308388871273972    0.6691668804386645    0.5625610625815173
     0.5825071790806835    0.9165049371781556    0.0599547776874907
     0.8375655182536844    0.6711773211084844    0.8108887391300206
     0.3265292391487246    0.1618507505948614    0.0603517843102108
     0.9208157681937225    0.5884575972954523    0.9363533919877135
     0.5802565674611875    0.1630816552003320    0.5643123136871383
     0.1690114123419708    0.8342757358138346    0.6889821808618237
     0.5872720215039035    0.1630843731055653    0.3148816055169580
     0.8350322038147215    0.4141443341829075    0.3134687793740319
     0.3317361329265132    0.9183123578981524    0.5638019806883106
     0.8343794210132345    0.9144649872288707    0.8131526999122438
     0.6693831883953956    0.0840498580689726    0.1886770645037573
     0.0809643610821051    0.9129659127263875    0.3150135790720987
     0.8466071751046859    0.6734811485080917    0.0633168634908751
     0.3302118687201390    0.1622801112327492    0.8093345258910259
     0.6606221643095144    0.3315466444866921    0.6887797164432771
     0.1651061183161441    0.5776979971577710    0.1878709423090277
     0.8288862632368857    0.9137359049893622    0.3127687803364425
     0.0835741493909019    0.1688034121403048    0.8131368160553210
     0.6698291433600783    0.8378785171914904    0.6900912426726307
     0.0859706832967959    0.6701891546994698    0.5637176193824861
     0.4220536089722851    0.3315100746988174    0.4391643252849622
     0.4145295285224346    0.5843536821314604    0.6902694398971075
     0.5838545278807854    0.9197301832597341    0.5627090432940395
     0.8330391641103124    0.4227558457001753    0.0623861282340030
     0.9164620970295260    0.5774851018905801    0.1887523609098787
     0.9180883611817038    0.3316072538707502    0.4364791500105128
     0.6639123581098303    0.0804592881886499    0.6881810430028847
     0.0858653574368965    0.4214105403418457    0.0616988012442150
     0.5815650546557012    0.4082738839067624    0.0643625963019046
     0.8276808379123234    0.1555344174115390    0.8130181446655091
     0.4143379534744949    0.5827247429522486    0.1856691350921165
     0.9203561283931573    0.3359149374678757    0.1882365944730970
     0.1651730758094564    0.0851852631185632    0.1856607082604357
     0.0831314819316710    0.4165409726692794    0.5631032024861400
     0.5844509679621236    0.6747088265932212    0.3136077627504739
     0.9178928304546681    0.0784971739249193    0.9361541633312047
     0.0823389599103106    0.9166030922226214    0.8103592300649859
     0.5834614253453503    0.4141260792205414    0.5633247371841492
     0.1673904554842970    0.3351668949350597    0.9376311628550402
     0.5857814630798017    0.1690152089412834    0.8121514206862375
     0.6598649003771265    0.0775152388978367    0.9350155610834402
     0.3328813064747931    0.1629385649711830    0.3144345513889557
     0.1658625351931440    0.8291117499968257    0.4389212669620989
     0.0840726539376211    0.6640471856327625    0.3142898327950813
     0.6760679872713929    0.3301909015571114    0.1858325173975055
     0.3313210042158117    0.6683552828388430    0.3160958171879568
     0.3291748643090158    0.6636151886259194    0.0608252946216471
     0.1586753175119314    0.3349845542596905    0.4385039599533133
     0.3395092799070079    0.1659060491835686    0.5667477356995371
     0.5792918702134007    0.9154040361452845    0.8112997503288962
     0.5821761161315396    0.1659270654006488    0.0589472382672560
     0.0753507813195080    0.1661635493967245    0.5654149148135843
     0.6676419849688139    0.0858088002789459    0.4394396946746708
     0.4211741417698692    0.0838037914328851    0.4392712679149716
     0.5860728896355639    0.9186592635868066    0.3160912128058166
     0.5763335265265910    0.6709594606005683    0.0610860347945657
     0.8277912055334289    0.4223033949416891    0.8115003324645852
     0.4198095666391551    0.3355345556241522    0.6895667777390017
     0.5820797024293902    0.6668774242076728    0.8109549229262737
     0.6690502653020159    0.5809067762656471    0.6897037881511227
     0.8358615665453382    0.6688111393669284    0.5624136794839276
     0.0813131898470918    0.9113336742399076    0.5659709011233317
     0.0938331053691849    0.4225013551419687    0.8123445557010380
     0.9158560202765107    0.0783417887919960    0.6896168322047369
     0.4177389533734881    0.8329973672226754    0.6863453395682830
     0.0828489201589140    0.6624185849151453    0.0601387594145645
     0.3326463251527299    0.9160393274819186    0.0577542157453127
     0.4193318492122852    0.5905083057731834    0.4378515161337208
     0.4165051444708421    0.8341885616311896    0.4393123840188248
     0.9099256899452146    0.0809891527324208    0.4388300697260970
     0.9139095830500445    0.8314370342906461    0.4384397299878046
     0.1702773965550189    0.5864461819498912    0.6876333955354308
     0.6692581409903137    0.8364809295217102    0.4381732560018531
     0.1623376453988937    0.3334472191807649    0.1828132471358790
     0.8380464684467802    0.6714151176749440    0.3130999934689443
     0.1663643829399497    0.8331995605750752    0.9355282081258506
     0.8374568048321688    0.9216996722643600    0.5632635878463547
     0.8292876212955804    0.1645527636516954    0.3130900821151185
     0.9181158869963982    0.5862198018523014    0.4359212207714091
     0.3333781049820678    0.9167378542431697    0.3168733531737007
     0.3341694849343198    0.9149551379091256    0.8119228114261913
     0.9217298538156823    0.8352596225615315    0.9361413117118080
     0.6653986905598250    0.8371428921480077    0.9354606927549910
     0.1656800669655418    0.0839718701595500    0.6870093632991334
     0.6666182206111800    0.3315713637928968    0.9370334842226922
     0.0805672273694993    0.4192566636784015    0.3127140516241795
     0.6707948189089771    0.8394330540112913    0.1861918526458730
     0.1686836723259240    0.3317243220389706    0.6902015576665684
     0.0821299717683097    0.9197822806247559    0.0595568362991623
     0.9191551158904910    0.8401115241094442    0.1880747121799294
     0.9150907679927909    0.0796891570795839    0.1852057750355376
     0.4168393110699490    0.0805316697536134    0.6892335746765835
     0.4147844512709492    0.0795999540268526    0.9349744580550635
     0.9134651767364373    0.8324059817276462    0.6870767325056768
     0.8313879839883681    0.9086812754043971    0.0607401013088911
     0.4140090248891753    0.5872665371120931    0.9357402696426879
     0.0860633669732774    0.1650478422542419    0.0599283282328878
 
  0.00000000E+00  0.00000000E+00  0.00000000E+00
  0.00000000E+00  0.00000000E+00  0.00000000E+00
  0.00000000E+00  0.00000000E+00  0.00000000E+00
  0.00000000E+00  0.00000000E+00  0.00000000E+00
  0.00000000E+00  0.00000000E+00  0.00000000E+00
  0.00000000E+00  0.00000000E+00  0.00000000E+00
  0.00000000E+00  0.00000000E+00  0.00000000E+00
  0.00000000E+00  0.00000000E+00  0.00000000E+00
  0.00000000E+00  0.00000000E+00  0.00000000E+00
  0.00000000E+00  0.00000000E+00  0.00000000E+00
  0.00000000E+00  0.00000000E+00  0.00000000E+00
  0.00000000E+00  0.00000000E+00  0.00000000E+00
  0.00000000E+00  0.00000000E+00  0.00000000E+00
  0.00000000E+00  0.00000000E+00  0.00000000E+00
  0.00000000E+00  0.00000000E+00  0.00000000E+00
  0.00000000E+00  0.00000000E+00  0.00000000E+00
  0.00000000E+00  0.00000000E+00  0.00000000E+00
  0.00000000E+00  0.00000000E+00  0.00000000E+00
  0.00000000E+00  0.00000000E+00  0.00000000E+00
  0.00000000E+00  0.00000000E+00  0.00000000E+00
  0.00000000E+00  0.00000000E+00  0.00000000E+00
  0.00000000E+00  0.00000000E+00  0.00000000E+00
  0.00000000E+00  0.00000000E+00  0.00000000E+00
  0.00000000E+00  0.00000000E+00  0.00000000E+00
  0.00000000E+00  0.00000000E+00  0.00000000E+00
  0.00000000E+00  0.00000000E+00  0.00000000E+00
  0.00000000E+00  0.00000000E+00  0.00000000E+00
  0.00000000E+00  0.00000000E+00  0.00000000E+00
  0.00000000E+00  0.00000000E+00  0.00000000E+00
  0.00000000E+00  0.00000000E+00  0.00000000E+00
  0.00000000E+00  0.00000000E+00  0.00000000E+00
  0.00000000E+00  0.00000000E+00  0.00000000E+00
  0.00000000E+00  0.00000000E+00  0.00000000E+00
  0.00000000E+00  0.00000000E+00  0.00000000E+00
  0.00000000E+00  0.00000000E+00  0.00000000E+00
  0.00000000E+00  0.00000000E+00  0.00000000E+00
  0.00000000E+00  0.00000000E+00  0.00000000E+00
  0.00000000E+00  0.00000000E+00  0.00000000E+00
  0.00000000E+00  0.00000000E+00  0.00000000E+00
  0.00000000E+00  0.00000000E+00  0.00000000E+00
  0.00000000E+00  0.00000000E+00  0.00000000E+00
  0.00000000E+00  0.00000000E+00  0.00000000E+00
  0.00000000E+00  0.00000000E+00  0.00000000E+00
  0.00000000E+00  0.00000000E+00  0.00000000E+00
  0.00000000E+00  0.00000000E+00  0.00000000E+00
  0.00000000E+00  0.00000000E+00  0.00000000E+00
  0.00000000E+00  0.00000000E+00  0.00000000E+00
  0.00000000E+00  0.00000000E+00  0.00000000E+00
  0.00000000E+00  0.00000000E+00  0.00000000E+00
  0.00000000E+00  0.00000000E+00  0.00000000E+00
  0.00000000E+00  0.00000000E+00  0.00000000E+00
  0.00000000E+00  0.00000000E+00  0.00000000E+00
  0.00000000E+00  0.00000000E+00  0.00000000E+00
  0.00000000E+00  0.00000000E+00  0.00000000E+00
  0.00000000E+00  0.00000000E+00  0.00000000E+00
  0.00000000E+00  0.00000000E+00  0.00000000E+00
  0.00000000E+00  0.00000000E+00  0.00000000E+00
  0.00000000E+00  0.00000000E+00  0.00000000E+00
  0.00000000E+00  0.00000000E+00  0.00000000E+00
  0.00000000E+00  0.00000000E+00  0.00000000E+00
  0.00000000E+00  0.00000000E+00  0.00000000E+00
  0.00000000E+00  0.00000000E+00  0.00000000E+00
  0.00000000E+00  0.00000000E+00  0.00000000E+00
  0.00000000E+00  0.00000000E+00  0.00000000E+00
  0.00000000E+00  0.00000000E+00  0.00000000E+00
  0.00000000E+00  0.00000000E+00  0.00000000E+00
  0.00000000E+00  0.00000000E+00  0.00000000E+00
  0.00000000E+00  0.00000000E+00  0.00000000E+00
  0.00000000E+00  0.00000000E+00  0.00000000E+00
  0.00000000E+00  0.00000000E+00  0.00000000E+00
  0.00000000E+00  0.00000000E+00  0.00000000E+00
  0.00000000E+00  0.00000000E+00  0.00000000E+00
  0.00000000E+00  0.00000000E+00  0.00000000E+00
  0.00000000E+00  0.00000000E+00  0.00000000E+00
  0.00000000E+00  0.00000000E+00  0.00000000E+00
  0.00000000E+00  0.00000000E+00  0.00000000E+00
  0.00000000E+00  0.00000000E+00  0.00000000E+00
  0.00000000E+00  0.00000000E+00  0.00000000E+00
  0.00000000E+00  0.00000000E+00  0.00000000E+00
  0.00000000E+00  0.00000000E+00  0.00000000E+00
  0.00000000E+00  0.00000000E+00  0.00000000E+00
  0.00000000E+00  0.00000000E+00  0.00000000E+00
  0.00000000E+00  0.00000000E+00  0.00000000E+00
  0.00000000E+00  0.00000000E+00  0.00000000E+00
  0.00000000E+00  0.00000000E+00  0.00000000E+00
  0.00000000E+00  0.00000000E+00  0.00000000E+00
  0.00000000E+00  0.00000000E+00  0.00000000E+00
  0.00000000E+00  0.00000000E+00  0.00000000E+00
  0.00000000E+00  0.00000000E+00  0.00000000E+00
  0.00000000E+00  0.00000000E+00  0.00000000E+00
  0.00000000E+00  0.00000000E+00  0.00000000E+00
  0.00000000E+00  0.00000000E+00  0.00000000E+00
  0.00000000E+00  0.00000000E+00  0.00000000E+00
  0.00000000E+00  0.00000000E+00  0.00000000E+00
  0.00000000E+00  0.00000000E+00  0.00000000E+00
  0.00000000E+00  0.00000000E+00  0.00000000E+00
  0.00000000E+00  0.00000000E+00  0.00000000E+00
  0.00000000E+00  0.00000000E+00  0.00000000E+00
  0.00000000E+00  0.00000000E+00  0.00000000E+00
  0.00000000E+00  0.00000000E+00  0.00000000E+00
  0.00000000E+00  0.00000000E+00  0.00000000E+00
  0.00000000E+00  0.00000000E+00  0.00000000E+00
  0.00000000E+00  0.00000000E+00  0.00000000E+00
  0.00000000E+00  0.00000000E+00  0.00000000E+00
  0.00000000E+00  0.00000000E+00  0.00000000E+00
  0.00000000E+00  0.00000000E+00  0.00000000E+00
  0.00000000E+00  0.00000000E+00  0.00000000E+00
  0.00000000E+00  0.00000000E+00  0.00000000E+00
  0.00000000E+00  0.00000000E+00  0.00000000E+00
  0.00000000E+00  0.00000000E+00  0.00000000E+00
  0.00000000E+00  0.00000000E+00  0.00000000E+00
  0.00000000E+00  0.00000000E+00  0.00000000E+00
  0.00000000E+00  0.00000000E+00  0.00000000E+00
  0.00000000E+00  0.00000000E+00  0.00000000E+00
  0.00000000E+00  0.00000000E+00  0.00000000E+00
  0.00000000E+00  0.00000000E+00  0.00000000E+00
  0.00000000E+00  0.00000000E+00  0.00000000E+00
  0.00000000E+00  0.00000000E+00  0.00000000E+00
  0.00000000E+00  0.00000000E+00  0.00000000E+00
  0.00000000E+00  0.00000000E+00  0.00000000E+00
  0.00000000E+00  0.00000000E+00  0.00000000E+00
  0.00000000E+00  0.00000000E+00  0.00000000E+00
  0.00000000E+00  0.00000000E+00  0.00000000E+00
  0.00000000E+00  0.00000000E+00  0.00000000E+00
  0.00000000E+00  0.00000000E+00  0.00000000E+00
  0.00000000E+00  0.00000000E+00  0.00000000E+00
  0.00000000E+00  0.00000000E+00  0.00000000E+00
  0.00000000E+00  0.00000000E+00  0.00000000E+00
