Hf Ti                                   
    1.000000000000000     
    12.1054735289011361    0.0036502211690739    0.0017782017132041
    -6.0495761901844798   10.5064203539757308   -0.0000562910221132
     0.0027824215495354    0.0014618833740069   19.0839581811765484
  Hf              Ti            
    40    88
Direct
     0.3431620359410995    0.4279487057836589    0.8117548333494515
     0.0788627036230325    0.9115158806914507    0.0592645872195971
     0.8340082983982341    0.6651824101213069    0.8142856484178723
     0.9182137349922118    0.3315891902117375    0.6874666847849424
     0.8372485880007541    0.6705217857439454    0.5604910680839649
     0.5883821010475075    0.1674056725602983    0.8198087204694509
     0.9201580068019356    0.8420631138958794    0.6880627416053979
     0.3311041730135904    0.6651215895988595    0.3166713169672886
     0.5875661360733431    0.1670752475481798    0.0536508775128851
     0.4209480822997290    0.0754234952031882    0.1870005682843061
     0.3373462805766764    0.6721009292218152    0.0588559627091593
     0.5832977276862220    0.9162456320642298    0.3140882454093957
     0.3274668264163887    0.1623759483628473    0.0633237565864373
     0.5935251401964455    0.1718830529452189    0.3152143811381043
     0.1623494075189865    0.3286728323600774    0.1890726878511240
     0.3366495608808950    0.4251200977689131    0.0611605418475356
     0.1707472659222067    0.8343554576840561    0.1887809526105837
     0.6711566223226211    0.5947383507461539    0.1879775711061026
     0.3292064207045580    0.9086238928886784    0.8118702250178705
     0.9152980670767501    0.3254216847345472    0.4380717722555277
     0.6581993992773157    0.5829404318849651    0.6862292709818116
     0.4158428517129457    0.0803474571519009    0.4401273750540213
     0.4142158978008913    0.0791097803885864    0.6851645934255929
     0.1592793842651304    0.3292849665936177    0.9350053467747628
     0.4214488247737103    0.3408159405930374    0.1893591104581414
     0.1621470258184724    0.8241986155006641    0.4384278382426314
     0.1608701649815437    0.0833044966889715    0.4378855765012430
     0.9177464816373589    0.5858329729203172    0.1854267510668129
     0.3281164587507173    0.1671549171816905    0.8116571933742864
     0.0757600485512585    0.1665033740477154    0.5639935119436180
     0.6720271269949020    0.3334612345783553    0.1860415659878857
     0.5893861004112088    0.1651229601802350    0.5618861927578731
     0.8329662322006793    0.9128842595276538    0.3114678082881894
     0.3288568286391347    0.1660170719665789    0.3119162662463240
     0.1700678682772434    0.3372622747102664    0.6893755641210161
     0.6670496501780889    0.3371365218794304    0.6895864703233168
     0.4276623258012103    0.3343344871774903    0.9382537550405848
     0.8365883238373110    0.4229969938686728    0.5614614797585061
     0.8278967810311322    0.9154691099028176    0.0628473074889154
     0.1639650765787781    0.5788959473947470    0.1864612195275906
     0.9251748347337853    0.5863826619593590    0.6889643081615527
     0.5734892585366725    0.4140783809963419    0.5596460033681089
     0.8366646856230562    0.6672728115764929    0.3166182596190399
     0.5787672284330208    0.6694717308005277    0.5612728401057259
     0.9169110625643618    0.5816345203175981    0.4355064883167797
     0.4204097615557753    0.8354667736989519    0.1867827808671546
     0.6633723210682388    0.8261372121616127    0.4405082274755708
     0.6632399062599659    0.5832004552820279    0.4382416568910700
     0.3370942400924729    0.4188786141278341    0.5612231377026116
     0.1626344573653204    0.5775552970452897    0.4402206743132004
     0.8386593355161416    0.1666129373694940    0.8146985577156275
     0.6684804592892102    0.3440231977765147    0.4374454454140629
     0.6569218319079532    0.8306688679258920    0.1865153431826732
     0.5950846051831126    0.4252873407588515    0.0610871116730426
     0.4216913302225258    0.5901399435215742    0.1896710331113483
     0.0773656129776374    0.9117204252030319    0.3132952529979675
     0.5858968462826468    0.4207832055627688    0.8136800893038153
     0.4171993106736980    0.8277240873389681    0.6856067221633130
     0.4033238655140251    0.0712846766316094    0.9372149853840448
     0.4184092978091485    0.5817375553453701    0.4405346301431865
     0.6753757359986021    0.0751972447077684    0.9364090787470163
     0.9136002349526854    0.8332679179508653    0.9355621189221160
     0.6810893213408927    0.3519134062280020    0.9369272514420806
     0.0776775683786223    0.6597408873289456    0.3146371977259881
     0.4240128715382175    0.5930970432617046    0.9349442350846897
     0.1592355188598989    0.0796668346119505    0.9358365394696387
     0.1503508968844076    0.0764309384036217    0.1889919091125271
     0.0806168749554962    0.4148310326985613    0.3145630104006859
     0.3329092086013051    0.9123171063373731    0.3150664709494891
     0.8372634586867063    0.1679526350593889    0.3102401347251966
     0.0780164170776635    0.1679173309936791    0.3141760232377247
     0.4234354402748878    0.8402785573924448    0.9353995172930477
     0.6648823151107353    0.8352902558452234    0.6863061416917584
     0.8293757384304798    0.9169706444167934    0.5609215904422793
     0.1647124512383208    0.5841397249744312    0.9343380659225242
     0.4170360090487294    0.5918672572892515    0.6846229435718089
     0.9091840188124332    0.3315103624448857    0.9367573602029304
     0.0778146084039023    0.1642175756190544    0.0616355753786701
     0.9061642328154477    0.0767079724523655    0.6897344728295406
     0.5835778767705089    0.9178720794428016    0.0603193491059266
     0.0814458310181296    0.6644553832515038    0.8129167049636309
     0.0868764171208185    0.6644116376553652    0.5650408578339999
     0.4159007818592302    0.3347558165284884    0.6839234849625103
     0.9184644944041807    0.8317916653957484    0.1879097526160457
     0.8395827834397320    0.4177486289234021    0.0597202112713418
     0.1670484047927510    0.0807470378613422    0.6867526279559176
     0.4190081739306370    0.3382770889377603    0.4374987734763073
     0.5851047479718510    0.6760806088652227    0.8124364502813834
     0.3313362653340902    0.6655435947130168    0.5621756461981298
     0.8281081945309997    0.9189004077931008    0.8144108394795517
     0.5830338726283597    0.6687273665139285    0.0603452250920664
     0.9219447477713764    0.5839138080248865    0.9383867187108581
     0.0956209777100333    0.4257886239018486    0.5630635640688739
     0.3356495937605399    0.6674464613887938    0.8124097515435393
     0.6648873888252217    0.5872478314117716    0.9374492012399644
     0.5889338364090007    0.4235796352087134    0.3163173924094691
     0.6756491830258510    0.0812468738067703    0.1841917881025807
     0.6637241608088127    0.8307098838196431    0.9362697677479865
     0.3362715897921558    0.4217134213895106    0.3163983259764032
     0.9158484122809900    0.0809337797436865    0.9364958927884265
     0.0823145175528187    0.9175319088652892    0.8142956223882529
     0.5810201522545712    0.9131204537693636    0.5636080575604770
     0.8270224750432086    0.1530517558746851    0.5643299101079599
     0.0799576867902913    0.4209891728475731    0.8137202515168140
     0.3323143077780643    0.1735435465363152    0.5629416390300067
     0.9149495828017723    0.3286226055836188    0.1874615007825549
     0.3341156550309404    0.9124602430249765    0.0583191009683022
     0.9143035394173471    0.8338589681229398    0.4380517587253173
     0.0729966464564366    0.4134852322121956    0.0594514119075598
     0.0837995661753661    0.6656096385422953    0.0578122631720265
     0.0906356942684815    0.9201484966809970    0.5642844075926108
     0.9157555411366350    0.0860262781373578    0.1870609593405567
     0.1631751436831119    0.8257417190975951    0.9358721734274248
     0.3285252232638274    0.9075421050593695    0.5644404653298882
     0.5812535938460941    0.6630286056551399    0.3161759911564236
     0.1719534099653720    0.5901116424451844    0.6890254201537517
     0.8388864326392264    0.1715960159623989    0.0608133037799946
     0.6729510739623918    0.0779189520057207    0.4396501566736202
     0.8373917773182897    0.4216669553469434    0.3141304813861162
     0.9086723854559323    0.0789697892922376    0.4368111314238994
     0.1619582353989813    0.8279210063609078    0.6870027288969855
     0.1730797552659545    0.3408904069392645    0.4370542757823474
     0.4186251297986726    0.8318913381882188    0.4423968295169988
     0.0723025192426719    0.1548496549888453    0.8111796586393164
     0.8310918012569289    0.6657125279659778    0.0572165294010974
     0.5865613859064162    0.9139031770335340    0.8123274210907537
     0.6658847971669195    0.0764185760375848    0.6899244457184291
     0.8401518809077079    0.4216642331570989    0.8149592530558782
 
  0.00000000E+00  0.00000000E+00  0.00000000E+00
  0.00000000E+00  0.00000000E+00  0.00000000E+00
  0.00000000E+00  0.00000000E+00  0.00000000E+00
  0.00000000E+00  0.00000000E+00  0.00000000E+00
  0.00000000E+00  0.00000000E+00  0.00000000E+00
  0.00000000E+00  0.00000000E+00  0.00000000E+00
  0.00000000E+00  0.00000000E+00  0.00000000E+00
  0.00000000E+00  0.00000000E+00  0.00000000E+00
  0.00000000E+00  0.00000000E+00  0.00000000E+00
  0.00000000E+00  0.00000000E+00  0.00000000E+00
  0.00000000E+00  0.00000000E+00  0.00000000E+00
  0.00000000E+00  0.00000000E+00  0.00000000E+00
  0.00000000E+00  0.00000000E+00  0.00000000E+00
  0.00000000E+00  0.00000000E+00  0.00000000E+00
  0.00000000E+00  0.00000000E+00  0.00000000E+00
  0.00000000E+00  0.00000000E+00  0.00000000E+00
  0.00000000E+00  0.00000000E+00  0.00000000E+00
  0.00000000E+00  0.00000000E+00  0.00000000E+00
  0.00000000E+00  0.00000000E+00  0.00000000E+00
  0.00000000E+00  0.00000000E+00  0.00000000E+00
  0.00000000E+00  0.00000000E+00  0.00000000E+00
  0.00000000E+00  0.00000000E+00  0.00000000E+00
  0.00000000E+00  0.00000000E+00  0.00000000E+00
  0.00000000E+00  0.00000000E+00  0.00000000E+00
  0.00000000E+00  0.00000000E+00  0.00000000E+00
  0.00000000E+00  0.00000000E+00  0.00000000E+00
  0.00000000E+00  0.00000000E+00  0.00000000E+00
  0.00000000E+00  0.00000000E+00  0.00000000E+00
  0.00000000E+00  0.00000000E+00  0.00000000E+00
  0.00000000E+00  0.00000000E+00  0.00000000E+00
  0.00000000E+00  0.00000000E+00  0.00000000E+00
  0.00000000E+00  0.00000000E+00  0.00000000E+00
  0.00000000E+00  0.00000000E+00  0.00000000E+00
  0.00000000E+00  0.00000000E+00  0.00000000E+00
  0.00000000E+00  0.00000000E+00  0.00000000E+00
  0.00000000E+00  0.00000000E+00  0.00000000E+00
  0.00000000E+00  0.00000000E+00  0.00000000E+00
  0.00000000E+00  0.00000000E+00  0.00000000E+00
  0.00000000E+00  0.00000000E+00  0.00000000E+00
  0.00000000E+00  0.00000000E+00  0.00000000E+00
  0.00000000E+00  0.00000000E+00  0.00000000E+00
  0.00000000E+00  0.00000000E+00  0.00000000E+00
  0.00000000E+00  0.00000000E+00  0.00000000E+00
  0.00000000E+00  0.00000000E+00  0.00000000E+00
  0.00000000E+00  0.00000000E+00  0.00000000E+00
  0.00000000E+00  0.00000000E+00  0.00000000E+00
  0.00000000E+00  0.00000000E+00  0.00000000E+00
  0.00000000E+00  0.00000000E+00  0.00000000E+00
  0.00000000E+00  0.00000000E+00  0.00000000E+00
  0.00000000E+00  0.00000000E+00  0.00000000E+00
  0.00000000E+00  0.00000000E+00  0.00000000E+00
  0.00000000E+00  0.00000000E+00  0.00000000E+00
  0.00000000E+00  0.00000000E+00  0.00000000E+00
  0.00000000E+00  0.00000000E+00  0.00000000E+00
  0.00000000E+00  0.00000000E+00  0.00000000E+00
  0.00000000E+00  0.00000000E+00  0.00000000E+00
  0.00000000E+00  0.00000000E+00  0.00000000E+00
  0.00000000E+00  0.00000000E+00  0.00000000E+00
  0.00000000E+00  0.00000000E+00  0.00000000E+00
  0.00000000E+00  0.00000000E+00  0.00000000E+00
  0.00000000E+00  0.00000000E+00  0.00000000E+00
  0.00000000E+00  0.00000000E+00  0.00000000E+00
  0.00000000E+00  0.00000000E+00  0.00000000E+00
  0.00000000E+00  0.00000000E+00  0.00000000E+00
  0.00000000E+00  0.00000000E+00  0.00000000E+00
  0.00000000E+00  0.00000000E+00  0.00000000E+00
  0.00000000E+00  0.00000000E+00  0.00000000E+00
  0.00000000E+00  0.00000000E+00  0.00000000E+00
  0.00000000E+00  0.00000000E+00  0.00000000E+00
  0.00000000E+00  0.00000000E+00  0.00000000E+00
  0.00000000E+00  0.00000000E+00  0.00000000E+00
  0.00000000E+00  0.00000000E+00  0.00000000E+00
  0.00000000E+00  0.00000000E+00  0.00000000E+00
  0.00000000E+00  0.00000000E+00  0.00000000E+00
  0.00000000E+00  0.00000000E+00  0.00000000E+00
  0.00000000E+00  0.00000000E+00  0.00000000E+00
  0.00000000E+00  0.00000000E+00  0.00000000E+00
  0.00000000E+00  0.00000000E+00  0.00000000E+00
  0.00000000E+00  0.00000000E+00  0.00000000E+00
  0.00000000E+00  0.00000000E+00  0.00000000E+00
  0.00000000E+00  0.00000000E+00  0.00000000E+00
  0.00000000E+00  0.00000000E+00  0.00000000E+00
  0.00000000E+00  0.00000000E+00  0.00000000E+00
  0.00000000E+00  0.00000000E+00  0.00000000E+00
  0.00000000E+00  0.00000000E+00  0.00000000E+00
  0.00000000E+00  0.00000000E+00  0.00000000E+00
  0.00000000E+00  0.00000000E+00  0.00000000E+00
  0.00000000E+00  0.00000000E+00  0.00000000E+00
  0.00000000E+00  0.00000000E+00  0.00000000E+00
  0.00000000E+00  0.00000000E+00  0.00000000E+00
  0.00000000E+00  0.00000000E+00  0.00000000E+00
  0.00000000E+00  0.00000000E+00  0.00000000E+00
  0.00000000E+00  0.00000000E+00  0.00000000E+00
  0.00000000E+00  0.00000000E+00  0.00000000E+00
  0.00000000E+00  0.00000000E+00  0.00000000E+00
  0.00000000E+00  0.00000000E+00  0.00000000E+00
  0.00000000E+00  0.00000000E+00  0.00000000E+00
  0.00000000E+00  0.00000000E+00  0.00000000E+00
  0.00000000E+00  0.00000000E+00  0.00000000E+00
  0.00000000E+00  0.00000000E+00  0.00000000E+00
  0.00000000E+00  0.00000000E+00  0.00000000E+00
  0.00000000E+00  0.00000000E+00  0.00000000E+00
  0.00000000E+00  0.00000000E+00  0.00000000E+00
  0.00000000E+00  0.00000000E+00  0.00000000E+00
  0.00000000E+00  0.00000000E+00  0.00000000E+00
  0.00000000E+00  0.00000000E+00  0.00000000E+00
  0.00000000E+00  0.00000000E+00  0.00000000E+00
  0.00000000E+00  0.00000000E+00  0.00000000E+00
  0.00000000E+00  0.00000000E+00  0.00000000E+00
  0.00000000E+00  0.00000000E+00  0.00000000E+00
  0.00000000E+00  0.00000000E+00  0.00000000E+00
  0.00000000E+00  0.00000000E+00  0.00000000E+00
  0.00000000E+00  0.00000000E+00  0.00000000E+00
  0.00000000E+00  0.00000000E+00  0.00000000E+00
  0.00000000E+00  0.00000000E+00  0.00000000E+00
  0.00000000E+00  0.00000000E+00  0.00000000E+00
  0.00000000E+00  0.00000000E+00  0.00000000E+00
  0.00000000E+00  0.00000000E+00  0.00000000E+00
  0.00000000E+00  0.00000000E+00  0.00000000E+00
  0.00000000E+00  0.00000000E+00  0.00000000E+00
  0.00000000E+00  0.00000000E+00  0.00000000E+00
  0.00000000E+00  0.00000000E+00  0.00000000E+00
  0.00000000E+00  0.00000000E+00  0.00000000E+00
  0.00000000E+00  0.00000000E+00  0.00000000E+00
  0.00000000E+00  0.00000000E+00  0.00000000E+00
  0.00000000E+00  0.00000000E+00  0.00000000E+00
  0.00000000E+00  0.00000000E+00  0.00000000E+00
  0.00000000E+00  0.00000000E+00  0.00000000E+00
