Nb Ti                                   
    1.000000000000000     
    11.2380069212270595   -1.1050838445094531   -0.0407014673727900
    -6.4001413556881248   11.4771740554435286    0.1412722825560619
     0.0619211344867922   -0.2615251069345370   18.7040872370314339
  Nb              Ti            
   104    24
Direct
     0.6254406312927171    0.0617978655030199    0.9377323876867361
     0.6282092540695290    0.8158376347479893    0.6859144033112250
     0.6231288299223852    0.4397992324038672    0.5622273804325031
     0.1227983619954291    0.9393885041478556    0.8115497221323522
     0.6243541357315044    0.4355803897783614    0.3136796802015265
     0.1232504814858236    0.3091406526969730    0.4360402121428518
     0.6292521070513998    0.3135121970188228    0.9377656507379931
     0.6272051504914492    0.5629261956562275    0.4385779766339796
     0.6213254658208078    0.0602140883062840    0.6885928169055366
     0.6258261760951644    0.3142613799336442    0.6852267986482981
     0.6208842643812281    0.6858234304226990    0.3120907925515917
     0.6226058053231869    0.4355571125234661    0.8137814986703971
     0.8739655507269035    0.3115609225115009    0.6875799202924139
     0.8744244958002971    0.3111958862376534    0.4373893935624314
     0.3732223659791210    0.9355633919811607    0.0597494090865302
     0.3759226459821872    0.9412718675882669    0.5633144868885928
     0.1265707550389527    0.1860218665908887    0.3116649844070856
     0.3725833407541705    0.1824385702086494    0.3141329842456575
     0.1234271473143768    0.8136264136557683    0.6875930779527375
     0.8741808604237039    0.8128486271143859    0.6866706027648654
     0.6258818812181831    0.3159828067785487    0.1874736808195063
     0.8796599592720881    0.4374424470240730    0.0640593600765842
     0.6231727858873753    0.1880486737998328    0.3128315091099201
     0.3743163269113611    0.4361526096913673    0.0651839754144928
     0.6204356976453171    0.9351724035179423    0.5609489742964676
     0.1249726169581621    0.9374661524455178    0.0634176126912786
     0.6267390994713877    0.3141967516628626    0.4405637926786259
     0.8758632356605176    0.4384333347524400    0.8129277347557863
     0.3755642662643455    0.6888325050676903    0.5628252975869258
     0.1240626925528558    0.0582304150474579    0.9378914289681419
     0.3748604788727221    0.4371695175873487    0.3112772629605352
     0.3774398794365761    0.0666586672053268    0.9374876891965234
     0.8804140112225509    0.5646516946456345    0.4358661694509901
     0.1225231201536093    0.9339340186252076    0.3118884247996382
     0.3697051025075789    0.8074594466156599    0.6868177331622936
     0.6262664189174034    0.8079469268926209    0.1871851732496533
     0.8769272600860016    0.0643059272225478    0.6886453774174313
     0.6248195118081898    0.0620774665325538    0.4343439486026639
     0.1304253347718094    0.4429833153140082    0.3137650052442542
     0.8701138864699027    0.8099411926535809    0.4374399390796933
     0.6234032968035088    0.8118991863017302    0.9377189790945072
     0.3739253204485020    0.4343110062086182    0.5620979645920522
     0.1272726530974563    0.6896745954600932    0.0642643347157265
     0.1211720916224110    0.1881322807481821    0.5622511017976936
     0.3774657223601475    0.5661202056016726    0.4386708014802544
     0.1204734434853115    0.5605483952216188    0.6848795714196922
     0.1287762758488219    0.4411791094227390    0.8108221518789505
     0.8685187967575458    0.3080182250297443    0.1877995251028721
     0.3722366756493645    0.3132317924802585    0.6891161508971098
     0.3754033992158802    0.3128586892649088    0.1884095827113032
     0.6238579076731237    0.9368211026169638    0.0655839777108052
     0.1250914549143738    0.0622630179292022    0.6836840156091207
     0.8746231467899771    0.1870110374698035    0.5628202168114464
     0.1277221676259424    0.0650188816204378    0.1878185911008765
     0.1208412434593626    0.3127509491755459    0.9392004442903514
     0.1258625388303753    0.8112747849480124    0.1887258998959355
     0.8781105248861235    0.4355476075196001    0.3112880145556693
     0.6251563330564626    0.5619338829858118    0.9378789918131639
     0.3748909282185229    0.3120863481381776    0.4363539844495569
     0.6302268705815054    0.5632956447712635    0.6869972881916120
     0.6214236571488988    0.6854693522728652    0.8104499651197531
     0.3749071186598300    0.0633446920023858    0.6871211492957923
     0.3778282322201776    0.0610942996251127    0.4376042073035282
     0.8761278195983825    0.9403623614813897    0.3141986600212919
     0.6229497860412606    0.1866992323604215    0.0630985348819177
     0.8687353532718852    0.6858275931394456    0.3112111335214439
     0.3738029367276994    0.6859552907026912    0.0620688317396898
     0.3736876123262453    0.5582742171271333    0.9375401993781056
     0.1250906885638340    0.3143856161643603    0.6875289510085379
     0.8749845590549367    0.1893468248426713    0.8128856639942058
     0.3748999657077275    0.1868942385220227    0.0626109696692027
     0.3764320570852833    0.6915784397805089    0.3123880288153783
     0.8743934135813932    0.9377430806683800    0.8118271441071192
     0.1289353846481160    0.4406742714857380    0.5629043384776702
     0.6246992411686264    0.1876484041741401    0.8120586922105425
     0.8728267326216296    0.8133057105374187    0.9380291896118287
     0.3773402660986498    0.6912047327891144    0.8123050698065407
     0.8803665121323042    0.5663786450177901    0.6895889796743155
     0.3763023919115098    0.1836409245979991    0.8117104591942071
     0.6229234079455552    0.4355896596312441    0.0610988073411408
     0.8743173927946768    0.6873651856692599    0.0626035969990125
     0.8789405561152388    0.5651550408126169    0.1890240118078924
     0.1267470610110182    0.5653957047420548    0.9381765431978746
     0.3750007654769606    0.8105643821828350    0.9364024372789330
     0.1233352948661444    0.5590722501650564    0.4389110277133323
     0.6258117924170921    0.9358933011932503    0.3105891891520558
     0.6273175348026969    0.1877101571534835    0.5617282807402010
     0.1276622376449599    0.1877115913583018    0.0624092979322479
     0.6224356679297358    0.6853392101818344    0.0633787611851044
     0.3751179545659745    0.0592790139897747    0.1874310713959706
     0.8787489703387940    0.0644366777136995    0.9357958234946637
     0.8748474342441322    0.6894016359542657    0.8138426211492986
     0.1303129220198536    0.4400158629374545    0.0642072587710763
     0.1265720189380250    0.9328786502294002    0.5618660385290368
     0.8766808986441578    0.3138185741599996    0.9377269116502095
     0.6250247764714895    0.0634823928928230    0.1894589799259680
     0.8726446300579520    0.0620791957843232    0.4375166968325504
     0.8772519512806553    0.5643926251252487    0.9375994289951706
     0.3764370347862750    0.4385148289175415    0.8122193791918170
     0.6268987870393230    0.8138160046696697    0.4385808106828025
     0.8774289374531191    0.8172297688935367    0.1867257234821771
     0.1215097283079876    0.8163977121783941    0.4366946568142390
     0.8744957132514067    0.9406015134333825    0.0616140671637012
     0.6269478026146532    0.9375313159578069    0.8119145928208095
     0.8768076221964008    0.9364056034178972    0.5615874912864622
     0.1233788572675939    0.6861049645671982    0.8102888678810973
     0.1290129449839656    0.6923316101447556    0.5598673483750811
     0.3757028356595098    0.5653793361951969    0.1884543974899123
     0.3685555046600488    0.8095472115044872    0.4390450712124170
     0.1187506941389482    0.5561583442752399    0.1878522219375658
     0.1290747404552441    0.1890522448557498    0.8133349356627625
     0.1215967226935687    0.3135405315290422    0.1885994536538854
     0.8744512935709279    0.0607796302499633    0.1873517151078333
     0.3799472004737594    0.5654992587870764    0.6860525114364097
     0.1215092315283890    0.6856508852120266    0.3150485577838527
     0.1280725973812212    0.8151218412273989    0.9359546065435028
     0.3748923193412612    0.9344596526377719    0.3119379801130560
     0.8726083813561467    0.6851431679036423    0.5626349140422420
     0.8778815470307602    0.1894024249559261    0.3116386897439701
     0.3732565524292733    0.9366218722248593    0.8133184868261863
     0.1233801134737639    0.0604952519060453    0.4394592525357079
     0.3723429451868051    0.1877810666265648    0.5617324239546870
     0.8757155499220307    0.4416926423798648    0.5632876009063519
     0.6200272169266436    0.6840151824965902    0.5641014867068984
     0.6265180086443179    0.5625123516114191    0.1875219016299098
     0.3714902086859561    0.3094797431991254    0.9369683946580483
     0.8789121902436067    0.1898758306601339    0.0624845406957450
     0.3771983870707020    0.8100207711892160    0.1863351108025844
 
  0.00000000E+00  0.00000000E+00  0.00000000E+00
  0.00000000E+00  0.00000000E+00  0.00000000E+00
  0.00000000E+00  0.00000000E+00  0.00000000E+00
  0.00000000E+00  0.00000000E+00  0.00000000E+00
  0.00000000E+00  0.00000000E+00  0.00000000E+00
  0.00000000E+00  0.00000000E+00  0.00000000E+00
  0.00000000E+00  0.00000000E+00  0.00000000E+00
  0.00000000E+00  0.00000000E+00  0.00000000E+00
  0.00000000E+00  0.00000000E+00  0.00000000E+00
  0.00000000E+00  0.00000000E+00  0.00000000E+00
  0.00000000E+00  0.00000000E+00  0.00000000E+00
  0.00000000E+00  0.00000000E+00  0.00000000E+00
  0.00000000E+00  0.00000000E+00  0.00000000E+00
  0.00000000E+00  0.00000000E+00  0.00000000E+00
  0.00000000E+00  0.00000000E+00  0.00000000E+00
  0.00000000E+00  0.00000000E+00  0.00000000E+00
  0.00000000E+00  0.00000000E+00  0.00000000E+00
  0.00000000E+00  0.00000000E+00  0.00000000E+00
  0.00000000E+00  0.00000000E+00  0.00000000E+00
  0.00000000E+00  0.00000000E+00  0.00000000E+00
  0.00000000E+00  0.00000000E+00  0.00000000E+00
  0.00000000E+00  0.00000000E+00  0.00000000E+00
  0.00000000E+00  0.00000000E+00  0.00000000E+00
  0.00000000E+00  0.00000000E+00  0.00000000E+00
  0.00000000E+00  0.00000000E+00  0.00000000E+00
  0.00000000E+00  0.00000000E+00  0.00000000E+00
  0.00000000E+00  0.00000000E+00  0.00000000E+00
  0.00000000E+00  0.00000000E+00  0.00000000E+00
  0.00000000E+00  0.00000000E+00  0.00000000E+00
  0.00000000E+00  0.00000000E+00  0.00000000E+00
  0.00000000E+00  0.00000000E+00  0.00000000E+00
  0.00000000E+00  0.00000000E+00  0.00000000E+00
  0.00000000E+00  0.00000000E+00  0.00000000E+00
  0.00000000E+00  0.00000000E+00  0.00000000E+00
  0.00000000E+00  0.00000000E+00  0.00000000E+00
  0.00000000E+00  0.00000000E+00  0.00000000E+00
  0.00000000E+00  0.00000000E+00  0.00000000E+00
  0.00000000E+00  0.00000000E+00  0.00000000E+00
  0.00000000E+00  0.00000000E+00  0.00000000E+00
  0.00000000E+00  0.00000000E+00  0.00000000E+00
  0.00000000E+00  0.00000000E+00  0.00000000E+00
  0.00000000E+00  0.00000000E+00  0.00000000E+00
  0.00000000E+00  0.00000000E+00  0.00000000E+00
  0.00000000E+00  0.00000000E+00  0.00000000E+00
  0.00000000E+00  0.00000000E+00  0.00000000E+00
  0.00000000E+00  0.00000000E+00  0.00000000E+00
  0.00000000E+00  0.00000000E+00  0.00000000E+00
  0.00000000E+00  0.00000000E+00  0.00000000E+00
  0.00000000E+00  0.00000000E+00  0.00000000E+00
  0.00000000E+00  0.00000000E+00  0.00000000E+00
  0.00000000E+00  0.00000000E+00  0.00000000E+00
  0.00000000E+00  0.00000000E+00  0.00000000E+00
  0.00000000E+00  0.00000000E+00  0.00000000E+00
  0.00000000E+00  0.00000000E+00  0.00000000E+00
  0.00000000E+00  0.00000000E+00  0.00000000E+00
  0.00000000E+00  0.00000000E+00  0.00000000E+00
  0.00000000E+00  0.00000000E+00  0.00000000E+00
  0.00000000E+00  0.00000000E+00  0.00000000E+00
  0.00000000E+00  0.00000000E+00  0.00000000E+00
  0.00000000E+00  0.00000000E+00  0.00000000E+00
  0.00000000E+00  0.00000000E+00  0.00000000E+00
  0.00000000E+00  0.00000000E+00  0.00000000E+00
  0.00000000E+00  0.00000000E+00  0.00000000E+00
  0.00000000E+00  0.00000000E+00  0.00000000E+00
  0.00000000E+00  0.00000000E+00  0.00000000E+00
  0.00000000E+00  0.00000000E+00  0.00000000E+00
  0.00000000E+00  0.00000000E+00  0.00000000E+00
  0.00000000E+00  0.00000000E+00  0.00000000E+00
  0.00000000E+00  0.00000000E+00  0.00000000E+00
  0.00000000E+00  0.00000000E+00  0.00000000E+00
  0.00000000E+00  0.00000000E+00  0.00000000E+00
  0.00000000E+00  0.00000000E+00  0.00000000E+00
  0.00000000E+00  0.00000000E+00  0.00000000E+00
  0.00000000E+00  0.00000000E+00  0.00000000E+00
  0.00000000E+00  0.00000000E+00  0.00000000E+00
  0.00000000E+00  0.00000000E+00  0.00000000E+00
  0.00000000E+00  0.00000000E+00  0.00000000E+00
  0.00000000E+00  0.00000000E+00  0.00000000E+00
  0.00000000E+00  0.00000000E+00  0.00000000E+00
  0.00000000E+00  0.00000000E+00  0.00000000E+00
  0.00000000E+00  0.00000000E+00  0.00000000E+00
  0.00000000E+00  0.00000000E+00  0.00000000E+00
  0.00000000E+00  0.00000000E+00  0.00000000E+00
  0.00000000E+00  0.00000000E+00  0.00000000E+00
  0.00000000E+00  0.00000000E+00  0.00000000E+00
  0.00000000E+00  0.00000000E+00  0.00000000E+00
  0.00000000E+00  0.00000000E+00  0.00000000E+00
  0.00000000E+00  0.00000000E+00  0.00000000E+00
  0.00000000E+00  0.00000000E+00  0.00000000E+00
  0.00000000E+00  0.00000000E+00  0.00000000E+00
  0.00000000E+00  0.00000000E+00  0.00000000E+00
  0.00000000E+00  0.00000000E+00  0.00000000E+00
  0.00000000E+00  0.00000000E+00  0.00000000E+00
  0.00000000E+00  0.00000000E+00  0.00000000E+00
  0.00000000E+00  0.00000000E+00  0.00000000E+00
  0.00000000E+00  0.00000000E+00  0.00000000E+00
  0.00000000E+00  0.00000000E+00  0.00000000E+00
  0.00000000E+00  0.00000000E+00  0.00000000E+00
  0.00000000E+00  0.00000000E+00  0.00000000E+00
  0.00000000E+00  0.00000000E+00  0.00000000E+00
  0.00000000E+00  0.00000000E+00  0.00000000E+00
  0.00000000E+00  0.00000000E+00  0.00000000E+00
  0.00000000E+00  0.00000000E+00  0.00000000E+00
  0.00000000E+00  0.00000000E+00  0.00000000E+00
  0.00000000E+00  0.00000000E+00  0.00000000E+00
  0.00000000E+00  0.00000000E+00  0.00000000E+00
  0.00000000E+00  0.00000000E+00  0.00000000E+00
  0.00000000E+00  0.00000000E+00  0.00000000E+00
  0.00000000E+00  0.00000000E+00  0.00000000E+00
  0.00000000E+00  0.00000000E+00  0.00000000E+00
  0.00000000E+00  0.00000000E+00  0.00000000E+00
  0.00000000E+00  0.00000000E+00  0.00000000E+00
  0.00000000E+00  0.00000000E+00  0.00000000E+00
  0.00000000E+00  0.00000000E+00  0.00000000E+00
  0.00000000E+00  0.00000000E+00  0.00000000E+00
  0.00000000E+00  0.00000000E+00  0.00000000E+00
  0.00000000E+00  0.00000000E+00  0.00000000E+00
  0.00000000E+00  0.00000000E+00  0.00000000E+00
  0.00000000E+00  0.00000000E+00  0.00000000E+00
  0.00000000E+00  0.00000000E+00  0.00000000E+00
  0.00000000E+00  0.00000000E+00  0.00000000E+00
  0.00000000E+00  0.00000000E+00  0.00000000E+00
  0.00000000E+00  0.00000000E+00  0.00000000E+00
  0.00000000E+00  0.00000000E+00  0.00000000E+00
  0.00000000E+00  0.00000000E+00  0.00000000E+00
  0.00000000E+00  0.00000000E+00  0.00000000E+00
  0.00000000E+00  0.00000000E+00  0.00000000E+00
  0.00000000E+00  0.00000000E+00  0.00000000E+00
