Nb Ti                                   
    1.000000000000000     
    11.5131090889425174    0.7615375137379169   -0.0150265514153216
    -5.1033681925436483   10.3478601739704725    0.0123884461214425
    -0.0306124672894342    0.0003124262363069   18.1184808578802716
  Nb              Ti            
    28   100
Direct
     0.1774837771153785    0.8176884011194980    0.4373765576847520
     0.8250776474866294    0.6767773448706855    0.3135613995904038
     0.3123052599398206    0.6856695020079642    0.0651271162399828
     0.4386672030782380    0.5907585329824830    0.9351374339191388
     0.0644627728879553    0.6813483050897998    0.0636445285934968
     0.4320448261799901    0.0565553060621962    0.6872566720572847
     0.9319089677989987    0.8154431929808249    0.9358233530332718
     0.9321515128650699    0.5684176228133166    0.9400648693915302
     0.4197570198754145    0.5548205192696374    0.6855601544645320
     0.4277180306202201    0.3066645585920550    0.6858535075186101
     0.8233363566995220    0.1793262123158390    0.5639568512668498
     0.4267811263994259    0.5812063892658842    0.4356276209105339
     0.5619972792183822    0.4197291618438352    0.3156045112894885
     0.6743844607676912    0.3247732687245466    0.1822511642513279
     0.3287947335924544    0.9369933690567922    0.8165315937215575
     0.8196700932504271    0.6772185183374922    0.8074696402377545
     0.3243265572262679    0.9353715567839612    0.3145292106480516
     0.0688566861292295    0.4238289463185281    0.3127748221709126
     0.6802448839592615    0.8202588142954870    0.6867319143842898
     0.0686870738282381    0.1758940878721223    0.3116531583183054
     0.0776032279223403    0.1686397623646569    0.8160748345777676
     0.8302619600438421    0.1785155305441342    0.0638222168440324
     0.3189079058296526    0.9380288916387454    0.0646686740304608
     0.4286089275580945    0.8024848502083317    0.6860378357469924
     0.1801870753601213    0.8207083443691051    0.1907911535281602
     0.0676424380791186    0.9307625975998491    0.0593691104756318
     0.3202612329535403    0.9322716605417614    0.5578665497087624
     0.6850066056734730    0.0702453467040748    0.6875016875987824
     0.1684452601458449    0.3141149557143808    0.4384417204780509
     0.8187960538846161    0.9150406418457941    0.0655525491637328
     0.3223115588186781    0.4342688912121212    0.8178744855189423
     0.1800779072451320    0.3140870235116353    0.6886839828718161
     0.3358037657172209    0.1861791703326884    0.0635393153882949
     0.9328491248425944    0.3342080112375135    0.6888599786740496
     0.8170285920063696    0.6665308055561404    0.0635052157020725
     0.9257047929601636    0.0721291317977693    0.1849824073281782
     0.5758007986909848    0.4298056174754946    0.5629578592664197
     0.4343293255608145    0.8359331736974687    0.9374059749422857
     0.8181163165492766    0.4247452881633298    0.8151926064580961
     0.9177011581026489    0.5721981750490417    0.4355178253530769
     0.5749502369661489    0.9269340879661713    0.8096764424467529
     0.9226001913504581    0.5683275245081292    0.1882206674839442
     0.1827646900393970    0.8232419797234647    0.9368561580266048
     0.4215607950709058    0.3332912396283244    0.4389753231262595
     0.4268854169389272    0.0862920556256129    0.1893049722489170
     0.3197804125625297    0.4389518943423077    0.0627851507004007
     0.3233902931965603    0.6843681654689336    0.8123603870019371
     0.9283954052775348    0.8193781875096999    0.1866103682172590
     0.1823853445997166    0.5743783501274218    0.9351723225214635
     0.1722610138220290    0.5624524427235766    0.6871397717291262
     0.4339316874147182    0.0880094815075490    0.9379118293829796
     0.5658583739435226    0.4204261489019751    0.8120560620136713
     0.8303407483613917    0.1723362967634394    0.8120311010320193
     0.4273579219810242    0.8384362437856595    0.1874480717302122
     0.6795095819649558    0.5724329330464307    0.9343447535832751
     0.9389781682110875    0.0858407320720820    0.6883225935100352
     0.1656350154943428    0.3229285716785337    0.9385252448499933
     0.6782366163111097    0.0741297760591140    0.9382462020235576
     0.8187726464814379    0.1627443774500135    0.3112835415945053
     0.5727377562749625    0.6801359378811566    0.5614578098303725
     0.1773408068394295    0.0753608595918512    0.1847969731315360
     0.1669091274781787    0.3245971924201463    0.1875987375724688
     0.6684188089932999    0.5739394199288733    0.6870073732151741
     0.9323555212070200    0.8306022200746573    0.6887378917416143
     0.5795356923039613    0.9303369908951501    0.3121461769537848
     0.8252409081828495    0.9262643210820725    0.5648368025907878
     0.5819524436943311    0.1812437856786446    0.3111177447965808
     0.0734189522595837    0.6751190304965654    0.3136190468321500
     0.5705376677745978    0.9268240618631205    0.5636225429562599
     0.0678396636262905    0.6578166608695222    0.5614669490456773
     0.6752261851126172    0.5808089857220312    0.4366568301969260
     0.6724148951298626    0.5720988390321469    0.1912226931218147
     0.9240687288594658    0.0634701523766944    0.9398851112499647
     0.4274036791288464    0.5894038148728276    0.1892880399920872
     0.9138505093323537    0.3157485659018431    0.9369096054784976
     0.9201960199288145    0.3215436014567510    0.4353365199161224
     0.3293016364209337    0.6851783386603549    0.3138880040348399
     0.6835384016309450    0.8252590463888417    0.9354687846252846
     0.5677340349843338    0.6700877517622268    0.0623581409111312
     0.9265849174044190    0.8249600727705200    0.4376025545329161
     0.3185212591690389    0.4319088039815251    0.3117613679784934
     0.5741138264878097    0.9167281220711232    0.0620270854953833
     0.4189437765230102    0.3386050530554688    0.9404442607385205
     0.5776326692823327    0.6765909140428883    0.3145778261728788
     0.6736860687343224    0.0718226556264212    0.1846366637242942
     0.8303214748341008    0.9210849564879379    0.3103069237721237
     0.8342108177056117    0.4285342209232830    0.5624543141925240
     0.0815030280673135    0.9218228765315503    0.8142721428058528
     0.9196723844116088    0.0714563146358520    0.4370445134257118
     0.5714184025601807    0.6754612083785937    0.8078791520878141
     0.5722209348425621    0.4247751756301668    0.0627146316388121
     0.0716154934935872    0.4158593567998802    0.8154458232760693
     0.1824783474206357    0.8115684266859812    0.6876112070324160
     0.0833205158698464    0.1809634435051018    0.0626118430016569
     0.6744911300032836    0.0811157346099537    0.4389960667614403
     0.6821390035651554    0.3307284173026628    0.6841369834729933
     0.6729466729962067    0.3306024833045526    0.4401494732302161
     0.3257916628743198    0.4305328172136483    0.5576622205059661
     0.1764250594801942    0.5723860740007943    0.1929884087738595
     0.5751564483784232    0.1781146175323605    0.5635515044764371
     0.1720019401984889    0.5657622299956903    0.4371401082755627
     0.1819918050425291    0.0765800278025600    0.9388256586790029
     0.1846858277114935    0.0663899964697752    0.6873154516021788
     0.8280935026726375    0.9262743061050858    0.8077121177869496
     0.4291087404079132    0.0865118544817008    0.4359367181422961
     0.3207969405904874    0.1826111091394668    0.3138225523763954
     0.0802111711256532    0.9283488768967399    0.3109350985784435
     0.5782021970947834    0.1676482356602915    0.0622329167618151
     0.3224991468858252    0.6809776423393689    0.5592516161428807
     0.0734680711539407    0.1596516001874879    0.5617833197121469
     0.0682155178834268    0.6654647061858492    0.8144173973069493
     0.6824291438865622    0.8362483592427864    0.4362446167476322
     0.3325235824183898    0.1862233276803399    0.8157676436857744
     0.6613943745650558    0.3195630407404373    0.9379816231211248
     0.9201706464839344    0.3220069462236312    0.1900615350545060
     0.9228480506932466    0.5787530872590729    0.6885170676486202
     0.3262678954797857    0.1799880251349303    0.5579475624671626
     0.6723627182581708    0.8228253123523327    0.1895494501671740
     0.8124147958921555    0.4207086248525378    0.3116737888109207
     0.4200859868401782    0.3354757300132272    0.1875902268704414
     0.0761025516658492    0.4099993312495861    0.5614138163818978
     0.0694509152339390    0.4322673408244498    0.0620283496556080
     0.0713845055625491    0.9071430137652560    0.5645783844194007
     0.4313250078262374    0.8353762622740947    0.4369687111853326
     0.8233817212218797    0.6736030199359693    0.5637188289646863
     0.5854198589328820    0.1801544607957003    0.8089400205096785
     0.8219099943617764    0.4220910007874129    0.0596646196197298
     0.1703440477927260    0.0653500885031982    0.4392310274656497
 
  0.00000000E+00  0.00000000E+00  0.00000000E+00
  0.00000000E+00  0.00000000E+00  0.00000000E+00
  0.00000000E+00  0.00000000E+00  0.00000000E+00
  0.00000000E+00  0.00000000E+00  0.00000000E+00
  0.00000000E+00  0.00000000E+00  0.00000000E+00
  0.00000000E+00  0.00000000E+00  0.00000000E+00
  0.00000000E+00  0.00000000E+00  0.00000000E+00
  0.00000000E+00  0.00000000E+00  0.00000000E+00
  0.00000000E+00  0.00000000E+00  0.00000000E+00
  0.00000000E+00  0.00000000E+00  0.00000000E+00
  0.00000000E+00  0.00000000E+00  0.00000000E+00
  0.00000000E+00  0.00000000E+00  0.00000000E+00
  0.00000000E+00  0.00000000E+00  0.00000000E+00
  0.00000000E+00  0.00000000E+00  0.00000000E+00
  0.00000000E+00  0.00000000E+00  0.00000000E+00
  0.00000000E+00  0.00000000E+00  0.00000000E+00
  0.00000000E+00  0.00000000E+00  0.00000000E+00
  0.00000000E+00  0.00000000E+00  0.00000000E+00
  0.00000000E+00  0.00000000E+00  0.00000000E+00
  0.00000000E+00  0.00000000E+00  0.00000000E+00
  0.00000000E+00  0.00000000E+00  0.00000000E+00
  0.00000000E+00  0.00000000E+00  0.00000000E+00
  0.00000000E+00  0.00000000E+00  0.00000000E+00
  0.00000000E+00  0.00000000E+00  0.00000000E+00
  0.00000000E+00  0.00000000E+00  0.00000000E+00
  0.00000000E+00  0.00000000E+00  0.00000000E+00
  0.00000000E+00  0.00000000E+00  0.00000000E+00
  0.00000000E+00  0.00000000E+00  0.00000000E+00
  0.00000000E+00  0.00000000E+00  0.00000000E+00
  0.00000000E+00  0.00000000E+00  0.00000000E+00
  0.00000000E+00  0.00000000E+00  0.00000000E+00
  0.00000000E+00  0.00000000E+00  0.00000000E+00
  0.00000000E+00  0.00000000E+00  0.00000000E+00
  0.00000000E+00  0.00000000E+00  0.00000000E+00
  0.00000000E+00  0.00000000E+00  0.00000000E+00
  0.00000000E+00  0.00000000E+00  0.00000000E+00
  0.00000000E+00  0.00000000E+00  0.00000000E+00
  0.00000000E+00  0.00000000E+00  0.00000000E+00
  0.00000000E+00  0.00000000E+00  0.00000000E+00
  0.00000000E+00  0.00000000E+00  0.00000000E+00
  0.00000000E+00  0.00000000E+00  0.00000000E+00
  0.00000000E+00  0.00000000E+00  0.00000000E+00
  0.00000000E+00  0.00000000E+00  0.00000000E+00
  0.00000000E+00  0.00000000E+00  0.00000000E+00
  0.00000000E+00  0.00000000E+00  0.00000000E+00
  0.00000000E+00  0.00000000E+00  0.00000000E+00
  0.00000000E+00  0.00000000E+00  0.00000000E+00
  0.00000000E+00  0.00000000E+00  0.00000000E+00
  0.00000000E+00  0.00000000E+00  0.00000000E+00
  0.00000000E+00  0.00000000E+00  0.00000000E+00
  0.00000000E+00  0.00000000E+00  0.00000000E+00
  0.00000000E+00  0.00000000E+00  0.00000000E+00
  0.00000000E+00  0.00000000E+00  0.00000000E+00
  0.00000000E+00  0.00000000E+00  0.00000000E+00
  0.00000000E+00  0.00000000E+00  0.00000000E+00
  0.00000000E+00  0.00000000E+00  0.00000000E+00
  0.00000000E+00  0.00000000E+00  0.00000000E+00
  0.00000000E+00  0.00000000E+00  0.00000000E+00
  0.00000000E+00  0.00000000E+00  0.00000000E+00
  0.00000000E+00  0.00000000E+00  0.00000000E+00
  0.00000000E+00  0.00000000E+00  0.00000000E+00
  0.00000000E+00  0.00000000E+00  0.00000000E+00
  0.00000000E+00  0.00000000E+00  0.00000000E+00
  0.00000000E+00  0.00000000E+00  0.00000000E+00
  0.00000000E+00  0.00000000E+00  0.00000000E+00
  0.00000000E+00  0.00000000E+00  0.00000000E+00
  0.00000000E+00  0.00000000E+00  0.00000000E+00
  0.00000000E+00  0.00000000E+00  0.00000000E+00
  0.00000000E+00  0.00000000E+00  0.00000000E+00
  0.00000000E+00  0.00000000E+00  0.00000000E+00
  0.00000000E+00  0.00000000E+00  0.00000000E+00
  0.00000000E+00  0.00000000E+00  0.00000000E+00
  0.00000000E+00  0.00000000E+00  0.00000000E+00
  0.00000000E+00  0.00000000E+00  0.00000000E+00
  0.00000000E+00  0.00000000E+00  0.00000000E+00
  0.00000000E+00  0.00000000E+00  0.00000000E+00
  0.00000000E+00  0.00000000E+00  0.00000000E+00
  0.00000000E+00  0.00000000E+00  0.00000000E+00
  0.00000000E+00  0.00000000E+00  0.00000000E+00
  0.00000000E+00  0.00000000E+00  0.00000000E+00
  0.00000000E+00  0.00000000E+00  0.00000000E+00
  0.00000000E+00  0.00000000E+00  0.00000000E+00
  0.00000000E+00  0.00000000E+00  0.00000000E+00
  0.00000000E+00  0.00000000E+00  0.00000000E+00
  0.00000000E+00  0.00000000E+00  0.00000000E+00
  0.00000000E+00  0.00000000E+00  0.00000000E+00
  0.00000000E+00  0.00000000E+00  0.00000000E+00
  0.00000000E+00  0.00000000E+00  0.00000000E+00
  0.00000000E+00  0.00000000E+00  0.00000000E+00
  0.00000000E+00  0.00000000E+00  0.00000000E+00
  0.00000000E+00  0.00000000E+00  0.00000000E+00
  0.00000000E+00  0.00000000E+00  0.00000000E+00
  0.00000000E+00  0.00000000E+00  0.00000000E+00
  0.00000000E+00  0.00000000E+00  0.00000000E+00
  0.00000000E+00  0.00000000E+00  0.00000000E+00
  0.00000000E+00  0.00000000E+00  0.00000000E+00
  0.00000000E+00  0.00000000E+00  0.00000000E+00
  0.00000000E+00  0.00000000E+00  0.00000000E+00
  0.00000000E+00  0.00000000E+00  0.00000000E+00
  0.00000000E+00  0.00000000E+00  0.00000000E+00
  0.00000000E+00  0.00000000E+00  0.00000000E+00
  0.00000000E+00  0.00000000E+00  0.00000000E+00
  0.00000000E+00  0.00000000E+00  0.00000000E+00
  0.00000000E+00  0.00000000E+00  0.00000000E+00
  0.00000000E+00  0.00000000E+00  0.00000000E+00
  0.00000000E+00  0.00000000E+00  0.00000000E+00
  0.00000000E+00  0.00000000E+00  0.00000000E+00
  0.00000000E+00  0.00000000E+00  0.00000000E+00
  0.00000000E+00  0.00000000E+00  0.00000000E+00
  0.00000000E+00  0.00000000E+00  0.00000000E+00
  0.00000000E+00  0.00000000E+00  0.00000000E+00
  0.00000000E+00  0.00000000E+00  0.00000000E+00
  0.00000000E+00  0.00000000E+00  0.00000000E+00
  0.00000000E+00  0.00000000E+00  0.00000000E+00
  0.00000000E+00  0.00000000E+00  0.00000000E+00
  0.00000000E+00  0.00000000E+00  0.00000000E+00
  0.00000000E+00  0.00000000E+00  0.00000000E+00
  0.00000000E+00  0.00000000E+00  0.00000000E+00
  0.00000000E+00  0.00000000E+00  0.00000000E+00
  0.00000000E+00  0.00000000E+00  0.00000000E+00
  0.00000000E+00  0.00000000E+00  0.00000000E+00
  0.00000000E+00  0.00000000E+00  0.00000000E+00
  0.00000000E+00  0.00000000E+00  0.00000000E+00
  0.00000000E+00  0.00000000E+00  0.00000000E+00
  0.00000000E+00  0.00000000E+00  0.00000000E+00
  0.00000000E+00  0.00000000E+00  0.00000000E+00
  0.00000000E+00  0.00000000E+00  0.00000000E+00
  0.00000000E+00  0.00000000E+00  0.00000000E+00
