 V                                      
    1.000000000000000     
    11.9602901753904227    0.0000000333919440    0.0000000317202924
     0.0000000443744925   11.9602912620509532    0.0000001369927896
     0.0000000262933477    0.0000001279127762   11.9602907894008421
   V 
   128
Direct
 -0.0000000440901892  0.7499998397495989  0.5000000141956585
  0.2499997959360764  0.2500001611695314  0.2500000451709668
  0.2499998376523578  0.2500000891759442  0.0000000295575888
  0.3749998964216598  0.3750000111534859  0.3749999288645074
  0.4999999653433617  0.2500002293111275  0.2500000688309587
  0.2499998117173484  0.7499998318519115  0.5000000882000265
  0.7500002102083744  0.2499999969747709  0.2500001048731991
  0.7500001696972676  0.7499999314559073  0.4999999628988889
  0.6250000678697359  0.1250001008578010  0.1249999835002454
  0.8750001566099188  0.6249998931766699  0.1249999926365043
  0.8750000876595938  0.3750001370795633  0.3750001103396080
  0.0000000161682500  0.5000000196233713  0.2500001597723165
 -0.0000000622829140  0.7499998153404746 -0.0000000138793851
  0.1249999219211394  0.6249997477451212  0.3749999301224332
  0.4999999781491368  0.4999998927896234  0.5000000536078523
  0.2499998461784616  0.4999998640388117  0.2499999222287761
  0.2499998698096852  0.7499999661291182  0.0000000121145337
  0.6250000895494350  0.6249998326145351  0.3749999923137760
  0.7500001915349593  0.4999999348415113  0.2500002228241280
  0.6249999211801283  0.3750000498766109  0.1250001000103133
  0.3749999833671968  0.8749998447666617  0.1249999645312140
  0.8750001169015215  0.6249997292354921  0.3750000571923037
 -0.0000000413648868  0.7499998018273007  0.2500000326738904
  0.1249999975145886  0.8749999510242821  0.3749999183947585
  0.2499998176961115  0.7499998363171083  0.2499999892869862
  0.7500001960272357  0.2499999570273414 -0.0000000120284122
  0.6249999520068212  0.8749999683675888  0.1249999369632614
  0.3750000191677228  0.8749999592146143  0.3749999044692517
  0.5000000039168229  0.7499999957369626  0.2499999700402697
  0.1250000420430918  0.8749997948003888  0.1250000433192946
  0.6249999504086121  0.8749999208109582  0.3750000196919641
  0.3749998653227486  0.6249997388453303  0.6250001298924831
  0.4999999444640159  0.4999999214468860  0.0000000619353904
  0.8750001150172415  0.3749999962159937  0.1250000375618962
  0.8750000285307883  0.8749998889236705  0.3750000387366371
 -0.0000000833034482  0.0000001121551050  0.4999999944064026
 -0.0000001189559199  0.0000002547305670  0.2500000512519927
  0.0000000747746807  0.5000000259234048 -0.0000000044796872
  0.1250000152078872  0.1250002465032566  0.3749999192762440
  0.5000000479957702  0.0000001444981049  0.5000000727655299
  0.2499997632281996  0.0000001513174294  0.2500000551700847
  0.1250000634261023  0.6249998126413039  0.1250000152802803
  0.3749998732702460  0.1250002116026428  0.3750000382466635
  0.5000001228438216  0.0000000160971841  0.2500000172474443
  0.1250000889123517  0.3750001838471009  0.6249999062500403
  0.2499998500604228  0.4999999291849924  0.7499998393716740
  0.1249999988152706  0.3750000540504765  0.3750000372463362
  0.1250000956632647  0.6249998334107509  0.8750000653000941
  0.6249999738933771  0.1250001534382980  0.3749999525137983
  0.7500002166593325  0.0000001001209358  0.2499999650263805
  0.6249999985739702  0.3750000451665906  0.6249999774636780
  0.4999999796219268  0.2499999564605957  0.7499998597941294
  0.3749998211489964  0.3750001161599288  0.8749999367336746
  0.7500002263534320  0.2500000978739039  0.5000000292425606
  0.4999999562487700 -0.0000000563059271 -0.0000001068233035
  0.1250001368090916  0.3750001150393026  0.1250000421096217
  0.3749998793136998  0.6249998534198374  0.1250000453416661
  0.8750001485246740  0.1250002216619739  0.3749998815895473
  0.6249999589648561  0.1250000809654980  0.8750000114141183
 -0.0000000008629193  0.4999998409517051  0.4999999207124885
  0.0000000320729641  0.2499999339061351  0.2500001366147277
  0.2499998457314355  0.2500001160798855  0.4999999353504698
  0.7500002241594964  0.7499999678334639  0.2500000527920542
  0.1250000087426436  0.1250002806854771  0.1250001247763060
  0.8750000288433216  0.8749999696587124  0.1249999980686317
  0.7500001021684048  0.0000001329358266  0.5000000396262064
  0.8750000604663078  0.6249999116844598  0.8750001378116331
  0.5000000142538291  0.2499999957285079  0.5000000726098653
  0.2499999117347448  0.2500001889111659  0.7499999891933287
  0.4999999710210665  0.2500000517118862 -0.0000000140852182
  0.4999999991611841  0.0000001468839274  0.7500000073619187
  0.8750000211719080  0.6249999058813205  0.6249998177136151
  0.3749999860798797  0.8750000049243346  0.6250001000846730
  0.6250000258878503  0.8749999452053516  0.6249999974652258
  0.1250000922294667  0.1250001606407387  0.8750000347502906
  0.8749999963391714  0.1250001842891048  0.8750000402011487
  0.8750000162333962  0.3750000255839999  0.8750000373236468
  0.6249999839644980  0.6249999258874034  0.8750000343232404
  0.6249999101321058  0.8749999322275532  0.8750000533142008
  0.2499998438238088  0.7499998572002882  0.7499999083181984
  0.3750000262839682  0.1250001675594732  0.6250000196281872
  0.0000000281093699  0.7500000279786186  0.7499999678555515
  0.8750000784273320  0.3750000383559406  0.6249998209595398
  0.7500001522527531  0.0000001190102862  0.7499998610338664
  0.8750000727435532  0.8749999516432413  0.6250000068978302
 -0.0000000831067850  0.0000000181611426  0.7499999254512241
  0.7500002004569821  0.2500000256453374  0.7499998750535563
  0.1250000762506972  0.8749998604347782  0.8749999280942380
  0.2499999265529591  0.0000001546023216  0.4999999532976783
  0.3749998603667907  0.6249998168777923  0.8749999375758600
  0.1249999223894364  0.8749999177565608  0.6250000933925507
  0.6249999923346697  0.3750000558785507  0.8749999573910592
  0.1250000662224994  0.1250001817880683  0.6249999296267192
  0.7500001043243898  0.7499999372994040  0.7500000199460034
 -0.0000000017209566  0.0000001415763331  0.0000000287925145
  0.8750000101717225  0.8749998774828240  0.8749999596636916
  0.5000000247653587  0.7499999119294922  0.7500000118311680
  0.6249998850757915  0.1250001525565125  0.6250000526620237
  0.7500001209197956  0.7499999390981736 -0.0000000422992389
  0.8750000202577045  0.1250001276671593  0.6249999968285591
 -0.0000000903484769  0.2500001932778975  0.4999999570672014
  0.3749998212156895  0.3750001057683772  0.6250000639695258
  0.5000000639647132  0.7500000812366017 -0.0000000855097089
  0.4999999257242065  0.4999999915523392  0.7499999014702002
  0.7500000469233397  0.0000000936309221  0.0000001289930425
  0.1250001506558661  0.6249997255987799  0.6249999917882505
  0.2499997737638699  0.4999998910577075  0.5000001534306724
  0.4999999427358848  0.4999997685327545  0.2499999836491779
  0.3749998844456540  0.6249998160647596  0.3749998899355362
  0.6249999611940704  0.6249998634699208  0.6249999937291774
  0.7500002500346196  0.4999998344195217  0.4999998777378672
  0.2499999944938972  0.0000001165813563 -0.0000001386778866
  0.3749998308630614  0.3750001085793161  0.1250000770679035
  0.5000000490038674  0.7499999613255154  0.5000000986510645
  0.6250000366316014  0.3750000842997347  0.3749999858322537
  0.7500001591077150  0.4999999919790290 -0.0000001095223968
  0.6249998964590258  0.6249998817205170  0.1249999782562364
  0.2499999270393335  0.0000000407898559  0.7500001283832991
  0.3749999508991129  0.1250000884828375  0.8749999520663708
 -0.0000000830295764  0.2500001247906568  0.7499999150157061
  0.1250001621773554  0.3750001363740388  0.8750000367298201
  0.0000001048683477  0.4999998248295284  0.7499999129045105
  0.2499998498859427  0.4999998206367741  0.0000000937884456
  0.7500001229996662  0.4999999240543500  0.7500000001855101
 -0.0000000088289061  0.2500000225225918 -0.0000000182342024
  0.3750000058946976  0.8749999744771405  0.8750000283346239
  0.8749999800329723  0.1250001343756952  0.1250000706913157
  0.3749999284556576  0.1250001879788958  0.1250000016741945
 
  0.00000000E+00  0.00000000E+00  0.00000000E+00
  0.00000000E+00  0.00000000E+00  0.00000000E+00
  0.00000000E+00  0.00000000E+00  0.00000000E+00
  0.00000000E+00  0.00000000E+00  0.00000000E+00
  0.00000000E+00  0.00000000E+00  0.00000000E+00
  0.00000000E+00  0.00000000E+00  0.00000000E+00
  0.00000000E+00  0.00000000E+00  0.00000000E+00
  0.00000000E+00  0.00000000E+00  0.00000000E+00
  0.00000000E+00  0.00000000E+00  0.00000000E+00
  0.00000000E+00  0.00000000E+00  0.00000000E+00
  0.00000000E+00  0.00000000E+00  0.00000000E+00
  0.00000000E+00  0.00000000E+00  0.00000000E+00
  0.00000000E+00  0.00000000E+00  0.00000000E+00
  0.00000000E+00  0.00000000E+00  0.00000000E+00
  0.00000000E+00  0.00000000E+00  0.00000000E+00
  0.00000000E+00  0.00000000E+00  0.00000000E+00
  0.00000000E+00  0.00000000E+00  0.00000000E+00
  0.00000000E+00  0.00000000E+00  0.00000000E+00
  0.00000000E+00  0.00000000E+00  0.00000000E+00
  0.00000000E+00  0.00000000E+00  0.00000000E+00
  0.00000000E+00  0.00000000E+00  0.00000000E+00
  0.00000000E+00  0.00000000E+00  0.00000000E+00
  0.00000000E+00  0.00000000E+00  0.00000000E+00
  0.00000000E+00  0.00000000E+00  0.00000000E+00
  0.00000000E+00  0.00000000E+00  0.00000000E+00
  0.00000000E+00  0.00000000E+00  0.00000000E+00
  0.00000000E+00  0.00000000E+00  0.00000000E+00
  0.00000000E+00  0.00000000E+00  0.00000000E+00
  0.00000000E+00  0.00000000E+00  0.00000000E+00
  0.00000000E+00  0.00000000E+00  0.00000000E+00
  0.00000000E+00  0.00000000E+00  0.00000000E+00
  0.00000000E+00  0.00000000E+00  0.00000000E+00
  0.00000000E+00  0.00000000E+00  0.00000000E+00
  0.00000000E+00  0.00000000E+00  0.00000000E+00
  0.00000000E+00  0.00000000E+00  0.00000000E+00
  0.00000000E+00  0.00000000E+00  0.00000000E+00
  0.00000000E+00  0.00000000E+00  0.00000000E+00
  0.00000000E+00  0.00000000E+00  0.00000000E+00
  0.00000000E+00  0.00000000E+00  0.00000000E+00
  0.00000000E+00  0.00000000E+00  0.00000000E+00
  0.00000000E+00  0.00000000E+00  0.00000000E+00
  0.00000000E+00  0.00000000E+00  0.00000000E+00
  0.00000000E+00  0.00000000E+00  0.00000000E+00
  0.00000000E+00  0.00000000E+00  0.00000000E+00
  0.00000000E+00  0.00000000E+00  0.00000000E+00
  0.00000000E+00  0.00000000E+00  0.00000000E+00
  0.00000000E+00  0.00000000E+00  0.00000000E+00
  0.00000000E+00  0.00000000E+00  0.00000000E+00
  0.00000000E+00  0.00000000E+00  0.00000000E+00
  0.00000000E+00  0.00000000E+00  0.00000000E+00
  0.00000000E+00  0.00000000E+00  0.00000000E+00
  0.00000000E+00  0.00000000E+00  0.00000000E+00
  0.00000000E+00  0.00000000E+00  0.00000000E+00
  0.00000000E+00  0.00000000E+00  0.00000000E+00
  0.00000000E+00  0.00000000E+00  0.00000000E+00
  0.00000000E+00  0.00000000E+00  0.00000000E+00
  0.00000000E+00  0.00000000E+00  0.00000000E+00
  0.00000000E+00  0.00000000E+00  0.00000000E+00
  0.00000000E+00  0.00000000E+00  0.00000000E+00
  0.00000000E+00  0.00000000E+00  0.00000000E+00
  0.00000000E+00  0.00000000E+00  0.00000000E+00
  0.00000000E+00  0.00000000E+00  0.00000000E+00
  0.00000000E+00  0.00000000E+00  0.00000000E+00
  0.00000000E+00  0.00000000E+00  0.00000000E+00
  0.00000000E+00  0.00000000E+00  0.00000000E+00
  0.00000000E+00  0.00000000E+00  0.00000000E+00
  0.00000000E+00  0.00000000E+00  0.00000000E+00
  0.00000000E+00  0.00000000E+00  0.00000000E+00
  0.00000000E+00  0.00000000E+00  0.00000000E+00
  0.00000000E+00  0.00000000E+00  0.00000000E+00
  0.00000000E+00  0.00000000E+00  0.00000000E+00
  0.00000000E+00  0.00000000E+00  0.00000000E+00
  0.00000000E+00  0.00000000E+00  0.00000000E+00
  0.00000000E+00  0.00000000E+00  0.00000000E+00
  0.00000000E+00  0.00000000E+00  0.00000000E+00
  0.00000000E+00  0.00000000E+00  0.00000000E+00
  0.00000000E+00  0.00000000E+00  0.00000000E+00
  0.00000000E+00  0.00000000E+00  0.00000000E+00
  0.00000000E+00  0.00000000E+00  0.00000000E+00
  0.00000000E+00  0.00000000E+00  0.00000000E+00
  0.00000000E+00  0.00000000E+00  0.00000000E+00
  0.00000000E+00  0.00000000E+00  0.00000000E+00
  0.00000000E+00  0.00000000E+00  0.00000000E+00
  0.00000000E+00  0.00000000E+00  0.00000000E+00
  0.00000000E+00  0.00000000E+00  0.00000000E+00
  0.00000000E+00  0.00000000E+00  0.00000000E+00
  0.00000000E+00  0.00000000E+00  0.00000000E+00
  0.00000000E+00  0.00000000E+00  0.00000000E+00
  0.00000000E+00  0.00000000E+00  0.00000000E+00
  0.00000000E+00  0.00000000E+00  0.00000000E+00
  0.00000000E+00  0.00000000E+00  0.00000000E+00
  0.00000000E+00  0.00000000E+00  0.00000000E+00
  0.00000000E+00  0.00000000E+00  0.00000000E+00
  0.00000000E+00  0.00000000E+00  0.00000000E+00
  0.00000000E+00  0.00000000E+00  0.00000000E+00
  0.00000000E+00  0.00000000E+00  0.00000000E+00
  0.00000000E+00  0.00000000E+00  0.00000000E+00
  0.00000000E+00  0.00000000E+00  0.00000000E+00
  0.00000000E+00  0.00000000E+00  0.00000000E+00
  0.00000000E+00  0.00000000E+00  0.00000000E+00
  0.00000000E+00  0.00000000E+00  0.00000000E+00
  0.00000000E+00  0.00000000E+00  0.00000000E+00
  0.00000000E+00  0.00000000E+00  0.00000000E+00
  0.00000000E+00  0.00000000E+00  0.00000000E+00
  0.00000000E+00  0.00000000E+00  0.00000000E+00
  0.00000000E+00  0.00000000E+00  0.00000000E+00
  0.00000000E+00  0.00000000E+00  0.00000000E+00
  0.00000000E+00  0.00000000E+00  0.00000000E+00
  0.00000000E+00  0.00000000E+00  0.00000000E+00
  0.00000000E+00  0.00000000E+00  0.00000000E+00
  0.00000000E+00  0.00000000E+00  0.00000000E+00
  0.00000000E+00  0.00000000E+00  0.00000000E+00
  0.00000000E+00  0.00000000E+00  0.00000000E+00
  0.00000000E+00  0.00000000E+00  0.00000000E+00
  0.00000000E+00  0.00000000E+00  0.00000000E+00
  0.00000000E+00  0.00000000E+00  0.00000000E+00
  0.00000000E+00  0.00000000E+00  0.00000000E+00
  0.00000000E+00  0.00000000E+00  0.00000000E+00
  0.00000000E+00  0.00000000E+00  0.00000000E+00
  0.00000000E+00  0.00000000E+00  0.00000000E+00
  0.00000000E+00  0.00000000E+00  0.00000000E+00
  0.00000000E+00  0.00000000E+00  0.00000000E+00
  0.00000000E+00  0.00000000E+00  0.00000000E+00
  0.00000000E+00  0.00000000E+00  0.00000000E+00
  0.00000000E+00  0.00000000E+00  0.00000000E+00
  0.00000000E+00  0.00000000E+00  0.00000000E+00
  0.00000000E+00  0.00000000E+00  0.00000000E+00
  0.00000000E+00  0.00000000E+00  0.00000000E+00
