Hf Nb                                   
    1.000000000000000     
    11.4821750085415584   -1.1289759953814997    0.0679742477118490
    -6.5542608786283081   11.6705275297927447   -0.1203990600644491
    -0.1041300241456389    0.1462686936540153   19.0646464058968057
  Hf             Nb           
              28             100
Direct
  0.1274121063955665  0.8139747404195485  0.4363025036990129
  0.8862717028694388  0.6955906318476432  0.3131093823512943
  0.3781308153290758  0.6885446998993680  0.0669842207508770
  0.3732487002799328  0.5589681148588612  0.9371048173433933
  0.1101145882205886  0.6819640954634321  0.0577037997200529
  0.3666718521111785  0.0668616981777793  0.6858525365053170
  0.8796552254909666  0.8151048227803236  0.9419417388105379
  0.8799458199625159  0.5657436935914546  0.9419449276251466
  0.3709627589799372  0.5581419741036702  0.6869216103589898
  0.3764553126462455  0.3112064827462430  0.6877880049606939
  0.8746709665432151  0.1874653911447250  0.5623669024210671
  0.3725393983368702  0.5597219564622182  0.4352904084183549
  0.6229445780942610  0.4368715744430504  0.3159442400845263
  0.6263125262222458  0.3113112782223128  0.1846608828880272
  0.3760087878966814  0.9387394635671266  0.8150302114648401
  0.8743559657905861  0.6872116921862922  0.8106205323170605
  0.3709765530764083  0.9364030674730923  0.3139987372063276
  0.1231047331165890  0.4340554510536991  0.3135697598484850
  0.6317427203603161  0.8168885793290187  0.6871913205242475
  0.1230307011614247  0.1893420232228530  0.3137611367287281
  0.1249746935357871  0.1907835004061391  0.8115118076277363
  0.8799576363767118  0.1900190607526707  0.0625145636339209
  0.3853170366713315  0.9375665839825520  0.0648154767380720
  0.3519270555528118  0.7965701995118050  0.6849640032149158
  0.1258600308654509  0.8117158233400823  0.1945319995516425
  0.1188657816753504  0.9341162035220152  0.0603292127213860
  0.3753669243224453  0.9380534732402398  0.5548352516110213
  0.6303438902306552  0.0616548930428291  0.6864737953763616
  0.1134236470670229  0.3054627342029680  0.4453617789426951
  0.8711257286829365  0.9440919333484141  0.0655089824550846
  0.3860440697199984  0.4398717751354219  0.8146425699785275
  0.1127286217785616  0.3101362581758214  0.6824213888496142
  0.3806770475332233  0.1933702844452127  0.0639057568374988
  0.8748806234705945  0.3173471544519635  0.6893293375206645
  0.8557307186172628  0.6801107290865251  0.0713838985159662
  0.8755993807767315  0.0625798975917945  0.1912090160449402
  0.6242931924081130  0.4387049997730238  0.5633276105462052
  0.3763980599589877  0.8057016836061721  0.9366667428069845
  0.8755942839956150  0.4397061335220962  0.8120813495133068
  0.8702224981268096  0.5564540740722443  0.4384982013826196
  0.6335072828349162  0.9411000277907575  0.8190498003329509
  0.8752152540093308  0.5598837043643550  0.1871654260157419
  0.1432040313834050  0.8215778582910354  0.9271703743638534
  0.3759114322034323  0.3164228708203452  0.4348108934328086
  0.3691474352529444  0.0644662288598025  0.1863724681205128
  0.3757866729508914  0.4377760501448695  0.0651766006275523
  0.3779731139107620  0.6931739975309218  0.8141202820801317
  0.8688523697217301  0.8154714235672375  0.1863043280885502
  0.1229096311069618  0.5546388446513089  0.9341277860229328
  0.1083874895092555  0.5517750219012969  0.6877600145252970
  0.3759595308576317  0.0685128091334889  0.9394478750847599
  0.6221990081858281  0.4335911832411803  0.8124836709470855
  0.8693906133095386  0.1893266058843591  0.8135970311580117
  0.3866160249651933  0.8135987653031812  0.1926290671443343
  0.6230955397397074  0.5585255796781242  0.9358247081405379
  0.8877466130568308  0.0671826644263941  0.6914205520912280
  0.1151480686336510  0.3076575429901609  0.9407260019055006
  0.6284139438746914  0.0651369290284308  0.9391255540915895
  0.8620900093051895  0.1807745230381737  0.3126130152411086
  0.6236207329272997  0.6827046591062418  0.5604045278276906
  0.1241293609800485  0.0636518430205368  0.1869743466723883
  0.1252476357803099  0.3117564747820778  0.1824207962801854
  0.6347771315510999  0.5691034573846967  0.6885880300879803
  0.8784709618404665  0.8118809943886169  0.6837469586238460
  0.6307997783261668  0.9395781544559947  0.3121331048029038
  0.8734133525754226  0.9378946787432418  0.5613771469839759
  0.6295668311057209  0.1879302452778019  0.3138867032199616
  0.1282573600477747  0.6707534688514523  0.3139162755236512
  0.6261191388314242  0.9312839733643743  0.5549133078807924
  0.1189346922628322  0.6831385313664097  0.5642434882227643
  0.6324958753710404  0.5662507538252881  0.4409759328170890
  0.6237297682850990  0.5619145969959433  0.1869931106185503
  0.8782778245652785  0.0616301767087801  0.9357682789834566
  0.3754973137585478  0.5596889335177905  0.1907148309511201
  0.8743407029542413  0.3154773618565225  0.9356911634042762
  0.8723216566934394  0.3111884667899405  0.4355588516189711
  0.3829592899187063  0.6948918693984413  0.3101969136533871
  0.6258741358883892  0.8175299513554668  0.9389675022683608
  0.6273288925735245  0.6861021467448332  0.0608006519524903
  0.8719659559529849  0.8158555183953324  0.4396698704461485
  0.3827413501595723  0.4427715539108913  0.3063392558888330
  0.6340011373092368  0.9390338804550261  0.0641387983529205
  0.3744403838954142  0.3148231722256828  0.9373261058200538
  0.6205467380988159  0.6849675038579177  0.3140493302123089
  0.6253619334919785  0.0641967790049343  0.1857524786727913
  0.8687849555979631  0.9305626670367138  0.3122563060104873
  0.8713360623993419  0.4349035899225134  0.5616733658162362
  0.1254933381858727  0.9471961596171646  0.8124107672164675
  0.8751058044972313  0.0618487102288221  0.4343884922278178
  0.6172242469992855  0.6833639571152406  0.8158694567364494
  0.6235288997045340  0.4389579870862951  0.0595379044939554
  0.1264594466567366  0.4334850469017675  0.8133160037889281
  0.1086822311003862  0.8061827231881600  0.6875985949818021
  0.1322802454364178  0.1877669549346203  0.0627251817691389
  0.6242102181302985  0.0622873736536636  0.4386498200446707
  0.6353583107034281  0.3164325063647946  0.6873488484315724
  0.6274417965237538  0.3116871393928403  0.4405425931554025
  0.3779126612595264  0.4343337784808321  0.5591693520892871
  0.1276307276198013  0.5631024061582227  0.1855920110249144
  0.6224958961717822  0.1941701755874551  0.5615642749254629
  0.1160717551450436  0.5620467454262917  0.4416734345853233
  0.1325274726783685  0.0726955373669308  0.9386133814230102
  0.1129207503619131  0.0570928414094554  0.6840085240348507
  0.8676399176281764  0.9313656657148114  0.8113359379047347
  0.3800411068264927  0.0749933544737009  0.4363016769247239
  0.3785418254923941  0.1833247769817414  0.3102816602805161
  0.1262817703134625  0.9564886600390543  0.3134988687067103
  0.6243694987915653  0.1885231887950772  0.0580217519412648
  0.3786652386161523  0.6921994033227032  0.5591232806537764
  0.1311665441515493  0.1891396932658188  0.5615643431284532
  0.1261280774709761  0.6821011953808754  0.8110258027980433
  0.6316605041360103  0.8157268946229883  0.4375319592482085
  0.3830924359903900  0.1872232293874963  0.8175975155345934
  0.6248020623255104  0.3106712679226098  0.9369904048413923
  0.8812066716302652  0.3119103219177915  0.1915901648578802
  0.8721754135819288  0.5611927409014008  0.6845277914086682
  0.3769925235616323  0.1902709396031771  0.5569322978094585
  0.6257591400825728  0.8118492314378806  0.1870683429770075
  0.8729506548403522  0.4365650044714856  0.3109058165351680
  0.3710271346416618  0.3131267010154288  0.1887085591436712
  0.1313746913837813  0.4421961926754385  0.5609803800671742
  0.1275871228956335  0.4408261304864486  0.0615180115691874
  0.1173158335102001  0.9375408543855019  0.5623435155128649
  0.3808460449176655  0.8039777856398490  0.4365511005310679
  0.8732943634629388  0.6867180960478573  0.5597592396687723
  0.6306416500442413  0.1926708916879246  0.8144400280622253
  0.8661120302076997  0.4248137315534218  0.0664290788875719
  0.1242030381180263  0.0617479937654762  0.4401605291535550
 
  0.00000000E+00  0.00000000E+00  0.00000000E+00
  0.00000000E+00  0.00000000E+00  0.00000000E+00
  0.00000000E+00  0.00000000E+00  0.00000000E+00
  0.00000000E+00  0.00000000E+00  0.00000000E+00
  0.00000000E+00  0.00000000E+00  0.00000000E+00
  0.00000000E+00  0.00000000E+00  0.00000000E+00
  0.00000000E+00  0.00000000E+00  0.00000000E+00
  0.00000000E+00  0.00000000E+00  0.00000000E+00
  0.00000000E+00  0.00000000E+00  0.00000000E+00
  0.00000000E+00  0.00000000E+00  0.00000000E+00
  0.00000000E+00  0.00000000E+00  0.00000000E+00
  0.00000000E+00  0.00000000E+00  0.00000000E+00
  0.00000000E+00  0.00000000E+00  0.00000000E+00
  0.00000000E+00  0.00000000E+00  0.00000000E+00
  0.00000000E+00  0.00000000E+00  0.00000000E+00
  0.00000000E+00  0.00000000E+00  0.00000000E+00
  0.00000000E+00  0.00000000E+00  0.00000000E+00
  0.00000000E+00  0.00000000E+00  0.00000000E+00
  0.00000000E+00  0.00000000E+00  0.00000000E+00
  0.00000000E+00  0.00000000E+00  0.00000000E+00
  0.00000000E+00  0.00000000E+00  0.00000000E+00
  0.00000000E+00  0.00000000E+00  0.00000000E+00
  0.00000000E+00  0.00000000E+00  0.00000000E+00
  0.00000000E+00  0.00000000E+00  0.00000000E+00
  0.00000000E+00  0.00000000E+00  0.00000000E+00
  0.00000000E+00  0.00000000E+00  0.00000000E+00
  0.00000000E+00  0.00000000E+00  0.00000000E+00
  0.00000000E+00  0.00000000E+00  0.00000000E+00
  0.00000000E+00  0.00000000E+00  0.00000000E+00
  0.00000000E+00  0.00000000E+00  0.00000000E+00
  0.00000000E+00  0.00000000E+00  0.00000000E+00
  0.00000000E+00  0.00000000E+00  0.00000000E+00
  0.00000000E+00  0.00000000E+00  0.00000000E+00
  0.00000000E+00  0.00000000E+00  0.00000000E+00
  0.00000000E+00  0.00000000E+00  0.00000000E+00
  0.00000000E+00  0.00000000E+00  0.00000000E+00
  0.00000000E+00  0.00000000E+00  0.00000000E+00
  0.00000000E+00  0.00000000E+00  0.00000000E+00
  0.00000000E+00  0.00000000E+00  0.00000000E+00
  0.00000000E+00  0.00000000E+00  0.00000000E+00
  0.00000000E+00  0.00000000E+00  0.00000000E+00
  0.00000000E+00  0.00000000E+00  0.00000000E+00
  0.00000000E+00  0.00000000E+00  0.00000000E+00
  0.00000000E+00  0.00000000E+00  0.00000000E+00
  0.00000000E+00  0.00000000E+00  0.00000000E+00
  0.00000000E+00  0.00000000E+00  0.00000000E+00
  0.00000000E+00  0.00000000E+00  0.00000000E+00
  0.00000000E+00  0.00000000E+00  0.00000000E+00
  0.00000000E+00  0.00000000E+00  0.00000000E+00
  0.00000000E+00  0.00000000E+00  0.00000000E+00
  0.00000000E+00  0.00000000E+00  0.00000000E+00
  0.00000000E+00  0.00000000E+00  0.00000000E+00
  0.00000000E+00  0.00000000E+00  0.00000000E+00
  0.00000000E+00  0.00000000E+00  0.00000000E+00
  0.00000000E+00  0.00000000E+00  0.00000000E+00
  0.00000000E+00  0.00000000E+00  0.00000000E+00
  0.00000000E+00  0.00000000E+00  0.00000000E+00
  0.00000000E+00  0.00000000E+00  0.00000000E+00
  0.00000000E+00  0.00000000E+00  0.00000000E+00
  0.00000000E+00  0.00000000E+00  0.00000000E+00
  0.00000000E+00  0.00000000E+00  0.00000000E+00
  0.00000000E+00  0.00000000E+00  0.00000000E+00
  0.00000000E+00  0.00000000E+00  0.00000000E+00
  0.00000000E+00  0.00000000E+00  0.00000000E+00
  0.00000000E+00  0.00000000E+00  0.00000000E+00
  0.00000000E+00  0.00000000E+00  0.00000000E+00
  0.00000000E+00  0.00000000E+00  0.00000000E+00
  0.00000000E+00  0.00000000E+00  0.00000000E+00
  0.00000000E+00  0.00000000E+00  0.00000000E+00
  0.00000000E+00  0.00000000E+00  0.00000000E+00
  0.00000000E+00  0.00000000E+00  0.00000000E+00
  0.00000000E+00  0.00000000E+00  0.00000000E+00
  0.00000000E+00  0.00000000E+00  0.00000000E+00
  0.00000000E+00  0.00000000E+00  0.00000000E+00
  0.00000000E+00  0.00000000E+00  0.00000000E+00
  0.00000000E+00  0.00000000E+00  0.00000000E+00
  0.00000000E+00  0.00000000E+00  0.00000000E+00
  0.00000000E+00  0.00000000E+00  0.00000000E+00
  0.00000000E+00  0.00000000E+00  0.00000000E+00
  0.00000000E+00  0.00000000E+00  0.00000000E+00
  0.00000000E+00  0.00000000E+00  0.00000000E+00
  0.00000000E+00  0.00000000E+00  0.00000000E+00
  0.00000000E+00  0.00000000E+00  0.00000000E+00
  0.00000000E+00  0.00000000E+00  0.00000000E+00
  0.00000000E+00  0.00000000E+00  0.00000000E+00
  0.00000000E+00  0.00000000E+00  0.00000000E+00
  0.00000000E+00  0.00000000E+00  0.00000000E+00
  0.00000000E+00  0.00000000E+00  0.00000000E+00
  0.00000000E+00  0.00000000E+00  0.00000000E+00
  0.00000000E+00  0.00000000E+00  0.00000000E+00
  0.00000000E+00  0.00000000E+00  0.00000000E+00
  0.00000000E+00  0.00000000E+00  0.00000000E+00
  0.00000000E+00  0.00000000E+00  0.00000000E+00
  0.00000000E+00  0.00000000E+00  0.00000000E+00
  0.00000000E+00  0.00000000E+00  0.00000000E+00
  0.00000000E+00  0.00000000E+00  0.00000000E+00
  0.00000000E+00  0.00000000E+00  0.00000000E+00
  0.00000000E+00  0.00000000E+00  0.00000000E+00
  0.00000000E+00  0.00000000E+00  0.00000000E+00
  0.00000000E+00  0.00000000E+00  0.00000000E+00
  0.00000000E+00  0.00000000E+00  0.00000000E+00
  0.00000000E+00  0.00000000E+00  0.00000000E+00
  0.00000000E+00  0.00000000E+00  0.00000000E+00
  0.00000000E+00  0.00000000E+00  0.00000000E+00
  0.00000000E+00  0.00000000E+00  0.00000000E+00
  0.00000000E+00  0.00000000E+00  0.00000000E+00
  0.00000000E+00  0.00000000E+00  0.00000000E+00
  0.00000000E+00  0.00000000E+00  0.00000000E+00
  0.00000000E+00  0.00000000E+00  0.00000000E+00
  0.00000000E+00  0.00000000E+00  0.00000000E+00
  0.00000000E+00  0.00000000E+00  0.00000000E+00
  0.00000000E+00  0.00000000E+00  0.00000000E+00
  0.00000000E+00  0.00000000E+00  0.00000000E+00
  0.00000000E+00  0.00000000E+00  0.00000000E+00
  0.00000000E+00  0.00000000E+00  0.00000000E+00
  0.00000000E+00  0.00000000E+00  0.00000000E+00
  0.00000000E+00  0.00000000E+00  0.00000000E+00
  0.00000000E+00  0.00000000E+00  0.00000000E+00
  0.00000000E+00  0.00000000E+00  0.00000000E+00
  0.00000000E+00  0.00000000E+00  0.00000000E+00
  0.00000000E+00  0.00000000E+00  0.00000000E+00
  0.00000000E+00  0.00000000E+00  0.00000000E+00
  0.00000000E+00  0.00000000E+00  0.00000000E+00
  0.00000000E+00  0.00000000E+00  0.00000000E+00
  0.00000000E+00  0.00000000E+00  0.00000000E+00
  0.00000000E+00  0.00000000E+00  0.00000000E+00
  0.00000000E+00  0.00000000E+00  0.00000000E+00
  0.00000000E+00  0.00000000E+00  0.00000000E+00
