Hf Nb                                   
    1.000000000000000     
    11.7762562387025245    1.0807134640747638   -0.0182914339110530
    -5.0297389401482313   10.7396433522070893    0.0251886299352956
    -0.0403957148872161    0.0286273029770686   19.2336325751469168
  Hf             Nb           
              56              72
Direct
  0.9364980715727744  0.3202180844880322  0.1847530803018747
  0.8076546285623035  0.6866665715632230  0.5600198357907062
  0.5820866789759808  0.6909062951704295  0.0595480872282792
  0.6865442449984462  0.0518640107706510  0.9394943578819570
  0.1848167227311666  0.8097437791688133  0.4410004169351492
  0.0529198011925474  0.4244108348212515  0.3282014627630107
  0.4442633952922966  0.8300507246074526  0.9342557785812262
  0.3231533236714721  0.4347638664551006  0.0570319385101180
  0.5634245034306866  0.4360952378979339  0.5546016468323675
  0.7087775228734162  0.3159178822773401  0.6863919834292740
  0.3154519471883618  0.4481551873855823  0.3160734043438251
  0.4319726349837670  0.0692414842207013  0.1928122924574631
  0.0609123348454674  0.9373633210984285  0.0625193898622205
  0.1834064766823653  0.8140146089039149  0.6870028667250376
  0.5736407882746720  0.1827128483302606  0.0644884628437156
  0.9388844181662430  0.8188334410613680  0.1984695759538909
  0.6883869630031196  0.3086664877442035  0.9280442605060000
  0.6823686971223044  0.5555892077014111  0.6919235085197843
  0.0618322939679078  0.6896092060091867  0.3072820163199421
  0.8134321005127740  0.4514354117212313  0.3031926024047548
  0.1821872652354845  0.5566892083184459  0.6836955632863955
  0.3225413893405412  0.6868660063358659  0.0619159559021469
  0.3137909750071791  0.9345814811641762  0.0575768933101084
  0.1831014863815277  0.3089481629365212  0.4395055654451949
  0.6867545576130912  0.8090644512434038  0.6839710025353449
  0.5507496881528072  0.1707978680983675  0.7997075144389495
  0.4443700588156530  0.5656266756026059  0.1853230231825624
  0.9366906140358755  0.0610176300615583  0.4316131317459639
  0.4386143459580555  0.8179931223391823  0.1967818338494872
  0.6948792337735447  0.5618952091146243  0.1923595817341412
  0.4288091124902661  0.5669240876413193  0.9272914764077167
  0.0490454434802956  0.1851913453104508  0.8065734821584528
  0.1969269570643913  0.3073041621999985  0.6817336387889179
  0.3054802315420299  0.1889740882684787  0.8147082598258315
  0.8391113819019146  0.6932382330064653  0.0643573210017018
  0.1868185087013426  0.3073471146692731  0.9337400904019726
  0.4503891188069354  0.3169094429976250  0.6906776410830791
  0.3275143453222791  0.9380142472908604  0.8122671685432192
  0.3033050709674041  0.1820782065110615  0.0641880769847475
  0.6812878494582748  0.0582305791090231  0.6844131498635390
  0.8044013362054967  0.9383893241091966  0.0675647202866412
  0.8155341157394279  0.1905424803873875  0.3173016486984916
  0.1823602420976968  0.5689701953531739  0.1926687858189794
  0.1929617099621612  0.3037855331912256  0.1859691980718155
  0.6929632438637044  0.5660170731288711  0.9389579937710832
  0.6893395428274757  0.0576116322493175  0.1860883610999796
  0.9377549957887762  0.5640745307405751  0.4410218355861161
  0.3165085940152654  0.1949073722701566  0.5573112499643728
  0.0462100341477199  0.1715002325641994  0.5659242256667052
  0.3169641257162716  0.6818386638818040  0.8102033176726366
  0.0609438742731764  0.9300031376026592  0.8076079584329153
  0.6868690546264032  0.3213458002958208  0.4405501893143631
  0.8087113569288041  0.2012366230329755  0.8117781739021265
  0.6757748120639235  0.0597902317712084  0.4430569656352200
  0.4327659902604445  0.0902624114512549  0.9369464081549971
  0.8110936173559405  0.4294320732422333  0.0629736582329179
  0.1754522779833531  0.0457035189617983  0.9368600975043694
  0.5584930000308729  0.1859392604852927  0.3178165879014948
  0.9415724472558199  0.5603975582514579  0.9332552907039545
  0.4201103649151122  0.0522136862417323  0.6737572609755971
  0.5546593031988053  0.9274180180660521  0.5632176326278645
  0.4337601255251328  0.3145074436532380  0.4266278343048227
  0.7038126599628967  0.8158633080380776  0.9309248672838768
  0.0496705508732204  0.1881815080652605  0.0626002433035749
  0.1948596930520373  0.8289160038039969  0.1890690154100175
  0.3137865783149367  0.1860360932109833  0.3115556135333375
  0.3108500181152516  0.9379386240462093  0.5610105846045108
  0.5618622541696920  0.4354471262220144  0.0722407225649430
  0.9299339114229930  0.3056482725811679  0.4535297893875939
  0.6826998311630648  0.5723721231388498  0.4316453699504290
  0.8125513296554969  0.9368935063556391  0.8134936679051670
  0.8186580816962341  0.6933096533914266  0.8108921659873279
  0.9430481124211795  0.3153175411803070  0.9365290457997696
  0.9455059059354204  0.0708498606350623  0.1931906907994470
  0.9368606466622106  0.5639603207817355  0.6877795975993808
  0.8283173057816294  0.1926660925985770  0.0563801333737857
  0.3116814530080791  0.6920859126507612  0.5602557219734221
  0.9368002916847711  0.8050585604248639  0.9326054237188969
  0.0634100762948742  0.6794064130140742  0.5677798032765426
  0.3138188404549091  0.9365355580215372  0.3164194669362467
  0.0588493916200700  0.6756401061768975  0.8116655206414103
  0.3130998669363448  0.4365971147120670  0.8026280454351966
  0.9489553378723782  0.3131911098344289  0.6863366028628725
  0.0572423506123004  0.9246611950462115  0.5607282439627425
  0.8123021766321441  0.9447491890129726  0.5629192066629983
  0.8172893749690234  0.4550868219782651  0.8111948544101126
  0.5596718701405480  0.4362859974353389  0.3165200792054371
  0.9442930558514995  0.5776210385525481  0.1729016495892692
  0.6799113287216084  0.8060264300954325  0.2001798802669014
  0.3134101100525031  0.4541379738966895  0.5623787161197710
  0.5714368095052514  0.9168524207178789  0.8064237164576643
  0.0688583365925314  0.4388176581976240  0.0559783574245298
  0.5511582409959668  0.6860355017618598  0.5600302340404371
  0.1992543448524274  0.5666782484720135  0.4405536209222722
  0.0782094777471889  0.6893814244375568  0.0604018470713967
  0.1767455358544069  0.0579545749310104  0.6775128632532391
  0.8257583558576510  0.4408693405224279  0.5671311778227994
  0.5562623330216705  0.4371722521718849  0.8193016600105990
  0.4467292197078921  0.3353690320779322  0.9466385104670352
  0.4289922672242462  0.0634568317713212  0.4372499125253931
  0.0618558375593548  0.4376283993449456  0.8136254158023930
  0.4370382310839565  0.5677518820085539  0.6851497604786461
  0.0711236882723291  0.1838960842309916  0.3092816498774681
  0.6897185105273429  0.8136440162905901  0.4407531908063085
  0.1730196693502062  0.5619535455061233  0.9351617572276464
  0.6732926283474351  0.2996538515641297  0.1953204400534441
  0.9337116416366544  0.8137936630549811  0.4368104890581480
  0.5495193801386031  0.9191169939584877  0.0644540076210049
  0.5603979901247708  0.1733146683264577  0.5614040207063385
  0.5622666987449431  0.9442487516810510  0.3162930804297283
  0.1755049785309148  0.8073200153220024  0.9343422987046395
  0.9325440729458373  0.8036840205703180  0.6854488509093628
  0.5566673988208624  0.6928529626526846  0.3191501486424280
  0.4491196544654347  0.3208121268485495  0.1918293497050840
  0.0633508854495319  0.4364529898634621  0.5609651462711288
  0.9437307131583006  0.0613607509248396  0.9397568319193161
  0.9306119944481972  0.0405034898165003  0.6880698007176175
  0.8031135184755238  0.9336128466323215  0.3123856931508967
  0.4369799188058583  0.8133965259468681  0.6817374196192847
  0.4380241903860233  0.5672557900088162  0.4408996870389778
  0.8064715234309435  0.1934578367924918  0.5656185826235320
  0.0664430033508396  0.9437723687722817  0.3219302859851872
  0.1906919324753654  0.0601754025260526  0.4353736358053557
  0.8047216204568146  0.6970012500707990  0.3226595352332083
  0.5726660155849790  0.6805304772953873  0.8091483448748100
  0.1754847796809246  0.0521249227586582  0.1964400385031901
  0.4423451415071011  0.8189403030541923  0.4384563446050971
  0.3150285579258658  0.6988375576672600  0.3239908380618331
 
  0.00000000E+00  0.00000000E+00  0.00000000E+00
  0.00000000E+00  0.00000000E+00  0.00000000E+00
  0.00000000E+00  0.00000000E+00  0.00000000E+00
  0.00000000E+00  0.00000000E+00  0.00000000E+00
  0.00000000E+00  0.00000000E+00  0.00000000E+00
  0.00000000E+00  0.00000000E+00  0.00000000E+00
  0.00000000E+00  0.00000000E+00  0.00000000E+00
  0.00000000E+00  0.00000000E+00  0.00000000E+00
  0.00000000E+00  0.00000000E+00  0.00000000E+00
  0.00000000E+00  0.00000000E+00  0.00000000E+00
  0.00000000E+00  0.00000000E+00  0.00000000E+00
  0.00000000E+00  0.00000000E+00  0.00000000E+00
  0.00000000E+00  0.00000000E+00  0.00000000E+00
  0.00000000E+00  0.00000000E+00  0.00000000E+00
  0.00000000E+00  0.00000000E+00  0.00000000E+00
  0.00000000E+00  0.00000000E+00  0.00000000E+00
  0.00000000E+00  0.00000000E+00  0.00000000E+00
  0.00000000E+00  0.00000000E+00  0.00000000E+00
  0.00000000E+00  0.00000000E+00  0.00000000E+00
  0.00000000E+00  0.00000000E+00  0.00000000E+00
  0.00000000E+00  0.00000000E+00  0.00000000E+00
  0.00000000E+00  0.00000000E+00  0.00000000E+00
  0.00000000E+00  0.00000000E+00  0.00000000E+00
  0.00000000E+00  0.00000000E+00  0.00000000E+00
  0.00000000E+00  0.00000000E+00  0.00000000E+00
  0.00000000E+00  0.00000000E+00  0.00000000E+00
  0.00000000E+00  0.00000000E+00  0.00000000E+00
  0.00000000E+00  0.00000000E+00  0.00000000E+00
  0.00000000E+00  0.00000000E+00  0.00000000E+00
  0.00000000E+00  0.00000000E+00  0.00000000E+00
  0.00000000E+00  0.00000000E+00  0.00000000E+00
  0.00000000E+00  0.00000000E+00  0.00000000E+00
  0.00000000E+00  0.00000000E+00  0.00000000E+00
  0.00000000E+00  0.00000000E+00  0.00000000E+00
  0.00000000E+00  0.00000000E+00  0.00000000E+00
  0.00000000E+00  0.00000000E+00  0.00000000E+00
  0.00000000E+00  0.00000000E+00  0.00000000E+00
  0.00000000E+00  0.00000000E+00  0.00000000E+00
  0.00000000E+00  0.00000000E+00  0.00000000E+00
  0.00000000E+00  0.00000000E+00  0.00000000E+00
  0.00000000E+00  0.00000000E+00  0.00000000E+00
  0.00000000E+00  0.00000000E+00  0.00000000E+00
  0.00000000E+00  0.00000000E+00  0.00000000E+00
  0.00000000E+00  0.00000000E+00  0.00000000E+00
  0.00000000E+00  0.00000000E+00  0.00000000E+00
  0.00000000E+00  0.00000000E+00  0.00000000E+00
  0.00000000E+00  0.00000000E+00  0.00000000E+00
  0.00000000E+00  0.00000000E+00  0.00000000E+00
  0.00000000E+00  0.00000000E+00  0.00000000E+00
  0.00000000E+00  0.00000000E+00  0.00000000E+00
  0.00000000E+00  0.00000000E+00  0.00000000E+00
  0.00000000E+00  0.00000000E+00  0.00000000E+00
  0.00000000E+00  0.00000000E+00  0.00000000E+00
  0.00000000E+00  0.00000000E+00  0.00000000E+00
  0.00000000E+00  0.00000000E+00  0.00000000E+00
  0.00000000E+00  0.00000000E+00  0.00000000E+00
  0.00000000E+00  0.00000000E+00  0.00000000E+00
  0.00000000E+00  0.00000000E+00  0.00000000E+00
  0.00000000E+00  0.00000000E+00  0.00000000E+00
  0.00000000E+00  0.00000000E+00  0.00000000E+00
  0.00000000E+00  0.00000000E+00  0.00000000E+00
  0.00000000E+00  0.00000000E+00  0.00000000E+00
  0.00000000E+00  0.00000000E+00  0.00000000E+00
  0.00000000E+00  0.00000000E+00  0.00000000E+00
  0.00000000E+00  0.00000000E+00  0.00000000E+00
  0.00000000E+00  0.00000000E+00  0.00000000E+00
  0.00000000E+00  0.00000000E+00  0.00000000E+00
  0.00000000E+00  0.00000000E+00  0.00000000E+00
  0.00000000E+00  0.00000000E+00  0.00000000E+00
  0.00000000E+00  0.00000000E+00  0.00000000E+00
  0.00000000E+00  0.00000000E+00  0.00000000E+00
  0.00000000E+00  0.00000000E+00  0.00000000E+00
  0.00000000E+00  0.00000000E+00  0.00000000E+00
  0.00000000E+00  0.00000000E+00  0.00000000E+00
  0.00000000E+00  0.00000000E+00  0.00000000E+00
  0.00000000E+00  0.00000000E+00  0.00000000E+00
  0.00000000E+00  0.00000000E+00  0.00000000E+00
  0.00000000E+00  0.00000000E+00  0.00000000E+00
  0.00000000E+00  0.00000000E+00  0.00000000E+00
  0.00000000E+00  0.00000000E+00  0.00000000E+00
  0.00000000E+00  0.00000000E+00  0.00000000E+00
  0.00000000E+00  0.00000000E+00  0.00000000E+00
  0.00000000E+00  0.00000000E+00  0.00000000E+00
  0.00000000E+00  0.00000000E+00  0.00000000E+00
  0.00000000E+00  0.00000000E+00  0.00000000E+00
  0.00000000E+00  0.00000000E+00  0.00000000E+00
  0.00000000E+00  0.00000000E+00  0.00000000E+00
  0.00000000E+00  0.00000000E+00  0.00000000E+00
  0.00000000E+00  0.00000000E+00  0.00000000E+00
  0.00000000E+00  0.00000000E+00  0.00000000E+00
  0.00000000E+00  0.00000000E+00  0.00000000E+00
  0.00000000E+00  0.00000000E+00  0.00000000E+00
  0.00000000E+00  0.00000000E+00  0.00000000E+00
  0.00000000E+00  0.00000000E+00  0.00000000E+00
  0.00000000E+00  0.00000000E+00  0.00000000E+00
  0.00000000E+00  0.00000000E+00  0.00000000E+00
  0.00000000E+00  0.00000000E+00  0.00000000E+00
  0.00000000E+00  0.00000000E+00  0.00000000E+00
  0.00000000E+00  0.00000000E+00  0.00000000E+00
  0.00000000E+00  0.00000000E+00  0.00000000E+00
  0.00000000E+00  0.00000000E+00  0.00000000E+00
  0.00000000E+00  0.00000000E+00  0.00000000E+00
  0.00000000E+00  0.00000000E+00  0.00000000E+00
  0.00000000E+00  0.00000000E+00  0.00000000E+00
  0.00000000E+00  0.00000000E+00  0.00000000E+00
  0.00000000E+00  0.00000000E+00  0.00000000E+00
  0.00000000E+00  0.00000000E+00  0.00000000E+00
  0.00000000E+00  0.00000000E+00  0.00000000E+00
  0.00000000E+00  0.00000000E+00  0.00000000E+00
  0.00000000E+00  0.00000000E+00  0.00000000E+00
  0.00000000E+00  0.00000000E+00  0.00000000E+00
  0.00000000E+00  0.00000000E+00  0.00000000E+00
  0.00000000E+00  0.00000000E+00  0.00000000E+00
  0.00000000E+00  0.00000000E+00  0.00000000E+00
  0.00000000E+00  0.00000000E+00  0.00000000E+00
  0.00000000E+00  0.00000000E+00  0.00000000E+00
  0.00000000E+00  0.00000000E+00  0.00000000E+00
  0.00000000E+00  0.00000000E+00  0.00000000E+00
  0.00000000E+00  0.00000000E+00  0.00000000E+00
  0.00000000E+00  0.00000000E+00  0.00000000E+00
  0.00000000E+00  0.00000000E+00  0.00000000E+00
  0.00000000E+00  0.00000000E+00  0.00000000E+00
  0.00000000E+00  0.00000000E+00  0.00000000E+00
  0.00000000E+00  0.00000000E+00  0.00000000E+00
  0.00000000E+00  0.00000000E+00  0.00000000E+00
  0.00000000E+00  0.00000000E+00  0.00000000E+00
  0.00000000E+00  0.00000000E+00  0.00000000E+00
  0.00000000E+00  0.00000000E+00  0.00000000E+00
