Hf Nb                                   
    1.000000000000000     
    12.9798356227218132   -0.0182842199775633   -0.0146809370948412
    -6.5095149379593860   10.7395279064939508    0.0012708330097620
    -0.0229712901578156   -0.0117278952079661   20.0212840471869988
  Hf             Nb           
             108              20
Direct
  0.1702677922565133  0.3384120868101709  0.4402204161001126
  0.3176390340028972  0.8976455275604193  0.5652808032066835
  0.9208771044398645  0.5867623309860140  0.6865628131496504
  0.5788008593086293  0.4066707392919192  0.5630378163845750
  0.0817540490531211  0.9133743488768935  0.0639907451407093
  0.9161329115875257  0.0805464781050127  0.6895607936067774
  0.6705841276479669  0.8360223912395889  0.6889426658145504
  0.8373618588688101  0.6664590565612549  0.8134833361736434
  0.6720792396834616  0.5933361925114381  0.9326058842226224
  0.9258063353485129  0.8590309053767827  0.9357739115999782
  0.4176191107551158  0.3428326003785345  0.6911572209390672
  0.8374497206724890  0.1664409414066976  0.5629676841579194
  0.6671247432718489  0.8357329958581385  0.1857916294847251
  0.6726049658564237  0.0902762514189876  0.1878472703290143
  0.5811215586514155  0.9123069858014615  0.3111080971127154
  0.6641223019789771  0.3247298096268786  0.6862838964635584
  0.1767693891178513  0.6062135070735026  0.9414249357084812
  0.3419046820792135  0.6650770235145218  0.0622926383166726
  0.9345836441621447  0.3718160424037428  0.1878378180799304
  0.0892082374419383  0.9189216782559180  0.8133285540214871
  0.8292985473428314  0.4069319402200817  0.8123386874240979
  0.0686434278309945  0.1516357719340145  0.8169698400641524
  0.9201377026376398  0.5903547353566750  0.9392993009008088
  0.6726283786097517  0.5878705039854747  0.6893295270491272
  0.0815738078064256  0.9071362505826359  0.5635883343283736
  0.4155849682397538  0.0799067152854509  0.4395613438320909
  0.1692837722422353  0.3393284732766360  0.6919428314240030
  0.8311435601115074  0.1556098444635880  0.8141677104223289
  0.0828192885394054  0.1625763388595418  0.5644484972072262
  0.5858897068102333  0.4062838035499585  0.8109649104338713
  0.6721357760443748  0.0913993135658960  0.4382090047863368
  0.1733403975359520  0.1007678323607940  0.1865787459355127
  0.9138255732939904  0.5844384536455429  0.4378302020264095
  0.1691769256253484  0.0888194917695709  0.6892049465014850
  0.0842270782033738  0.1665993223383083  0.3130823042972777
  0.0845700433329107  0.4196837163786843  0.5639589791367176
  0.1705826671776124  0.0853840593937727  0.4369610146258031
  0.8264793330737454  0.4043049852404988  0.5629570069974995
  0.0932352893337444  0.4229636378927713  0.0653571769668581
  0.5849056009988726  0.6607682130208886  0.0596793623847060
  0.4186739396700243  0.5794534202814515  0.1841748319647843
  0.3210315572783759  0.8900814742634007  0.0637648676191511
  0.1624395447388466  0.8423058174974744  0.9393717664545645
  0.9222990990713048  0.8382750193790032  0.6883861438326333
  0.6657866586358026  0.5823637942147540  0.4369457751726010
  0.8301931394202199  0.6596415181572669  0.5621572182078896
  0.1564124514626372  0.8294337526356299  0.1873643580154882
  0.1713495270308740  0.5903981935065996  0.4375586544552947
  0.0817335962645352  0.9135961970325966  0.3107094808429616
  0.8360947959363233  0.1718159933584394  0.3107332733536852
  0.5752582569740727  0.1585936942943015  0.3122885876369323
  0.3338744428312033  0.4136511030356686  0.5640116538955741
  0.3328893590717363  0.1713084375807885  0.8150863474353270
  0.1853500382835706  0.1078872350388624  0.9431773979388834
  0.4123136632938363  0.0742555277062209  0.1876885806708349
  0.3269525755289788  0.3915332972521269  0.0575338018600374
  0.9250374887804924  0.1014226327318734  0.1871322273179415
  0.8326737490639611  0.1748699355158493  0.0643600897990156
  0.8205885330689269  0.4134981623555072  0.3119414111256676
  0.8306127660258320  0.6655454858658946  0.3109714273155195
  0.6704489600593661  0.8398011114870672  0.9330902671945226
  0.3317787006711838  0.1608441157806689  0.5631248379994580
  0.3328181023989070  0.9104602560416267  0.8174886023143728
  0.0732062457889616  0.1641617984125693  0.0597148782224639
  0.4264278565469116  0.8492947096537372  0.6886131974631112
  0.4193635914231328  0.3243812577569982  0.1848743817839297
  0.6712788992724563  0.3361644272517748  0.9366174123477353
  0.8314774637763254  0.9186309783120158  0.3112245888834824
  0.9192846045580764  0.0886348331062533  0.4365065256097293
  0.4113580498981779  0.0863971927251255  0.6911859565978486
  0.3260087503702191  0.8991328201511884  0.3104221548849305
  0.0834197977593851  0.4194354536206605  0.8141737489601975
  0.4175661893849263  0.5890977872687753  0.6904603562532399
  0.5808456353387841  0.6617355353736459  0.3112946308299272
  0.4186026106356960  0.5828925044927549  0.4357583196574872
  0.5818518839794536  0.6609723054160197  0.5638168709359058
  0.8341417583872001  0.9125165973348772  0.5627656957328372
  0.5763481866456852  0.1576089573210196  0.0625817592757468
  0.5752409210553827  0.4070613217958925  0.0559119152925186
  0.4145773525681516  0.3295606865125170  0.4365802699404480
  0.6688028694578907  0.8354912786201544  0.4378634845643823
  0.6702241546625932  0.3380628776573620  0.1838011180435288
  0.4215939565339145  0.0981682320151842  0.9405577958103899
  0.3262902230447677  0.6514202247729692  0.3068703617109030
  0.6690426393584084  0.0913318567140503  0.9354909989046494
  0.9255781895671017  0.3437269260894653  0.4350126095924380
  0.9228070318327084  0.3478416158185978  0.9416117715206392
  0.5832262874106786  0.9144513831555007  0.0610860716126780
  0.9172265010708165  0.8372348136617606  0.4362666651627436
  0.1635422933988784  0.3423346203553514  0.9376929453362729
  0.8311904208224647  0.6655774487090975  0.0608921103136331
  0.5777622728881305  0.4074298959501461  0.3111206364804963
  0.6611298497352669  0.3280829972640119  0.4388570181351999
  0.6666543799121125  0.5835101752797270  0.1858335693548873
  0.1735858789346960  0.6024198579419614  0.6859737502288757
  0.3403516412144046  0.6659431616727787  0.5620831310829802
  0.5867886436832251  0.9194515559069121  0.5634031582316021
  0.0827893506427351  0.6679198184570666  0.8136184136925481
  0.1620713004146655  0.8287566651151036  0.4362539807175951
  0.4219858219181489  0.8350410714523238  0.4363810862892326
  0.9235755881431685  0.3380349456440199  0.6888821095781927
  0.3343801954020726  0.6663052402533512  0.8134379298968031
  0.5826455766315358  0.9095331560831654  0.8116070015655051
  0.3299524380510602  0.4022886926500426  0.3088692561695733
  0.8313496764883009  0.9219248767846342  0.0616400822835642
  0.9155759161309511  0.8431124794611008  0.1865753961647085
  0.4207890876417517  0.5892050816380278  0.9355364794647121
  0.0699076888946746  0.6421994185939888  0.3071398936456075
  0.0661470691980591  0.6394783409947157  0.0691175394772251
  0.8219887166113752  0.8936925613715627  0.8096936910105048
  0.0682301852631703  0.6549565351577190  0.5606015350853595
  0.3313490189042032  0.1485236122551516  0.3111301672091200
  0.5672466904847568  0.1421192726660477  0.5675727644272596
  0.1859004291275552  0.6166608581540653  0.1810571463103248
  0.4284170457010919  0.8391857909147968  0.1859229763459661
  0.9077921766943603  0.0963461364811839  0.9409831921116248
  0.9095474417066584  0.5934010838599486  0.1869647595159867
  0.3228882619794456  0.4028574100101360  0.8156975530610979
  0.4293188140389596  0.3589993927614505  0.9283430500279914
  0.8240233320271227  0.4145612708578151  0.0612470990771355
  0.3354297864086973  0.1489693744297206  0.0670799281906113
  0.5827741633170156  0.1458981982295139  0.8059214414053620
  0.5689471343277127  0.6375024459738081  0.8117506914089555
  0.4325999151385051  0.8500966035948823  0.9391177649195186
  0.6779909179642638  0.0984125328177822  0.6850803865395635
  0.1667341272545475  0.3625994225000057  0.1948845575396354
  0.0863160153205694  0.4042069124872077  0.3152828904029115
  0.1646354787195802  0.8406460870671834  0.6906991185272576
 
  0.00000000E+00  0.00000000E+00  0.00000000E+00
  0.00000000E+00  0.00000000E+00  0.00000000E+00
  0.00000000E+00  0.00000000E+00  0.00000000E+00
  0.00000000E+00  0.00000000E+00  0.00000000E+00
  0.00000000E+00  0.00000000E+00  0.00000000E+00
  0.00000000E+00  0.00000000E+00  0.00000000E+00
  0.00000000E+00  0.00000000E+00  0.00000000E+00
  0.00000000E+00  0.00000000E+00  0.00000000E+00
  0.00000000E+00  0.00000000E+00  0.00000000E+00
  0.00000000E+00  0.00000000E+00  0.00000000E+00
  0.00000000E+00  0.00000000E+00  0.00000000E+00
  0.00000000E+00  0.00000000E+00  0.00000000E+00
  0.00000000E+00  0.00000000E+00  0.00000000E+00
  0.00000000E+00  0.00000000E+00  0.00000000E+00
  0.00000000E+00  0.00000000E+00  0.00000000E+00
  0.00000000E+00  0.00000000E+00  0.00000000E+00
  0.00000000E+00  0.00000000E+00  0.00000000E+00
  0.00000000E+00  0.00000000E+00  0.00000000E+00
  0.00000000E+00  0.00000000E+00  0.00000000E+00
  0.00000000E+00  0.00000000E+00  0.00000000E+00
  0.00000000E+00  0.00000000E+00  0.00000000E+00
  0.00000000E+00  0.00000000E+00  0.00000000E+00
  0.00000000E+00  0.00000000E+00  0.00000000E+00
  0.00000000E+00  0.00000000E+00  0.00000000E+00
  0.00000000E+00  0.00000000E+00  0.00000000E+00
  0.00000000E+00  0.00000000E+00  0.00000000E+00
  0.00000000E+00  0.00000000E+00  0.00000000E+00
  0.00000000E+00  0.00000000E+00  0.00000000E+00
  0.00000000E+00  0.00000000E+00  0.00000000E+00
  0.00000000E+00  0.00000000E+00  0.00000000E+00
  0.00000000E+00  0.00000000E+00  0.00000000E+00
  0.00000000E+00  0.00000000E+00  0.00000000E+00
  0.00000000E+00  0.00000000E+00  0.00000000E+00
  0.00000000E+00  0.00000000E+00  0.00000000E+00
  0.00000000E+00  0.00000000E+00  0.00000000E+00
  0.00000000E+00  0.00000000E+00  0.00000000E+00
  0.00000000E+00  0.00000000E+00  0.00000000E+00
  0.00000000E+00  0.00000000E+00  0.00000000E+00
  0.00000000E+00  0.00000000E+00  0.00000000E+00
  0.00000000E+00  0.00000000E+00  0.00000000E+00
  0.00000000E+00  0.00000000E+00  0.00000000E+00
  0.00000000E+00  0.00000000E+00  0.00000000E+00
  0.00000000E+00  0.00000000E+00  0.00000000E+00
  0.00000000E+00  0.00000000E+00  0.00000000E+00
  0.00000000E+00  0.00000000E+00  0.00000000E+00
  0.00000000E+00  0.00000000E+00  0.00000000E+00
  0.00000000E+00  0.00000000E+00  0.00000000E+00
  0.00000000E+00  0.00000000E+00  0.00000000E+00
  0.00000000E+00  0.00000000E+00  0.00000000E+00
  0.00000000E+00  0.00000000E+00  0.00000000E+00
  0.00000000E+00  0.00000000E+00  0.00000000E+00
  0.00000000E+00  0.00000000E+00  0.00000000E+00
  0.00000000E+00  0.00000000E+00  0.00000000E+00
  0.00000000E+00  0.00000000E+00  0.00000000E+00
  0.00000000E+00  0.00000000E+00  0.00000000E+00
  0.00000000E+00  0.00000000E+00  0.00000000E+00
  0.00000000E+00  0.00000000E+00  0.00000000E+00
  0.00000000E+00  0.00000000E+00  0.00000000E+00
  0.00000000E+00  0.00000000E+00  0.00000000E+00
  0.00000000E+00  0.00000000E+00  0.00000000E+00
  0.00000000E+00  0.00000000E+00  0.00000000E+00
  0.00000000E+00  0.00000000E+00  0.00000000E+00
  0.00000000E+00  0.00000000E+00  0.00000000E+00
  0.00000000E+00  0.00000000E+00  0.00000000E+00
  0.00000000E+00  0.00000000E+00  0.00000000E+00
  0.00000000E+00  0.00000000E+00  0.00000000E+00
  0.00000000E+00  0.00000000E+00  0.00000000E+00
  0.00000000E+00  0.00000000E+00  0.00000000E+00
  0.00000000E+00  0.00000000E+00  0.00000000E+00
  0.00000000E+00  0.00000000E+00  0.00000000E+00
  0.00000000E+00  0.00000000E+00  0.00000000E+00
  0.00000000E+00  0.00000000E+00  0.00000000E+00
  0.00000000E+00  0.00000000E+00  0.00000000E+00
  0.00000000E+00  0.00000000E+00  0.00000000E+00
  0.00000000E+00  0.00000000E+00  0.00000000E+00
  0.00000000E+00  0.00000000E+00  0.00000000E+00
  0.00000000E+00  0.00000000E+00  0.00000000E+00
  0.00000000E+00  0.00000000E+00  0.00000000E+00
  0.00000000E+00  0.00000000E+00  0.00000000E+00
  0.00000000E+00  0.00000000E+00  0.00000000E+00
  0.00000000E+00  0.00000000E+00  0.00000000E+00
  0.00000000E+00  0.00000000E+00  0.00000000E+00
  0.00000000E+00  0.00000000E+00  0.00000000E+00
  0.00000000E+00  0.00000000E+00  0.00000000E+00
  0.00000000E+00  0.00000000E+00  0.00000000E+00
  0.00000000E+00  0.00000000E+00  0.00000000E+00
  0.00000000E+00  0.00000000E+00  0.00000000E+00
  0.00000000E+00  0.00000000E+00  0.00000000E+00
  0.00000000E+00  0.00000000E+00  0.00000000E+00
  0.00000000E+00  0.00000000E+00  0.00000000E+00
  0.00000000E+00  0.00000000E+00  0.00000000E+00
  0.00000000E+00  0.00000000E+00  0.00000000E+00
  0.00000000E+00  0.00000000E+00  0.00000000E+00
  0.00000000E+00  0.00000000E+00  0.00000000E+00
  0.00000000E+00  0.00000000E+00  0.00000000E+00
  0.00000000E+00  0.00000000E+00  0.00000000E+00
  0.00000000E+00  0.00000000E+00  0.00000000E+00
  0.00000000E+00  0.00000000E+00  0.00000000E+00
  0.00000000E+00  0.00000000E+00  0.00000000E+00
  0.00000000E+00  0.00000000E+00  0.00000000E+00
  0.00000000E+00  0.00000000E+00  0.00000000E+00
  0.00000000E+00  0.00000000E+00  0.00000000E+00
  0.00000000E+00  0.00000000E+00  0.00000000E+00
  0.00000000E+00  0.00000000E+00  0.00000000E+00
  0.00000000E+00  0.00000000E+00  0.00000000E+00
  0.00000000E+00  0.00000000E+00  0.00000000E+00
  0.00000000E+00  0.00000000E+00  0.00000000E+00
  0.00000000E+00  0.00000000E+00  0.00000000E+00
  0.00000000E+00  0.00000000E+00  0.00000000E+00
  0.00000000E+00  0.00000000E+00  0.00000000E+00
  0.00000000E+00  0.00000000E+00  0.00000000E+00
  0.00000000E+00  0.00000000E+00  0.00000000E+00
  0.00000000E+00  0.00000000E+00  0.00000000E+00
  0.00000000E+00  0.00000000E+00  0.00000000E+00
  0.00000000E+00  0.00000000E+00  0.00000000E+00
  0.00000000E+00  0.00000000E+00  0.00000000E+00
  0.00000000E+00  0.00000000E+00  0.00000000E+00
  0.00000000E+00  0.00000000E+00  0.00000000E+00
  0.00000000E+00  0.00000000E+00  0.00000000E+00
  0.00000000E+00  0.00000000E+00  0.00000000E+00
  0.00000000E+00  0.00000000E+00  0.00000000E+00
  0.00000000E+00  0.00000000E+00  0.00000000E+00
  0.00000000E+00  0.00000000E+00  0.00000000E+00
  0.00000000E+00  0.00000000E+00  0.00000000E+00
  0.00000000E+00  0.00000000E+00  0.00000000E+00
  0.00000000E+00  0.00000000E+00  0.00000000E+00
  0.00000000E+00  0.00000000E+00  0.00000000E+00
  0.00000000E+00  0.00000000E+00  0.00000000E+00
