Hf Ta                                   
    1.000000000000000     
    11.5295310859512750   -0.0795119354717296   -1.7283306997047116
    -5.8620861318144595   10.4381278066751921    0.8656576239731417
    -2.8312928313834234    0.0034142379191680   20.6641081880958204
  Hf             Ta           
              12             116
Direct
  0.1569144968016824  0.8106886299404834  0.9367376977411468
  0.3413022108410949  0.4382912725029343  0.3111329621339086
  0.9056365916223134  0.0619571397562285  0.4376816850458106
  0.6577108110949378  0.5628441611266889  0.6880683681458412
  0.8433989389471443  0.6877597547125041  0.5624262585961792
  0.1556608830000955  0.0630462457566997  0.9377214605143310
  0.1576213378800372  0.5632413172923458  0.6873005796350917
  0.4094435538908003  0.3154593566504015  0.9379831874018284
  0.6563780391509054  0.3119129306863064  0.1875345442972887
  0.0931747863709078  0.6876301509325283  0.3126352282160377
  0.6567588246066230  0.8120623031619372  0.9374692100479739
  0.4073103184216442  0.3116955229242994  0.4380893449079587
  0.8426046499643070  0.1863539759049971  0.8125567068647654
  0.6570050234664970  0.8146752364565056  0.6868770792793101
  0.6582078045218432  0.0638966709266297  0.9368000385727387
  0.9056552646157219  0.5608857166668173  0.9382423023865217
  0.0879956254383836  0.4343129688860811  0.3129320510741189
  0.4041741001822326  0.3096321944980773  0.6880926208709909
  0.1524089728408752  0.3145748163152298  0.9369959483377461
  0.8437256146308492  0.4378860199043585  0.8125585222401683
  0.4062473582795738  0.5660575760048843  0.4381277451291603
  0.6562977757446060  0.5634444579042611  0.4360460832399520
  0.9070504042532765  0.5638445106530238  0.1864121327178591
  0.3461751734799020  0.6893614526644928  0.3130375856540999
  0.8437582003637346  0.1874963808251528  0.5626042874038022
  0.9062359189264456  0.0622597745277876  0.1871842235970165
  0.8423257658570790  0.4373362849466030  0.3133429113285301
  0.5924695859533864  0.6861866682168265  0.0641421729559609
  0.6558878161482471  0.5637580609571541  0.1873428115956937
  0.5937569661720500  0.9367452039925886  0.0623610072285539
  0.1554363419925169  0.0616266413591527  0.1876673611311108
  0.5930943166176792  0.6861904050715473  0.8109873811401168
  0.4078497728899348  0.8125963612543633  0.9375317949964153
  0.0899359297845466  0.1844484018942002  0.3122198889526763
  0.3427219295480623  0.4366138556254212  0.0623454782603554
  0.9049582897172742  0.3104268427173727  0.6878773192948741
  0.3429554032112715  0.4387454302045914  0.8113181748187994
  0.5931332915146621  0.9380282276342142  0.5626106522979670
  0.3450124529108194  0.1871748768327486  0.0660574393869356
  0.4050061774340997  0.0598077196979462  0.1885170254398589
  0.0930991164387697  0.1871582259487900  0.0623494623725380
  0.8414350183599659  0.9379823131260043  0.5646439652288849
  0.5929243769667528  0.9383734954410737  0.8110449847614557
  0.1573960506231031  0.5624447288993657  0.1877379224991302
  0.5925093934723237  0.4343633373634824  0.5623777799819398
  0.6604008464149224  0.3124260663692045  0.9374625888878542
  0.6560550078012447  0.8129259147432512  0.1870618696720589
  0.8423506586914770  0.9361466745707450  0.3111582527489748
  0.5949218724854778  0.4366754024149384  0.3122005764836419
  0.1561930064366845  0.5609089699017283  0.4383352965312141
  0.9099368581360399  0.3120738207112997  0.1870929389274261
  0.1575338227747311  0.0606469689683858  0.4378299778251248
  0.3433729224986226  0.4373686509658340  0.5628200823928011
  0.4140141121496391  0.0618678230821350  0.9368828031691562
  0.8455174383886319  0.9379775945455452  0.0641905984276166
  0.5948147090393952  0.6898755438685079  0.3117161939173222
  0.1558420814018986  0.3155168113254075  0.4378769963976680
  0.4027886749076292  0.3121628295214254  0.1876782520947133
  0.0948783435771652  0.9402027659911443  0.5618257688164741
  0.5928602716000073  0.1872061126896378  0.5624285165948232
  0.9070328905580013  0.5636791039011051  0.4376124253812264
  0.8441344614037535  0.4359096491555577  0.5631460782696076
  0.4070153421838155  0.8129584227275545  0.1874657302097350
  0.0953311829671478  0.1883595535918889  0.5639656482805769
  0.8407129145453799  0.6878694920932696  0.3120766646011159
  0.1538157326959114  0.3110170355526419  0.1856866514523659
  0.0928199087272789  0.1890976016423733  0.8115054897768487
  0.5945959286362335  0.1886283693162076  0.8123352348150249
  0.3436042090137425  0.1842663621034679  0.3114744100623937
  0.3431651421070631  0.1857086054473494  0.8114675422628818
  0.3435238690519782  0.6879352783829320  0.5627610470310058
  0.0961016604320933  0.6889222362781245  0.5614895214588428
  0.1571944945595503  0.8129050008792753  0.1865588133737157
  0.6570259032739438  0.3114051630651892  0.6870472644000312
  0.3458867200780263  0.6887972280651762  0.8138659654240386
  0.0927773830246635  0.6851974790634673  0.8107330833831276
  0.3452730421809947  0.9379671917995476  0.3121712350719516
  0.1564216416007231  0.8140603248974334  0.4385495016686480
  0.5933410971545476  0.4362190158094713  0.8141525292048842
  0.9077311525817946  0.5607729851433501  0.6882448671352419
  0.9068874921335215  0.8130926260318467  0.1876078551906936
  0.4069521981053836  0.0627621864150431  0.6874552004851067
  0.5952453836195291  0.4398007762897217  0.0631209705916465
  0.4067910939790478  0.5635251729603074  0.1854915585555753
  0.0923606692955476  0.4358319043463425  0.8137413819648073
  0.4053486763523600  0.8129916547353890  0.4375657086106952
  0.9058899416995592  0.0634486630476869  0.6877392435304975
  0.4098438012884864  0.8158724978707306  0.6876662346197714
  0.1565162385264472  0.3115795901897040  0.6869820688688282
  0.5932241605551927  0.1863765775419147  0.3143945039743623
  0.4061871556753532  0.0606412413679445  0.4368279464693294
  0.3429164809449476  0.1867329687586446  0.5641852541618805
  0.3441109284402919  0.9382297827592999  0.5626746541888605
  0.0928961992031119  0.4357905567901682  0.5615279290486852
  0.6567436540348655  0.0637302953550332  0.6871294446482342
  0.8403910982463896  0.1871773018648285  0.3108609361584040
  0.3437584089810005  0.9367483105423382  0.8122060578236389
  0.5887673691906574  0.6881787358447311  0.5617015507302999
  0.0938666400892509  0.9390090273786459  0.8100325325635132
  0.0935031259276811  0.9390147562153415  0.3131703483274982
  0.1555797118961176  0.5612640535756093  0.9371657225248280
  0.0936946681445262  0.4381796827927484  0.0626008584580732
  0.1572559165523043  0.8147873685635357  0.6865550996767196
  0.8438000209372540  0.1877450462159073  0.0626738978383705
  0.0937394754178074  0.6866081675902796  0.0640736785381470
  0.9060301982781030  0.3127797126050985  0.9372774584025563
  0.4041557286949654  0.5625613344800775  0.9375215707151077
  0.0924915137193673  0.9361006067225099  0.0641716380067314
  0.8433861362226287  0.6869934157549810  0.0630220989421924
  0.8468269795418679  0.6898099287806609  0.8146257632843630
  0.9062896085246130  0.0648314398339226  0.9380428683290775
  0.5932016700465916  0.1868125271369824  0.0610670704877326
  0.4066321896930222  0.5623651675440000  0.6870284832876326
  0.6539295500925169  0.8104924854361255  0.4378422665684530
  0.5937203638265248  0.9373103093574050  0.3123785781840204
  0.6537775404218699  0.0623064226888030  0.4377396124086811
  0.9062397527861662  0.8116383842068839  0.4351361530864930
  0.3458639669372873  0.9394151121447305  0.0638351577921524
  0.6589750670672521  0.5630022295400446  0.9373923926096110
  0.1561794063725023  0.0625778968112413  0.6868516583705417
  0.6563334908772221  0.0610093107133945  0.1862445473499392
  0.9046969000801721  0.8090307022406030  0.9385218230784620
  0.3434809517822092  0.6877377522849539  0.0625041843936819
  0.8433399211235210  0.4367770769754310  0.0627139856445508
  0.6595762344306095  0.3131180754151022  0.4375479708047914
  0.9098319477812022  0.8164868391320727  0.6891145273189250
  0.9051645140426953  0.3136170967686578  0.4368156938294058
  0.8438607283913434  0.9371724090329997  0.8128600556828892
 
  0.00000000E+00  0.00000000E+00  0.00000000E+00
  0.00000000E+00  0.00000000E+00  0.00000000E+00
  0.00000000E+00  0.00000000E+00  0.00000000E+00
  0.00000000E+00  0.00000000E+00  0.00000000E+00
  0.00000000E+00  0.00000000E+00  0.00000000E+00
  0.00000000E+00  0.00000000E+00  0.00000000E+00
  0.00000000E+00  0.00000000E+00  0.00000000E+00
  0.00000000E+00  0.00000000E+00  0.00000000E+00
  0.00000000E+00  0.00000000E+00  0.00000000E+00
  0.00000000E+00  0.00000000E+00  0.00000000E+00
  0.00000000E+00  0.00000000E+00  0.00000000E+00
  0.00000000E+00  0.00000000E+00  0.00000000E+00
  0.00000000E+00  0.00000000E+00  0.00000000E+00
  0.00000000E+00  0.00000000E+00  0.00000000E+00
  0.00000000E+00  0.00000000E+00  0.00000000E+00
  0.00000000E+00  0.00000000E+00  0.00000000E+00
  0.00000000E+00  0.00000000E+00  0.00000000E+00
  0.00000000E+00  0.00000000E+00  0.00000000E+00
  0.00000000E+00  0.00000000E+00  0.00000000E+00
  0.00000000E+00  0.00000000E+00  0.00000000E+00
  0.00000000E+00  0.00000000E+00  0.00000000E+00
  0.00000000E+00  0.00000000E+00  0.00000000E+00
  0.00000000E+00  0.00000000E+00  0.00000000E+00
  0.00000000E+00  0.00000000E+00  0.00000000E+00
  0.00000000E+00  0.00000000E+00  0.00000000E+00
  0.00000000E+00  0.00000000E+00  0.00000000E+00
  0.00000000E+00  0.00000000E+00  0.00000000E+00
  0.00000000E+00  0.00000000E+00  0.00000000E+00
  0.00000000E+00  0.00000000E+00  0.00000000E+00
  0.00000000E+00  0.00000000E+00  0.00000000E+00
  0.00000000E+00  0.00000000E+00  0.00000000E+00
  0.00000000E+00  0.00000000E+00  0.00000000E+00
  0.00000000E+00  0.00000000E+00  0.00000000E+00
  0.00000000E+00  0.00000000E+00  0.00000000E+00
  0.00000000E+00  0.00000000E+00  0.00000000E+00
  0.00000000E+00  0.00000000E+00  0.00000000E+00
  0.00000000E+00  0.00000000E+00  0.00000000E+00
  0.00000000E+00  0.00000000E+00  0.00000000E+00
  0.00000000E+00  0.00000000E+00  0.00000000E+00
  0.00000000E+00  0.00000000E+00  0.00000000E+00
  0.00000000E+00  0.00000000E+00  0.00000000E+00
  0.00000000E+00  0.00000000E+00  0.00000000E+00
  0.00000000E+00  0.00000000E+00  0.00000000E+00
  0.00000000E+00  0.00000000E+00  0.00000000E+00
  0.00000000E+00  0.00000000E+00  0.00000000E+00
  0.00000000E+00  0.00000000E+00  0.00000000E+00
  0.00000000E+00  0.00000000E+00  0.00000000E+00
  0.00000000E+00  0.00000000E+00  0.00000000E+00
  0.00000000E+00  0.00000000E+00  0.00000000E+00
  0.00000000E+00  0.00000000E+00  0.00000000E+00
  0.00000000E+00  0.00000000E+00  0.00000000E+00
  0.00000000E+00  0.00000000E+00  0.00000000E+00
  0.00000000E+00  0.00000000E+00  0.00000000E+00
  0.00000000E+00  0.00000000E+00  0.00000000E+00
  0.00000000E+00  0.00000000E+00  0.00000000E+00
  0.00000000E+00  0.00000000E+00  0.00000000E+00
  0.00000000E+00  0.00000000E+00  0.00000000E+00
  0.00000000E+00  0.00000000E+00  0.00000000E+00
  0.00000000E+00  0.00000000E+00  0.00000000E+00
  0.00000000E+00  0.00000000E+00  0.00000000E+00
  0.00000000E+00  0.00000000E+00  0.00000000E+00
  0.00000000E+00  0.00000000E+00  0.00000000E+00
  0.00000000E+00  0.00000000E+00  0.00000000E+00
  0.00000000E+00  0.00000000E+00  0.00000000E+00
  0.00000000E+00  0.00000000E+00  0.00000000E+00
  0.00000000E+00  0.00000000E+00  0.00000000E+00
  0.00000000E+00  0.00000000E+00  0.00000000E+00
  0.00000000E+00  0.00000000E+00  0.00000000E+00
  0.00000000E+00  0.00000000E+00  0.00000000E+00
  0.00000000E+00  0.00000000E+00  0.00000000E+00
  0.00000000E+00  0.00000000E+00  0.00000000E+00
  0.00000000E+00  0.00000000E+00  0.00000000E+00
  0.00000000E+00  0.00000000E+00  0.00000000E+00
  0.00000000E+00  0.00000000E+00  0.00000000E+00
  0.00000000E+00  0.00000000E+00  0.00000000E+00
  0.00000000E+00  0.00000000E+00  0.00000000E+00
  0.00000000E+00  0.00000000E+00  0.00000000E+00
  0.00000000E+00  0.00000000E+00  0.00000000E+00
  0.00000000E+00  0.00000000E+00  0.00000000E+00
  0.00000000E+00  0.00000000E+00  0.00000000E+00
  0.00000000E+00  0.00000000E+00  0.00000000E+00
  0.00000000E+00  0.00000000E+00  0.00000000E+00
  0.00000000E+00  0.00000000E+00  0.00000000E+00
  0.00000000E+00  0.00000000E+00  0.00000000E+00
  0.00000000E+00  0.00000000E+00  0.00000000E+00
  0.00000000E+00  0.00000000E+00  0.00000000E+00
  0.00000000E+00  0.00000000E+00  0.00000000E+00
  0.00000000E+00  0.00000000E+00  0.00000000E+00
  0.00000000E+00  0.00000000E+00  0.00000000E+00
  0.00000000E+00  0.00000000E+00  0.00000000E+00
  0.00000000E+00  0.00000000E+00  0.00000000E+00
  0.00000000E+00  0.00000000E+00  0.00000000E+00
  0.00000000E+00  0.00000000E+00  0.00000000E+00
  0.00000000E+00  0.00000000E+00  0.00000000E+00
  0.00000000E+00  0.00000000E+00  0.00000000E+00
  0.00000000E+00  0.00000000E+00  0.00000000E+00
  0.00000000E+00  0.00000000E+00  0.00000000E+00
  0.00000000E+00  0.00000000E+00  0.00000000E+00
  0.00000000E+00  0.00000000E+00  0.00000000E+00
  0.00000000E+00  0.00000000E+00  0.00000000E+00
  0.00000000E+00  0.00000000E+00  0.00000000E+00
  0.00000000E+00  0.00000000E+00  0.00000000E+00
  0.00000000E+00  0.00000000E+00  0.00000000E+00
  0.00000000E+00  0.00000000E+00  0.00000000E+00
  0.00000000E+00  0.00000000E+00  0.00000000E+00
  0.00000000E+00  0.00000000E+00  0.00000000E+00
  0.00000000E+00  0.00000000E+00  0.00000000E+00
  0.00000000E+00  0.00000000E+00  0.00000000E+00
  0.00000000E+00  0.00000000E+00  0.00000000E+00
  0.00000000E+00  0.00000000E+00  0.00000000E+00
  0.00000000E+00  0.00000000E+00  0.00000000E+00
  0.00000000E+00  0.00000000E+00  0.00000000E+00
  0.00000000E+00  0.00000000E+00  0.00000000E+00
  0.00000000E+00  0.00000000E+00  0.00000000E+00
  0.00000000E+00  0.00000000E+00  0.00000000E+00
  0.00000000E+00  0.00000000E+00  0.00000000E+00
  0.00000000E+00  0.00000000E+00  0.00000000E+00
  0.00000000E+00  0.00000000E+00  0.00000000E+00
  0.00000000E+00  0.00000000E+00  0.00000000E+00
  0.00000000E+00  0.00000000E+00  0.00000000E+00
  0.00000000E+00  0.00000000E+00  0.00000000E+00
  0.00000000E+00  0.00000000E+00  0.00000000E+00
  0.00000000E+00  0.00000000E+00  0.00000000E+00
  0.00000000E+00  0.00000000E+00  0.00000000E+00
  0.00000000E+00  0.00000000E+00  0.00000000E+00
  0.00000000E+00  0.00000000E+00  0.00000000E+00
  0.00000000E+00  0.00000000E+00  0.00000000E+00
  0.00000000E+00  0.00000000E+00  0.00000000E+00
