Nb Ti                                   
    1.000000000000000     
    11.3371642618605986    1.0159924510903386   -0.1604871196250466
    -4.5643574962739066   10.3508640419559939   -0.0569465059333699
     0.0174125791308697   -0.2045191597486849   18.8825210314602820
  Nb              Ti            
   124     4
Direct
     0.1873640346789724    0.8117945529323174    0.9371229434857445
     0.5605302190402534    0.9389829766567029    0.3105945363074291
     0.8123885135752049    0.6869443550432770    0.0619422564994889
     0.1869475537285540    0.3123929939310080    0.1871851608252411
     0.5610404267368603    0.6890356914806988    0.8140840476595348
     0.1870695287306756    0.3124469177912274    0.9376023036438350
     0.5619358950842158    0.1880196463519112    0.0630722975481624
     0.1889687487283727    0.8105191392580929    0.6865106188150158
     0.9385245472344986    0.3119572230054224    0.6869238407291995
     0.3115326586819919    0.6882234310301883    0.3122692505413072
     0.6858442372580047    0.5633723262461858    0.6868225000882825
     0.6880520301905669    0.3119954746312468    0.4377808870957203
     0.1869249703564171    0.0622608254746377    0.6877546584723071
     0.4381245045122630    0.5601920306935720    0.9370439008080651
     0.9374922049451486    0.0623368668616314    0.1873963611464783
     0.5620778051524622    0.6869755857388843    0.3125773042981438
     0.6861829289657646    0.8130683991685335    0.4374979887410775
     0.8126783226086433    0.6873712706427628    0.5624640501913682
     0.8115682547811786    0.4385350737527818    0.0625958637588955
     0.4379827336802803    0.8124386886609217    0.4371375524851057
     0.6900503837817641    0.0612741274952759    0.1880930713725869
     0.1880333208146678    0.0631965398060431    0.4375728240692285
     0.1871694979552765    0.3135650229488618    0.6874853032201844
     0.0599432737835606    0.6882903409044477    0.5620872019260654
     0.3125849469268285    0.4364431792285209    0.3124050639311482
     0.5626982445973151    0.4373041703279033    0.3124925486623842
     0.5616590471110130    0.1874700926661244    0.8123914467420458
     0.6871478739210128    0.5634599766936088    0.1875554291155239
     0.1913425999271568    0.5651193691283490    0.9371915195168410
     0.9382377416970743    0.5620787840432566    0.4375617052800284
     0.3147914306232387    0.1850710846696415    0.3109069256590819
     0.5629650824136000    0.4379331982753396    0.8120101847327853
     0.1860983451144924    0.0626242849421321    0.1881280443041262
     0.0655016132077463    0.4418804819373308    0.5623794307995433
     0.0614088275083504    0.4380126717266427    0.3116070222735965
     0.9366312082989057    0.0658802180190221    0.9383050375330306
     0.9374028951719793    0.0626206054102255    0.6886693333824762
     0.4366682518339117    0.3153286629576389    0.1882219985053762
     0.9373048212599381    0.8130585075920337    0.4375054394663090
     0.0629687901764236    0.9365533830340645    0.8125318955029919
     0.0628874931358288    0.9365946649658424    0.5627767400284994
     0.4382025455171228    0.0613905090345884    0.6885792869106039
     0.4374216545498015    0.0651412036286609    0.9383358352215146
     0.3125055679499480    0.9370672598906570    0.3131658294868604
     0.8113819114975195    0.4377362980764010    0.3123942442539850
     0.6865069825205707    0.8129800103089069    0.6884523417363853
     0.4370831848639332    0.5635840798374230    0.1866743932422423
     0.9376018756722007    0.3129725278114399    0.1877196969134482
     0.4369938077888874    0.3133670431606028    0.6868848939451376
     0.4389835997327547    0.8134473655938023    0.6886064268848593
     0.4380762055904025    0.8093635046367563    0.1867688460800147
     0.5590622869293934    0.9347563680926584    0.5631542474891456
     0.8125595984721158    0.9380849587468905    0.5626525944303098
     0.0639293042040900    0.1869654593994557    0.0630751469009959
     0.1841257316734769    0.0594934731055413    0.9380025325634346
     0.1880352443526639    0.5624016251629965    0.6870718354159312
     0.1898212896564248    0.8104560666028148    0.4396788988271115
     0.0622212239809191    0.4387015569018297    0.8125093550842408
     0.6861631049760353    0.5628632665860349    0.4374131831945105
     0.3113247793100423    0.6877824866242075    0.0619995988238427
     0.6877863391065457    0.8135516401994671    0.9377943626405905
     0.9376422311895645    0.5591843410417789    0.9364016989680417
     0.3132657217969494    0.4376987732051357    0.8117225996019397
     0.3128773336306300    0.4344681434354007    0.5616613107276887
     0.8114473076217931    0.1876025524457273    0.0627972541860946
     0.6843611886686903    0.0590307663464409    0.9384793502298512
     0.5633301582631982    0.1895069959085756    0.3134580793696601
     0.9380560960896344    0.8120019839029522    0.1872844158534650
     0.6898418239839222    0.5665271783713920    0.9368681455352348
     0.5621977177943979    0.9407892976398878    0.0649452077770868
     0.0641679234407007    0.9365885533478177    0.3127583723732116
     0.5631538880496509    0.1880473535197120    0.5629172458981638
     0.8114760203487973    0.6855645028989635    0.8117207374124722
     0.6877153521880023    0.8129168123649613    0.1868751503040186
     0.9369624438740165    0.8132929456382304    0.6876846220158166
     0.4367504412233555    0.3123981080138821    0.9376890579642669
     0.0632936300800157    0.1862007750451536    0.8126497708164593
     0.6843757888439875    0.3089546216721547    0.1874358917761170
     0.0628428888886920    0.1873929761607576    0.5622824240039954
     0.8114058784754613    0.1871762102079414    0.3119706781191618
     0.0646033096365169    0.9380969526567726    0.0630718835750985
     0.5631260779620758    0.4370464496282618    0.0619727167664225
     0.3106700963955608    0.6867889844489588    0.8119915212905656
     0.8141269670572903    0.9353843778751175    0.8149699072625211
     0.3125366222357218    0.9354393681319919    0.0603611077578547
     0.6879088819154964    0.0623207836160426    0.4379513003004382
     0.9382610248260387    0.3122679564605876    0.9375848992391673
     0.3143732412289983    0.1850239429856951    0.0643521214596099
     0.1870708128333541    0.3126464060113379    0.4370381470719563
     0.0636270084786188    0.1870215516010557    0.3125815572104052
     0.8116025428186394    0.4381184045515545    0.8116607067736789
     0.6884943642923425    0.0616966177174701    0.6879238710072250
     0.5619522400678655    0.6892539592754501    0.0602337622420424
     0.8121101172268886    0.4366219177265909    0.5620033063763579
     0.6885802505642549    0.3125089046809363    0.6878665803597923
     0.3132104105106447    0.4370850785455945    0.0624713927383707
     0.4351062341781296    0.5642174646771474    0.4387657029350800
     0.4352797213872650    0.5651271010717005    0.6858718835992196
     0.0608420120283420    0.6894724477368556    0.0603433146858986
     0.1913930534235717    0.8148799720696313    0.1866122441251201
     0.9370407504293889    0.0624033506301562    0.4373035304620164
     0.8141943867507319    0.9355228334883186    0.0613155992492499
     0.5636180286259780    0.6871330307567001    0.5623101252105148
     0.6879694031239334    0.3120558471232910    0.9371278873435556
     0.8126088658772800    0.1882052244493822    0.8136396217672583
     0.0615932258694069    0.6896080591055358    0.8134495052187534
     0.9382499702290600    0.5626512314807678    0.6872120845991727
     0.5631064373181197    0.9387884217802792    0.8135776790521692
     0.8128737456664274    0.6875820867430055    0.3126516757190411
     0.9369948171420081    0.5623295408085899    0.1864566238919162
     0.3129999685777548    0.1868411046018645    0.5627771409228204
     0.8129133840784831    0.1879355430812124    0.5630172161500479
     0.0615625725228737    0.4379830544250304    0.0614917968617881
     0.9382032468134690    0.3116633448422241    0.4373376652438937
     0.3124467838510281    0.1865463270456738    0.8129471708758327
     0.3130306737554243    0.9361284292207258    0.8143950509358981
     0.1864315162729892    0.5599273779253482    0.4362870240682772
     0.0619752678173274    0.6876539552560808    0.3121872767859555
     0.4382557063405548    0.0616321559495099    0.4377224748826540
     0.8131633990002773    0.9368978033389641    0.3128299764289969
     0.5629699029287166    0.4381300225937008    0.5625823878887534
     0.1869946982316135    0.5624750409144910    0.1869671080712686
     0.4370701960574070    0.3132181728406992    0.4372803347456169
     0.3125285546844170    0.9405866599878696    0.5632896540513560
     0.9366726445806376    0.8133454586453897    0.9374481274737380
     0.4388054727073470    0.0611174414116618    0.1876229886019229
     0.4382382071526438    0.8123596582238828    0.9381764979908660
     0.3109381518005061    0.6881885991687149    0.5621757965876718
 
  0.00000000E+00  0.00000000E+00  0.00000000E+00
  0.00000000E+00  0.00000000E+00  0.00000000E+00
  0.00000000E+00  0.00000000E+00  0.00000000E+00
  0.00000000E+00  0.00000000E+00  0.00000000E+00
  0.00000000E+00  0.00000000E+00  0.00000000E+00
  0.00000000E+00  0.00000000E+00  0.00000000E+00
  0.00000000E+00  0.00000000E+00  0.00000000E+00
  0.00000000E+00  0.00000000E+00  0.00000000E+00
  0.00000000E+00  0.00000000E+00  0.00000000E+00
  0.00000000E+00  0.00000000E+00  0.00000000E+00
  0.00000000E+00  0.00000000E+00  0.00000000E+00
  0.00000000E+00  0.00000000E+00  0.00000000E+00
  0.00000000E+00  0.00000000E+00  0.00000000E+00
  0.00000000E+00  0.00000000E+00  0.00000000E+00
  0.00000000E+00  0.00000000E+00  0.00000000E+00
  0.00000000E+00  0.00000000E+00  0.00000000E+00
  0.00000000E+00  0.00000000E+00  0.00000000E+00
  0.00000000E+00  0.00000000E+00  0.00000000E+00
  0.00000000E+00  0.00000000E+00  0.00000000E+00
  0.00000000E+00  0.00000000E+00  0.00000000E+00
  0.00000000E+00  0.00000000E+00  0.00000000E+00
  0.00000000E+00  0.00000000E+00  0.00000000E+00
  0.00000000E+00  0.00000000E+00  0.00000000E+00
  0.00000000E+00  0.00000000E+00  0.00000000E+00
  0.00000000E+00  0.00000000E+00  0.00000000E+00
  0.00000000E+00  0.00000000E+00  0.00000000E+00
  0.00000000E+00  0.00000000E+00  0.00000000E+00
  0.00000000E+00  0.00000000E+00  0.00000000E+00
  0.00000000E+00  0.00000000E+00  0.00000000E+00
  0.00000000E+00  0.00000000E+00  0.00000000E+00
  0.00000000E+00  0.00000000E+00  0.00000000E+00
  0.00000000E+00  0.00000000E+00  0.00000000E+00
  0.00000000E+00  0.00000000E+00  0.00000000E+00
  0.00000000E+00  0.00000000E+00  0.00000000E+00
  0.00000000E+00  0.00000000E+00  0.00000000E+00
  0.00000000E+00  0.00000000E+00  0.00000000E+00
  0.00000000E+00  0.00000000E+00  0.00000000E+00
  0.00000000E+00  0.00000000E+00  0.00000000E+00
  0.00000000E+00  0.00000000E+00  0.00000000E+00
  0.00000000E+00  0.00000000E+00  0.00000000E+00
  0.00000000E+00  0.00000000E+00  0.00000000E+00
  0.00000000E+00  0.00000000E+00  0.00000000E+00
  0.00000000E+00  0.00000000E+00  0.00000000E+00
  0.00000000E+00  0.00000000E+00  0.00000000E+00
  0.00000000E+00  0.00000000E+00  0.00000000E+00
  0.00000000E+00  0.00000000E+00  0.00000000E+00
  0.00000000E+00  0.00000000E+00  0.00000000E+00
  0.00000000E+00  0.00000000E+00  0.00000000E+00
  0.00000000E+00  0.00000000E+00  0.00000000E+00
  0.00000000E+00  0.00000000E+00  0.00000000E+00
  0.00000000E+00  0.00000000E+00  0.00000000E+00
  0.00000000E+00  0.00000000E+00  0.00000000E+00
  0.00000000E+00  0.00000000E+00  0.00000000E+00
  0.00000000E+00  0.00000000E+00  0.00000000E+00
  0.00000000E+00  0.00000000E+00  0.00000000E+00
  0.00000000E+00  0.00000000E+00  0.00000000E+00
  0.00000000E+00  0.00000000E+00  0.00000000E+00
  0.00000000E+00  0.00000000E+00  0.00000000E+00
  0.00000000E+00  0.00000000E+00  0.00000000E+00
  0.00000000E+00  0.00000000E+00  0.00000000E+00
  0.00000000E+00  0.00000000E+00  0.00000000E+00
  0.00000000E+00  0.00000000E+00  0.00000000E+00
  0.00000000E+00  0.00000000E+00  0.00000000E+00
  0.00000000E+00  0.00000000E+00  0.00000000E+00
  0.00000000E+00  0.00000000E+00  0.00000000E+00
  0.00000000E+00  0.00000000E+00  0.00000000E+00
  0.00000000E+00  0.00000000E+00  0.00000000E+00
  0.00000000E+00  0.00000000E+00  0.00000000E+00
  0.00000000E+00  0.00000000E+00  0.00000000E+00
  0.00000000E+00  0.00000000E+00  0.00000000E+00
  0.00000000E+00  0.00000000E+00  0.00000000E+00
  0.00000000E+00  0.00000000E+00  0.00000000E+00
  0.00000000E+00  0.00000000E+00  0.00000000E+00
  0.00000000E+00  0.00000000E+00  0.00000000E+00
  0.00000000E+00  0.00000000E+00  0.00000000E+00
  0.00000000E+00  0.00000000E+00  0.00000000E+00
  0.00000000E+00  0.00000000E+00  0.00000000E+00
  0.00000000E+00  0.00000000E+00  0.00000000E+00
  0.00000000E+00  0.00000000E+00  0.00000000E+00
  0.00000000E+00  0.00000000E+00  0.00000000E+00
  0.00000000E+00  0.00000000E+00  0.00000000E+00
  0.00000000E+00  0.00000000E+00  0.00000000E+00
  0.00000000E+00  0.00000000E+00  0.00000000E+00
  0.00000000E+00  0.00000000E+00  0.00000000E+00
  0.00000000E+00  0.00000000E+00  0.00000000E+00
  0.00000000E+00  0.00000000E+00  0.00000000E+00
  0.00000000E+00  0.00000000E+00  0.00000000E+00
  0.00000000E+00  0.00000000E+00  0.00000000E+00
  0.00000000E+00  0.00000000E+00  0.00000000E+00
  0.00000000E+00  0.00000000E+00  0.00000000E+00
  0.00000000E+00  0.00000000E+00  0.00000000E+00
  0.00000000E+00  0.00000000E+00  0.00000000E+00
  0.00000000E+00  0.00000000E+00  0.00000000E+00
  0.00000000E+00  0.00000000E+00  0.00000000E+00
  0.00000000E+00  0.00000000E+00  0.00000000E+00
  0.00000000E+00  0.00000000E+00  0.00000000E+00
  0.00000000E+00  0.00000000E+00  0.00000000E+00
  0.00000000E+00  0.00000000E+00  0.00000000E+00
  0.00000000E+00  0.00000000E+00  0.00000000E+00
  0.00000000E+00  0.00000000E+00  0.00000000E+00
  0.00000000E+00  0.00000000E+00  0.00000000E+00
  0.00000000E+00  0.00000000E+00  0.00000000E+00
  0.00000000E+00  0.00000000E+00  0.00000000E+00
  0.00000000E+00  0.00000000E+00  0.00000000E+00
  0.00000000E+00  0.00000000E+00  0.00000000E+00
  0.00000000E+00  0.00000000E+00  0.00000000E+00
  0.00000000E+00  0.00000000E+00  0.00000000E+00
  0.00000000E+00  0.00000000E+00  0.00000000E+00
  0.00000000E+00  0.00000000E+00  0.00000000E+00
  0.00000000E+00  0.00000000E+00  0.00000000E+00
  0.00000000E+00  0.00000000E+00  0.00000000E+00
  0.00000000E+00  0.00000000E+00  0.00000000E+00
  0.00000000E+00  0.00000000E+00  0.00000000E+00
  0.00000000E+00  0.00000000E+00  0.00000000E+00
  0.00000000E+00  0.00000000E+00  0.00000000E+00
  0.00000000E+00  0.00000000E+00  0.00000000E+00
  0.00000000E+00  0.00000000E+00  0.00000000E+00
  0.00000000E+00  0.00000000E+00  0.00000000E+00
  0.00000000E+00  0.00000000E+00  0.00000000E+00
  0.00000000E+00  0.00000000E+00  0.00000000E+00
  0.00000000E+00  0.00000000E+00  0.00000000E+00
  0.00000000E+00  0.00000000E+00  0.00000000E+00
  0.00000000E+00  0.00000000E+00  0.00000000E+00
  0.00000000E+00  0.00000000E+00  0.00000000E+00
  0.00000000E+00  0.00000000E+00  0.00000000E+00
  0.00000000E+00  0.00000000E+00  0.00000000E+00
  0.00000000E+00  0.00000000E+00  0.00000000E+00
  0.00000000E+00  0.00000000E+00  0.00000000E+00
