Hf Ti                                   
    1.000000000000000     
    11.9902215257591003    0.0051773384774468   -0.0052617470444439
    -5.9906346913260577   10.3515727326817135    0.0087789954872290
    -0.0083193813808606    0.0112441175796307   18.8747027965489558
  Hf              Ti            
    24   104
Direct
     0.0820137065116014    0.1691521671736783    0.8118768900536679
     0.6695503882926712    0.5888844773615876    0.4370869548187726
     0.4136351010193288    0.0769059066533603    0.6836042845463238
     0.3313637180637893    0.1649471078091801    0.8143290741380002
     0.4172506576324174    0.5848186727505800    0.4366539341718017
     0.6685381282828787    0.3343544333357104    0.6832691071369542
     0.3251955738584369    0.6629335911448797    0.8112662454769538
     0.6669456202211878    0.3354145587334710    0.9415924308399877
     0.3313422820337747    0.9121448038108665    0.3118699130308891
     0.4151692021373811    0.5827274632568713    0.9430129050907191
     0.6650244993444955    0.3352318352912748    0.4409916019040320
     0.8349132554160472    0.9163605022062561    0.8120495572092571
     0.1712550897203557    0.0881156280968281    0.1853029964361652
     0.8304336367771666    0.1634820762833189    0.0636401957257535
     0.5883860935928739    0.1705032041304224    0.3116880925933174
     0.6688059978223980    0.8361556453429061    0.1858044955838355
     0.5859199611436555    0.1666156969420842    0.8138967366669830
     0.9219690698404172    0.5861886432568190    0.6880603187709341
     0.9173849471039367    0.3301338343747204    0.4330578521479386
     0.1692015844287478    0.5902225141100883    0.4376116065777803
     0.5824954024106435    0.9163213780161686    0.8132294651768459
     0.0777401340232612    0.9142966378490880    0.3132730131705062
     0.5841503220460783    0.6626623969335742    0.8119664442117093
     0.9177351611031952    0.3372823172738781    0.1920637633389038
     0.8324902521742206    0.9170814589025771    0.5630713151274280
     0.4134797628442028    0.3380176653720545    0.6872745176543551
     0.8322375728617575    0.6681077696866835    0.3103094688366397
     0.0821314821638472    0.1659445826201238    0.5621888914201374
     0.5872420317895736    0.4215627648028433    0.8127109683347530
     0.4236186433556282    0.8377799070513059    0.4394584544965814
     0.3295496507186849    0.4130525089311788    0.5627072030540725
     0.0793006040354077    0.4185858878937185    0.8127073141615577
     0.1675001572992208    0.0854603695272017    0.4392494471708688
     0.0824654273436836    0.6674328780889358    0.8156422106274110
     0.0817379465176379    0.1719643879973399    0.3137827535585015
     0.3373241183654341    0.6673419421142434    0.3082084838330308
     0.8322920172862880    0.9131681480128220    0.3142213201939993
     0.6675814091055113    0.3383550950133302    0.1842273159565121
     0.8303050557204161    0.4282052329232096    0.3116635232480151
     0.6673743237566617    0.5873558165275782    0.6849096551912359
     0.8316617004813115    0.1662220190018917    0.5611991273694574
     0.0764060393162071    0.6589106865060592    0.3089761180085820
     0.8290636450217278    0.1521973162983930    0.3121616204202246
     0.3294682772520779    0.9169822251057501    0.0648328951709004
     0.9139114644203639    0.8294801663121005    0.1853539709735303
     0.5772515695066696    0.1606831316934475    0.0644745627846601
     0.4152567924452205    0.3347957590892114    0.9391498398106923
     0.4099071254332844    0.8344498061454365    0.9407952722726700
     0.3270843750944625    0.9119488037314726    0.8141303285196457
     0.6694623030033506    0.8380308835288962    0.4376311939652264
     0.9213063633018452    0.5928548944859013    0.4369278535271824
     0.1696068622668386    0.8313417645557842    0.6870550463772517
     0.5822092007904681    0.1567340078939619    0.5594624605540144
     0.5821540900036948    0.6655067099519874    0.3089947945766953
     0.8426808888604894    0.9178691716040626    0.0610388282154437
     0.0817272776168880    0.9107594043325474    0.0617813397228894
     0.8316939062054709    0.6651811353606201    0.0629016016179397
     0.5747256226581933    0.9133950728738011    0.0608166807744870
     0.0837071617861308    0.4123199190412780    0.5634503609469049
     0.0837455134144313    0.6717265836748292    0.5624088602936647
     0.8391731970154008    0.4236383326608174    0.0631417846703150
     0.9214120143923300    0.3360798584417006    0.9383568607832889
     0.3349970158498115    0.6687442071437326    0.5641572423058022
     0.4157591175162943    0.5809875935230125    0.6830930784746315
     0.1621371426893529    0.0821041760857044    0.6849979301429950
     0.8342474174427086    0.6629581834073668    0.8144565400583192
     0.6702448799076058    0.8343960309448432    0.9436987151997961
     0.3316248664786684    0.4173385250871546    0.8117913070525744
     0.4173479309971155    0.0875672197870194    0.1863132990694515
     0.4154553308805916    0.8317524819405610    0.6836978482820426
     0.4217374291653897    0.3355587444558450    0.1868068789820382
     0.9209847497621503    0.0811292360974161    0.1894408828505054
     0.5795638352088390    0.4203654589970381    0.0634659891986066
     0.5829737369550746    0.9120763716884428    0.3130582701913691
     0.9176816087820133    0.8366809137406984    0.4417314352208310
     0.8360380879512609    0.1720875354404383    0.8132124962887693
     0.5738312521966251    0.4180841079204734    0.5636832070945307
     0.5799114916002091    0.4177083999136057    0.3100880203524328
     0.5862865932461414    0.6640650572332684    0.0643490218370329
     0.0956506231583655    0.4200950016796868    0.3114912490356602
     0.0827552391074256    0.9100053882251047    0.8118667661759756
     0.9206729030324508    0.8313914845169256    0.9385303413418066
     0.4177632444867804    0.8333325834405990    0.1858247667276016
     0.3394328985153732    0.1691469546381329    0.0606976007534348
     0.3305916606432140    0.6694155502040757    0.0650230150814976
     0.1696577569557084    0.3378279757514857    0.6857437992701008
     0.9153887549402289    0.5870088431562371    0.1863238009189770
     0.9194777836310256    0.3295644882237119    0.6865465720075606
     0.8391982059353736    0.4189349504935255    0.8152809562614001
     0.1664700954134639    0.3334630243375600    0.9390746792698328
     0.1673165082554341    0.3284565020527390    0.4373164429293174
     0.0830947152545989    0.6666358585388816    0.0631636673407147
     0.3284042580177094    0.9107391432642339    0.5594670964713325
     0.9178446553455565    0.8346235630464681    0.6849597555699266
     0.9174165771778866    0.0841684026160437    0.9394268788394193
     0.6646638204340661    0.8320303945846992    0.6834966817760579
     0.0887697538300715    0.4204576354874363    0.0621865130322299
     0.3331447861641594    0.1704340454189040    0.5612403228364542
     0.1631645090900799    0.8267489519372682    0.1855925243854686
     0.1680713545779682    0.3358529841381660    0.1873156603038029
     0.3346191958367414    0.1722914596268169    0.3139516657519558
     0.0862298896772419    0.9190125754251426    0.5637972932121261
     0.1678780852769445    0.8345248473048381    0.9388959211327478
     0.4101586036209593    0.0813448356373015    0.4391330828732523
     0.8333483940261771    0.6656015973403830    0.5630194122627921
     0.9155119783966553    0.0865411764401438    0.6832502214958277
     0.5841885712353572    0.9164640424858866    0.5627927804648707
     0.5857981159957280    0.6715739317077516    0.5635555625078383
     0.9212745276631825    0.5879016404567864    0.9395875745451928
     0.1627388012705594    0.8340449525792262    0.4397911087938553
     0.1620960726503027    0.0781471228864721    0.9410357944718216
     0.6739900727831927    0.0831368597485896    0.6840768713952519
     0.6728114976474138    0.5874957886863191    0.9403113169771935
     0.6597136220498762    0.0787813324668142    0.1875540105694269
     0.6666212873939996    0.5803661520430818    0.1871295169484170
     0.6673230239366440    0.0819498654656510    0.9399154819021937
     0.8439506931231960    0.4219531432398534    0.5612838126894425
     0.4151364093959586    0.5795193892026543    0.1858565118430453
     0.3327394715967394    0.4131478930822580    0.3100673883366791
     0.4136932136352232    0.0758382868544491    0.9413449627396701
     0.3283453819571274    0.4084529020436390    0.0647862448483382
     0.1704254091176269    0.5862564167609337    0.1870138344912358
     0.1613122702518204    0.5831039089396673    0.9399377987352087
     0.1650489036396293    0.5809396906721358    0.6840349955542555
     0.0835183095064335    0.1687489507515391    0.0611860378169836
     0.9180067387239359    0.0786961956952850    0.4379362566901697
     0.6653443861994514    0.0744571845141785    0.4378901734955473
     0.4117399523433934    0.3293911768911300    0.4376809914855705
 
  0.00000000E+00  0.00000000E+00  0.00000000E+00
  0.00000000E+00  0.00000000E+00  0.00000000E+00
  0.00000000E+00  0.00000000E+00  0.00000000E+00
  0.00000000E+00  0.00000000E+00  0.00000000E+00
  0.00000000E+00  0.00000000E+00  0.00000000E+00
  0.00000000E+00  0.00000000E+00  0.00000000E+00
  0.00000000E+00  0.00000000E+00  0.00000000E+00
  0.00000000E+00  0.00000000E+00  0.00000000E+00
  0.00000000E+00  0.00000000E+00  0.00000000E+00
  0.00000000E+00  0.00000000E+00  0.00000000E+00
  0.00000000E+00  0.00000000E+00  0.00000000E+00
  0.00000000E+00  0.00000000E+00  0.00000000E+00
  0.00000000E+00  0.00000000E+00  0.00000000E+00
  0.00000000E+00  0.00000000E+00  0.00000000E+00
  0.00000000E+00  0.00000000E+00  0.00000000E+00
  0.00000000E+00  0.00000000E+00  0.00000000E+00
  0.00000000E+00  0.00000000E+00  0.00000000E+00
  0.00000000E+00  0.00000000E+00  0.00000000E+00
  0.00000000E+00  0.00000000E+00  0.00000000E+00
  0.00000000E+00  0.00000000E+00  0.00000000E+00
  0.00000000E+00  0.00000000E+00  0.00000000E+00
  0.00000000E+00  0.00000000E+00  0.00000000E+00
  0.00000000E+00  0.00000000E+00  0.00000000E+00
  0.00000000E+00  0.00000000E+00  0.00000000E+00
  0.00000000E+00  0.00000000E+00  0.00000000E+00
  0.00000000E+00  0.00000000E+00  0.00000000E+00
  0.00000000E+00  0.00000000E+00  0.00000000E+00
  0.00000000E+00  0.00000000E+00  0.00000000E+00
  0.00000000E+00  0.00000000E+00  0.00000000E+00
  0.00000000E+00  0.00000000E+00  0.00000000E+00
  0.00000000E+00  0.00000000E+00  0.00000000E+00
  0.00000000E+00  0.00000000E+00  0.00000000E+00
  0.00000000E+00  0.00000000E+00  0.00000000E+00
  0.00000000E+00  0.00000000E+00  0.00000000E+00
  0.00000000E+00  0.00000000E+00  0.00000000E+00
  0.00000000E+00  0.00000000E+00  0.00000000E+00
  0.00000000E+00  0.00000000E+00  0.00000000E+00
  0.00000000E+00  0.00000000E+00  0.00000000E+00
  0.00000000E+00  0.00000000E+00  0.00000000E+00
  0.00000000E+00  0.00000000E+00  0.00000000E+00
  0.00000000E+00  0.00000000E+00  0.00000000E+00
  0.00000000E+00  0.00000000E+00  0.00000000E+00
  0.00000000E+00  0.00000000E+00  0.00000000E+00
  0.00000000E+00  0.00000000E+00  0.00000000E+00
  0.00000000E+00  0.00000000E+00  0.00000000E+00
  0.00000000E+00  0.00000000E+00  0.00000000E+00
  0.00000000E+00  0.00000000E+00  0.00000000E+00
  0.00000000E+00  0.00000000E+00  0.00000000E+00
  0.00000000E+00  0.00000000E+00  0.00000000E+00
  0.00000000E+00  0.00000000E+00  0.00000000E+00
  0.00000000E+00  0.00000000E+00  0.00000000E+00
  0.00000000E+00  0.00000000E+00  0.00000000E+00
  0.00000000E+00  0.00000000E+00  0.00000000E+00
  0.00000000E+00  0.00000000E+00  0.00000000E+00
  0.00000000E+00  0.00000000E+00  0.00000000E+00
  0.00000000E+00  0.00000000E+00  0.00000000E+00
  0.00000000E+00  0.00000000E+00  0.00000000E+00
  0.00000000E+00  0.00000000E+00  0.00000000E+00
  0.00000000E+00  0.00000000E+00  0.00000000E+00
  0.00000000E+00  0.00000000E+00  0.00000000E+00
  0.00000000E+00  0.00000000E+00  0.00000000E+00
  0.00000000E+00  0.00000000E+00  0.00000000E+00
  0.00000000E+00  0.00000000E+00  0.00000000E+00
  0.00000000E+00  0.00000000E+00  0.00000000E+00
  0.00000000E+00  0.00000000E+00  0.00000000E+00
  0.00000000E+00  0.00000000E+00  0.00000000E+00
  0.00000000E+00  0.00000000E+00  0.00000000E+00
  0.00000000E+00  0.00000000E+00  0.00000000E+00
  0.00000000E+00  0.00000000E+00  0.00000000E+00
  0.00000000E+00  0.00000000E+00  0.00000000E+00
  0.00000000E+00  0.00000000E+00  0.00000000E+00
  0.00000000E+00  0.00000000E+00  0.00000000E+00
  0.00000000E+00  0.00000000E+00  0.00000000E+00
  0.00000000E+00  0.00000000E+00  0.00000000E+00
  0.00000000E+00  0.00000000E+00  0.00000000E+00
  0.00000000E+00  0.00000000E+00  0.00000000E+00
  0.00000000E+00  0.00000000E+00  0.00000000E+00
  0.00000000E+00  0.00000000E+00  0.00000000E+00
  0.00000000E+00  0.00000000E+00  0.00000000E+00
  0.00000000E+00  0.00000000E+00  0.00000000E+00
  0.00000000E+00  0.00000000E+00  0.00000000E+00
  0.00000000E+00  0.00000000E+00  0.00000000E+00
  0.00000000E+00  0.00000000E+00  0.00000000E+00
  0.00000000E+00  0.00000000E+00  0.00000000E+00
  0.00000000E+00  0.00000000E+00  0.00000000E+00
  0.00000000E+00  0.00000000E+00  0.00000000E+00
  0.00000000E+00  0.00000000E+00  0.00000000E+00
  0.00000000E+00  0.00000000E+00  0.00000000E+00
  0.00000000E+00  0.00000000E+00  0.00000000E+00
  0.00000000E+00  0.00000000E+00  0.00000000E+00
  0.00000000E+00  0.00000000E+00  0.00000000E+00
  0.00000000E+00  0.00000000E+00  0.00000000E+00
  0.00000000E+00  0.00000000E+00  0.00000000E+00
  0.00000000E+00  0.00000000E+00  0.00000000E+00
  0.00000000E+00  0.00000000E+00  0.00000000E+00
  0.00000000E+00  0.00000000E+00  0.00000000E+00
  0.00000000E+00  0.00000000E+00  0.00000000E+00
  0.00000000E+00  0.00000000E+00  0.00000000E+00
  0.00000000E+00  0.00000000E+00  0.00000000E+00
  0.00000000E+00  0.00000000E+00  0.00000000E+00
  0.00000000E+00  0.00000000E+00  0.00000000E+00
  0.00000000E+00  0.00000000E+00  0.00000000E+00
  0.00000000E+00  0.00000000E+00  0.00000000E+00
  0.00000000E+00  0.00000000E+00  0.00000000E+00
  0.00000000E+00  0.00000000E+00  0.00000000E+00
  0.00000000E+00  0.00000000E+00  0.00000000E+00
  0.00000000E+00  0.00000000E+00  0.00000000E+00
  0.00000000E+00  0.00000000E+00  0.00000000E+00
  0.00000000E+00  0.00000000E+00  0.00000000E+00
  0.00000000E+00  0.00000000E+00  0.00000000E+00
  0.00000000E+00  0.00000000E+00  0.00000000E+00
  0.00000000E+00  0.00000000E+00  0.00000000E+00
  0.00000000E+00  0.00000000E+00  0.00000000E+00
  0.00000000E+00  0.00000000E+00  0.00000000E+00
  0.00000000E+00  0.00000000E+00  0.00000000E+00
  0.00000000E+00  0.00000000E+00  0.00000000E+00
  0.00000000E+00  0.00000000E+00  0.00000000E+00
  0.00000000E+00  0.00000000E+00  0.00000000E+00
  0.00000000E+00  0.00000000E+00  0.00000000E+00
  0.00000000E+00  0.00000000E+00  0.00000000E+00
  0.00000000E+00  0.00000000E+00  0.00000000E+00
  0.00000000E+00  0.00000000E+00  0.00000000E+00
  0.00000000E+00  0.00000000E+00  0.00000000E+00
  0.00000000E+00  0.00000000E+00  0.00000000E+00
  0.00000000E+00  0.00000000E+00  0.00000000E+00
  0.00000000E+00  0.00000000E+00  0.00000000E+00
  0.00000000E+00  0.00000000E+00  0.00000000E+00
  0.00000000E+00  0.00000000E+00  0.00000000E+00
