Nb Ti                                   
    1.000000000000000     
    13.0394561417750214   -0.0571861816780655   -0.0300159681567347
    -6.5155876730106064    9.3356879429285726    0.0385437808050677
    -0.0589381491671334    0.0515201943957497   18.4680535272989914
  Nb              Ti            
    56    72
Direct
     0.9344797161838438    0.3754026114049998    0.1876773453210002
     0.8136485366517781    0.6360624002100698    0.5627165084648169
     0.5613155844756589    0.6241849194899388    0.0632269023586148
     0.6825827694343291    0.1193166681497600    0.9356481063045246
     0.1773429271219679    0.8623512750387096    0.4378160499404815
     0.0613178353773424    0.3731415885075657    0.3138879250044991
     0.4378892474943418    0.8767405920778518    0.9371007788997880
     0.3093503623705054    0.3736722918154625    0.0634051293616369
     0.5694212680240034    0.3809096666214800    0.5625522946578559
     0.6843540766912086    0.3717848869783162    0.6859631229609682
     0.3230764565436500    0.3793929365204342    0.3164330480498946
     0.4302687682999462    0.1250843379158355    0.1844291986577477
     0.0616200049923689    0.8820300786069225    0.0638713951305338
     0.1854267936859893    0.8698961924772525    0.6878625929996321
     0.5657576150318540    0.1282405457061173    0.0637974995242098
     0.9358328467579071    0.8757598233934343    0.1829690351412534
     0.6869180714601770    0.3739711340018615    0.9358586595604605
     0.6884092472864757    0.6295551046675677    0.6881929135781999
     0.0617433598550166    0.6209684148369052    0.3152985886883783
     0.8144217991155904    0.3788739866159652    0.3119158146793961
     0.1920402202715950    0.6311738869775767    0.6851547242638716
     0.3126308893314538    0.6268710824313829    0.0628210734669981
     0.3186216676111393    0.8760745980003488    0.0610459503612625
     0.1857108769771425    0.3668874721226561    0.4322368699101301
     0.6788839803473150    0.8703160987950207    0.6869304820155494
     0.5621177952436709    0.1242972239229776    0.8109393341246064
     0.4373799511007878    0.6291759851778209    0.1856205492022280
     0.9385748068961903    0.1205101993444692    0.4395369627890634
     0.4356278574292963    0.8761145048379869    0.1902190731201684
     0.6905162556917969    0.6223230671903905    0.1868810271845807
     0.4341782195591514    0.6298221202525051    0.9377393022385555
     0.0641164303885850    0.1191840683665425    0.8062896787058799
     0.1757496486653762    0.3781920238852127    0.6870161591680889
     0.3113781728757201    0.1262110039049764    0.8163047700530931
     0.8144513099541379    0.6263423426296811    0.0619488919291676
     0.1891795064867535    0.3750588663785264    0.9405814171515452
     0.4445279059067545    0.3933002296477872    0.6845697212303847
     0.3178021805126157    0.8800059097144384    0.8120601194830993
     0.3086503684214624    0.1246289586554197    0.0631611592880587
     0.6909637919802259    0.1268059285974988    0.6893497117815466
     0.8066560181414915    0.8745685748218049    0.0631416821912740
     0.8119572929057900    0.1276251153669319    0.3169941168313087
     0.1826969831433773    0.6231947369236032    0.1887058301810029
     0.1933910950722449    0.3789813659026869    0.1915514513415064
     0.6877051379691670    0.6148806675849869    0.9409589803138566
     0.6887659799074151    0.1217730927244301    0.1875995680733519
     0.9348409389212077    0.6221634804616243    0.4393222871468662
     0.3216247799904374    0.1301104888833865    0.5588754060043721
     0.0518479048064213    0.1115395030062627    0.5657024574589575
     0.3074857876467736    0.6281921202022612    0.8119793272313616
     0.0647333150457225    0.8799930713158964    0.8112255142217992
     0.6892055080694578    0.3704487192428235    0.4361913376820345
     0.8135126068297234    0.1341237726442749    0.8142411010684322
     0.6800850177317375    0.1148933204154063    0.4385514883945615
     0.4363221161738361    0.1299263732512143    0.9387122501692879
     0.8112866999900176    0.3795506282658913    0.0630467316126846
     0.1825270452097482    0.1246991171525741    0.9371255710956908
     0.5631050059551086    0.1401477293231843    0.3069864983284500
     0.9351625231169900    0.6078370168404416    0.9357467781502173
     0.4328343537294898    0.1341072045826383    0.6898355614149707
     0.5867816693934005    0.8951560999963331    0.5602337509840200
     0.4244187960767609    0.3387938155145313    0.4434750840557151
     0.6885878180796563    0.8667194046449169    0.9366166938020750
     0.0542428255658816    0.1275862456602427    0.0617955254443084
     0.1889374451521665    0.8701510858009953    0.1833524723202506
     0.3182806847856205    0.1289354425726657    0.3139756185769760
     0.3095927987639727    0.8744729885930765    0.5576128579268441
     0.5608030184960460    0.3741627894874119    0.0612382532122676
     0.9343666404884076    0.3713303139869534    0.4413512195288549
     0.6705020700373079    0.6050357808459316    0.4371809832074369
     0.8120182918025772    0.8869637510587353    0.8082979256549943
     0.8146759179840377    0.6349579343365322    0.8133555947378887
     0.9273553753571503    0.3509210457961351    0.9416583485781651
     0.9390822485920143    0.1265179183003607    0.1914181792038471
     0.9324706359439053    0.6136369778309543    0.6859119031256919
     0.8185166962213885    0.1301979919392225    0.0603217050305232
     0.3319712566659360    0.6386744377648053    0.5611760876087676
     0.9311689913983334    0.8647914068513372    0.9359426024658172
     0.0627146858685768    0.6214269727131507    0.5620587308748692
     0.3140778588860028    0.8728300150652577    0.3190597268749502
     0.0726039460624827    0.6440021425629252    0.8099068426078614
     0.3058521010881585    0.3764734123028833    0.8074299538224028
     0.9433631805829416    0.3719670973457828    0.6837743262319188
     0.0708535242700202    0.8786972780351274    0.5594730553783436
     0.8045098926260145    0.8800596468128069    0.5621324502826834
     0.8179990550251752    0.3846855342773866    0.8116206812630763
     0.5643783281419172    0.3925010670581512    0.3176248149015747
     0.9361651176845179    0.6247225048391752    0.1898948848233311
     0.6830641695697129    0.8694263973802868    0.1897640999228784
     0.3016475191242716    0.3683533192911044    0.5629362079195588
     0.5627279508828975    0.8738364287277932    0.8115141021007164
     0.0695867620066715    0.3863779766088465    0.0664385721060225
     0.5575748303460465    0.6269701280119813    0.5635657416134496
     0.1866427565494028    0.6185669837056105    0.4411419268484643
     0.0656426345061456    0.6379257589488094    0.0646805076979982
     0.1945090211313586    0.1331591829826838    0.6852112470609025
     0.8117078686115377    0.3894954723521956    0.5661074160389522
     0.5612441969546035    0.3710910393382377    0.8077019160331272
     0.4346609854029848    0.3803700716400116    0.9342655981376256
     0.4343487504565502    0.0950400721775231    0.4365452440779519
     0.0639580212857720    0.3768139131034469    0.8168238675893491
     0.4304655834995215    0.6245893161518831    0.6930673171436140
     0.0756059718830941    0.1317964323074107    0.3183001948820683
     0.6869290324804462    0.8635538862158916    0.4304382852455161
     0.1793010130633362    0.6180467960608187    0.9385553940562478
     0.6793237129237728    0.3670280110943788    0.1899359497899001
     0.9281501823786418    0.8654516950824398    0.4340668702123731
     0.5649407370398988    0.8776465885916139    0.0637088257102448
     0.5639949663561009    0.1274799010541263    0.5659493933066827
     0.5588978465182503    0.8902134599671317    0.3142126804147644
     0.1837933620191583    0.8706140632326610    0.9364826932349244
     0.9381704705235667    0.8717713964496222    0.6860436386300760
     0.5767139585420553    0.6480940918838966    0.3067759295072840
     0.4377881815306511    0.3759039046742184    0.1891214164336850
     0.0814036327861612    0.3819186742845443    0.5570628883962024
     0.9448130657155384    0.1178710098922327    0.9286725885754973
     0.9299338992893502    0.1131885321908628    0.6888365696970203
     0.8315361662356653    0.8956810673394592    0.3046931076737875
     0.4429959906647400    0.8833181138770090    0.6846193641653249
     0.4399371051834020    0.5975980847797606    0.4324475819848394
     0.8266674338183323    0.1493656359408555    0.5616632976285774
     0.0623246566581593    0.8730956729770689    0.3090680138451764
     0.1762350273273895    0.1082904969775244    0.4452592714368323
     0.8123615360632489    0.6320801014222878    0.3174844181449727
     0.5659170544466406    0.6234893028967308    0.8166272934537805
     0.1830417561713384    0.1192456144201826    0.1884920760492943
     0.4371303130873489    0.8438466172594241    0.4436671550387348
     0.3139966210646894    0.6256334099318182    0.3126372400063911
 
  0.00000000E+00  0.00000000E+00  0.00000000E+00
  0.00000000E+00  0.00000000E+00  0.00000000E+00
  0.00000000E+00  0.00000000E+00  0.00000000E+00
  0.00000000E+00  0.00000000E+00  0.00000000E+00
  0.00000000E+00  0.00000000E+00  0.00000000E+00
  0.00000000E+00  0.00000000E+00  0.00000000E+00
  0.00000000E+00  0.00000000E+00  0.00000000E+00
  0.00000000E+00  0.00000000E+00  0.00000000E+00
  0.00000000E+00  0.00000000E+00  0.00000000E+00
  0.00000000E+00  0.00000000E+00  0.00000000E+00
  0.00000000E+00  0.00000000E+00  0.00000000E+00
  0.00000000E+00  0.00000000E+00  0.00000000E+00
  0.00000000E+00  0.00000000E+00  0.00000000E+00
  0.00000000E+00  0.00000000E+00  0.00000000E+00
  0.00000000E+00  0.00000000E+00  0.00000000E+00
  0.00000000E+00  0.00000000E+00  0.00000000E+00
  0.00000000E+00  0.00000000E+00  0.00000000E+00
  0.00000000E+00  0.00000000E+00  0.00000000E+00
  0.00000000E+00  0.00000000E+00  0.00000000E+00
  0.00000000E+00  0.00000000E+00  0.00000000E+00
  0.00000000E+00  0.00000000E+00  0.00000000E+00
  0.00000000E+00  0.00000000E+00  0.00000000E+00
  0.00000000E+00  0.00000000E+00  0.00000000E+00
  0.00000000E+00  0.00000000E+00  0.00000000E+00
  0.00000000E+00  0.00000000E+00  0.00000000E+00
  0.00000000E+00  0.00000000E+00  0.00000000E+00
  0.00000000E+00  0.00000000E+00  0.00000000E+00
  0.00000000E+00  0.00000000E+00  0.00000000E+00
  0.00000000E+00  0.00000000E+00  0.00000000E+00
  0.00000000E+00  0.00000000E+00  0.00000000E+00
  0.00000000E+00  0.00000000E+00  0.00000000E+00
  0.00000000E+00  0.00000000E+00  0.00000000E+00
  0.00000000E+00  0.00000000E+00  0.00000000E+00
  0.00000000E+00  0.00000000E+00  0.00000000E+00
  0.00000000E+00  0.00000000E+00  0.00000000E+00
  0.00000000E+00  0.00000000E+00  0.00000000E+00
  0.00000000E+00  0.00000000E+00  0.00000000E+00
  0.00000000E+00  0.00000000E+00  0.00000000E+00
  0.00000000E+00  0.00000000E+00  0.00000000E+00
  0.00000000E+00  0.00000000E+00  0.00000000E+00
  0.00000000E+00  0.00000000E+00  0.00000000E+00
  0.00000000E+00  0.00000000E+00  0.00000000E+00
  0.00000000E+00  0.00000000E+00  0.00000000E+00
  0.00000000E+00  0.00000000E+00  0.00000000E+00
  0.00000000E+00  0.00000000E+00  0.00000000E+00
  0.00000000E+00  0.00000000E+00  0.00000000E+00
  0.00000000E+00  0.00000000E+00  0.00000000E+00
  0.00000000E+00  0.00000000E+00  0.00000000E+00
  0.00000000E+00  0.00000000E+00  0.00000000E+00
  0.00000000E+00  0.00000000E+00  0.00000000E+00
  0.00000000E+00  0.00000000E+00  0.00000000E+00
  0.00000000E+00  0.00000000E+00  0.00000000E+00
  0.00000000E+00  0.00000000E+00  0.00000000E+00
  0.00000000E+00  0.00000000E+00  0.00000000E+00
  0.00000000E+00  0.00000000E+00  0.00000000E+00
  0.00000000E+00  0.00000000E+00  0.00000000E+00
  0.00000000E+00  0.00000000E+00  0.00000000E+00
  0.00000000E+00  0.00000000E+00  0.00000000E+00
  0.00000000E+00  0.00000000E+00  0.00000000E+00
  0.00000000E+00  0.00000000E+00  0.00000000E+00
  0.00000000E+00  0.00000000E+00  0.00000000E+00
  0.00000000E+00  0.00000000E+00  0.00000000E+00
  0.00000000E+00  0.00000000E+00  0.00000000E+00
  0.00000000E+00  0.00000000E+00  0.00000000E+00
  0.00000000E+00  0.00000000E+00  0.00000000E+00
  0.00000000E+00  0.00000000E+00  0.00000000E+00
  0.00000000E+00  0.00000000E+00  0.00000000E+00
  0.00000000E+00  0.00000000E+00  0.00000000E+00
  0.00000000E+00  0.00000000E+00  0.00000000E+00
  0.00000000E+00  0.00000000E+00  0.00000000E+00
  0.00000000E+00  0.00000000E+00  0.00000000E+00
  0.00000000E+00  0.00000000E+00  0.00000000E+00
  0.00000000E+00  0.00000000E+00  0.00000000E+00
  0.00000000E+00  0.00000000E+00  0.00000000E+00
  0.00000000E+00  0.00000000E+00  0.00000000E+00
  0.00000000E+00  0.00000000E+00  0.00000000E+00
  0.00000000E+00  0.00000000E+00  0.00000000E+00
  0.00000000E+00  0.00000000E+00  0.00000000E+00
  0.00000000E+00  0.00000000E+00  0.00000000E+00
  0.00000000E+00  0.00000000E+00  0.00000000E+00
  0.00000000E+00  0.00000000E+00  0.00000000E+00
  0.00000000E+00  0.00000000E+00  0.00000000E+00
  0.00000000E+00  0.00000000E+00  0.00000000E+00
  0.00000000E+00  0.00000000E+00  0.00000000E+00
  0.00000000E+00  0.00000000E+00  0.00000000E+00
  0.00000000E+00  0.00000000E+00  0.00000000E+00
  0.00000000E+00  0.00000000E+00  0.00000000E+00
  0.00000000E+00  0.00000000E+00  0.00000000E+00
  0.00000000E+00  0.00000000E+00  0.00000000E+00
  0.00000000E+00  0.00000000E+00  0.00000000E+00
  0.00000000E+00  0.00000000E+00  0.00000000E+00
  0.00000000E+00  0.00000000E+00  0.00000000E+00
  0.00000000E+00  0.00000000E+00  0.00000000E+00
  0.00000000E+00  0.00000000E+00  0.00000000E+00
  0.00000000E+00  0.00000000E+00  0.00000000E+00
  0.00000000E+00  0.00000000E+00  0.00000000E+00
  0.00000000E+00  0.00000000E+00  0.00000000E+00
  0.00000000E+00  0.00000000E+00  0.00000000E+00
  0.00000000E+00  0.00000000E+00  0.00000000E+00
  0.00000000E+00  0.00000000E+00  0.00000000E+00
  0.00000000E+00  0.00000000E+00  0.00000000E+00
  0.00000000E+00  0.00000000E+00  0.00000000E+00
  0.00000000E+00  0.00000000E+00  0.00000000E+00
  0.00000000E+00  0.00000000E+00  0.00000000E+00
  0.00000000E+00  0.00000000E+00  0.00000000E+00
  0.00000000E+00  0.00000000E+00  0.00000000E+00
  0.00000000E+00  0.00000000E+00  0.00000000E+00
  0.00000000E+00  0.00000000E+00  0.00000000E+00
  0.00000000E+00  0.00000000E+00  0.00000000E+00
  0.00000000E+00  0.00000000E+00  0.00000000E+00
  0.00000000E+00  0.00000000E+00  0.00000000E+00
  0.00000000E+00  0.00000000E+00  0.00000000E+00
  0.00000000E+00  0.00000000E+00  0.00000000E+00
  0.00000000E+00  0.00000000E+00  0.00000000E+00
  0.00000000E+00  0.00000000E+00  0.00000000E+00
  0.00000000E+00  0.00000000E+00  0.00000000E+00
  0.00000000E+00  0.00000000E+00  0.00000000E+00
  0.00000000E+00  0.00000000E+00  0.00000000E+00
  0.00000000E+00  0.00000000E+00  0.00000000E+00
  0.00000000E+00  0.00000000E+00  0.00000000E+00
  0.00000000E+00  0.00000000E+00  0.00000000E+00
  0.00000000E+00  0.00000000E+00  0.00000000E+00
  0.00000000E+00  0.00000000E+00  0.00000000E+00
  0.00000000E+00  0.00000000E+00  0.00000000E+00
  0.00000000E+00  0.00000000E+00  0.00000000E+00
  0.00000000E+00  0.00000000E+00  0.00000000E+00
  0.00000000E+00  0.00000000E+00  0.00000000E+00
  0.00000000E+00  0.00000000E+00  0.00000000E+00
