Nb Ta                                   
    1.000000000000000     
    13.2532811524398042   -0.0000297120231388    0.0000352406440637
    -0.0000296833676833   13.2542420924511237   -0.0006889498788352
     0.0000350377394477   -0.0006892829691027   13.2563239286636918
   Nb   Ta
    72    56
Direct
  0.6273641990326961  0.8757077995715395  0.8751491875812021
  0.3752841242992595  0.6239335816442038  0.1252478206171141
  0.2483224978077186  0.5008719609142050  0.0001946698345557
  0.4993653145025926 -0.0009409990584563  0.4982673832081522
  0.7477662604805899  0.7495389998534450  0.7491472246819028
  0.3751192201865092  0.1275779624084633  0.8742127278037598
  0.2500757652048595  0.7479068505395821  0.2488544838311033
  0.3751616408902555  0.8751466175499879  0.6227092928800292
  0.7506336907101767  0.2509003853715561  0.5032767524097769
  0.0014015861965266  0.4993725645915064  0.7508948544295243
 -0.0006504596811021  0.4987118982474349  0.4998351855486448
  0.2477386246939011  0.2502544718466261 -0.0008162183016588
  0.1239390680662065  0.1249502508504714  0.3719666649279059
  0.8773645354691681  0.6230859319894830  0.3759324308536466
 -0.0017339855504303  0.7518398844948675  0.4987008278684064
  0.1255064437147101  0.6258001464279822  0.1253030679467051
  0.6232539579111507  0.3747992096036444  0.1230992661851828
  0.8761116889176255  0.1240745275723160  0.1261359659973542
  0.7500775355922785  0.0005066154515510  0.0014858364621259
  0.4999269775251278  0.5025923035285296  0.0018522113124555
  0.4987300823616205  0.4999920459529753  0.7498096905082419
  0.3733141753798504  0.8750017244758942  0.8754732176840343
  0.3742018704714006  0.8744914816446389  0.1273807702680816
  0.5004559471699500  0.2473467556101959  0.0002193436096870
  0.7503735590691428  0.0014223071252702  0.7490863325905396
  0.6246559899386388  0.6253671976624096  0.6269951936349153
  0.3742069362341938  0.6268563924605743  0.3762786227829356
  0.1225407139888094  0.3764187001488500  0.3752633020046725
  0.8746338923269368  0.6259166750695633  0.1244071175402561
  0.3725363345234277  0.1268201295610199  0.1249583745468722
  0.4977198935748671 -0.0010057322814746  0.7532584975183018
  0.3740879059640679  0.3753507762075102  0.6262137452343221
  0.7503794549589360  0.7494291781110566 -0.0005187971286320
  0.6240582346474269  0.6251592892016474  0.3741722013549937
  0.8736983206084492  0.1237870811980604  0.6250274351011618
  0.0001425456407562  0.7496140867620086  0.7520393340309067
  0.7481195545135962  0.2509727998787636  0.2483896965567741
  0.1261677856003622  0.1258995880380648  0.6272678526119141
  0.4999307999409859  0.7491929542324678  0.2492257712928423
  0.7504816451814404  0.7487622192899386  0.2526229179569950
  0.6245244303645147  0.6271483438023923  0.1237923399294037
  0.6246491630501967  0.3753182584642858  0.6251613632513372
  0.5004949969383123  0.4999936440059099  0.4980334689751188
  0.1267594215032902  0.3740355576951231  0.1254003340551144
  0.2513857065361647  0.2502393677160227  0.7493083031638164
 -0.0002211377657536  0.7494337658212340  0.2481370071747219
  0.8750493757252278  0.3752998019554305  0.1258316976672617
  0.0006304917528856  0.4998186798143214  0.0009989189295726
  0.3751573371812237  0.6227780470067411  0.8742975498254758
  0.2504496478920806  0.7496537012170611  0.0002783220095460
  0.8767046957370660  0.3768596066186995  0.6242974670338499
  0.0006253457378989  0.2505267120130890  0.2484254695793649
  0.2514008778755591  0.0001958320154800  0.2515919761103901
  0.7519360717448845  0.2501536814697962 -0.0003539229694636
  0.2512776864597367 -0.0005233180666175 -0.0014965478320715
 -0.0018070505734327  0.2500409367555906  0.7501942509968677
  0.2510792160058379  0.7505574382941740  0.5002906008937132
  0.3750903676513152  0.3750726764828408  0.3734740912092827
  0.7497814055725796  0.4981170929248823  0.7473737166006599
  0.2524535205514240  0.7501285027662317  0.7506830970884735
  0.0000035941253936  0.4999799473889573  0.2485132616091388
  0.7509734442126487  0.5000495131362395  0.0029342873384596
  0.1249136360834822  0.3745381515095096  0.8740729596626023
  0.0013984982784722  0.0009512578707308  0.7495910182993805
  0.1267326923444305  0.8732118616782991  0.3742871708532536
  0.2511641305809670  0.2518185414997595  0.2522513874773733
  0.6271017693386609  0.3732176898128879  0.3751572587031921
  0.8759907555963092  0.8752097062042188  0.3742680602415950
  0.3760918840651269  0.1231965649318702  0.3760794855418681
  0.6252359580674067  0.1247133060606210  0.1241272294087119
  0.6225604948187579  0.8759839297709909  0.3742118648752596
 -0.0014359562458499 -0.0003490730967473  0.2505141447750148
  0.6268541443127206  0.6224026259860584  0.8749088929701956
  0.8767646670644029  0.6266334680763962  0.6261316747246475
  0.5003213148843034  0.4988035558937842  0.2500134474625835
  0.2511587738338048  0.5000810072221311  0.2517246741929632
  0.7487287107135889 -0.0003188919458540  0.2516752660255372
  0.3749804826858086  0.8748572728072042  0.3742676829960999
  0.1242682294325430  0.8749797448791826  0.8751408549416092
  0.1244204112643968  0.1242426362037652  0.8756830122004601
  0.8750054361319217  0.8751985190313635  0.8744578102452226
  0.4983091646460160  0.2515726194008759  0.4998789789465627
  0.1241092272957397  0.6262529525237238  0.8740623332885250
  0.4999395960502950  0.2496425480784201  0.2509040498829486
  0.8739963435996922  0.6236699425371803  0.8734377363057169
  0.6257684757689286  0.8778022824371072  0.6256716071324474
  0.8754742878363286  0.8729857287874163  0.6267708362772086
  0.6266967969551380  0.8732961669221377  0.1253305895051719
  0.3771760764897554  0.1246632651329647  0.6245823039892228
 -0.0005897139414850 -0.0000447193563257  0.0001294337691720
  0.2501209384693499  0.4998475688817438  0.7496357342049609
  0.5013570556447655  0.0022367375632621  0.2472268426399494
  0.1245239533754726  0.6253717471516462  0.3769595032936147
  0.1248232864767694  0.3757604740894748  0.6254225985157011
  0.1250553493373264  0.8771446056520973  0.1246877200164387
  0.8750045637061431  0.3728693958777115  0.3745062483784965
  0.7502347414946017  0.5022391548162550  0.4987326661005989
  0.8731459553174242  0.1285935366161689  0.3741593298759015
  0.8744318701303004  0.1252090188921157  0.8746490501986079
  0.6267735052693166  0.1259932629381150  0.3776775066876172
  0.7486886921362628  0.2508276009070798  0.7485905830200874
  0.7483254324817826  0.5005430493390024  0.2511967349103193
  0.4990235195744903 -0.0019447911732917  0.0014089999442968
  0.2502318305740316  0.4981175129943076  0.4991437985617446
  0.6244754034374569  0.3758942430317240  0.8764216757658159
  0.2493628522145684  0.2497564572932882  0.4992125250976183
  0.0017426936282009  0.2473601113726092  0.5009850919163457
  0.3748347780776310  0.3745295472090496  0.1226294815976904
  0.1264441723141978  0.1227978962876481  0.1248608482523215
  0.5015706162278836  0.2507422518021254  0.7490095241265963
  0.6225520630835767  0.1217105622009689  0.6237751402979864
 -0.0002330896022448  0.7507898158126618  0.0004015429094087
  0.8734951046735290  0.3759408643994003  0.8754120125766055
  0.7530210707702079 -0.0024526217775008  0.4980028728318133
  0.4993457096291092  0.7518437930955728 -0.0025929894375005
  0.4998683630168502  0.7505834168440871  0.7511763185563620
  0.5023463085481028  0.7497881901268383  0.5017699078273004
  0.2504089235958206 -0.0003351996981032  0.7482336740666731
  0.1250091944501060  0.6258869320863911  0.6236948840711959
  0.1235768964448270  0.8722027407929275  0.6258707316299372
  0.0007029440917979  0.0019408894842601  0.4997349904186177
  0.8738781532155545  0.8745999517549592  0.1245041177311759
  0.7482885520132504  0.7495075161947854  0.4991555947419125
  0.6260213369093265  0.1258344057519716  0.8743192787614064
  0.2466631414443324  0.0013584556777132  0.5013693789383681
  0.3739561686980658  0.6249932568276941  0.6241841649376089
 -0.0001074550871370  0.2493833304756785  0.0002796899604796
  0.3770361799215534  0.3750172545016298  0.8780731529636422
 
  0.00000000E+00  0.00000000E+00  0.00000000E+00
  0.00000000E+00  0.00000000E+00  0.00000000E+00
  0.00000000E+00  0.00000000E+00  0.00000000E+00
  0.00000000E+00  0.00000000E+00  0.00000000E+00
  0.00000000E+00  0.00000000E+00  0.00000000E+00
  0.00000000E+00  0.00000000E+00  0.00000000E+00
  0.00000000E+00  0.00000000E+00  0.00000000E+00
  0.00000000E+00  0.00000000E+00  0.00000000E+00
  0.00000000E+00  0.00000000E+00  0.00000000E+00
  0.00000000E+00  0.00000000E+00  0.00000000E+00
  0.00000000E+00  0.00000000E+00  0.00000000E+00
  0.00000000E+00  0.00000000E+00  0.00000000E+00
  0.00000000E+00  0.00000000E+00  0.00000000E+00
  0.00000000E+00  0.00000000E+00  0.00000000E+00
  0.00000000E+00  0.00000000E+00  0.00000000E+00
  0.00000000E+00  0.00000000E+00  0.00000000E+00
  0.00000000E+00  0.00000000E+00  0.00000000E+00
  0.00000000E+00  0.00000000E+00  0.00000000E+00
  0.00000000E+00  0.00000000E+00  0.00000000E+00
  0.00000000E+00  0.00000000E+00  0.00000000E+00
  0.00000000E+00  0.00000000E+00  0.00000000E+00
  0.00000000E+00  0.00000000E+00  0.00000000E+00
  0.00000000E+00  0.00000000E+00  0.00000000E+00
  0.00000000E+00  0.00000000E+00  0.00000000E+00
  0.00000000E+00  0.00000000E+00  0.00000000E+00
  0.00000000E+00  0.00000000E+00  0.00000000E+00
  0.00000000E+00  0.00000000E+00  0.00000000E+00
  0.00000000E+00  0.00000000E+00  0.00000000E+00
  0.00000000E+00  0.00000000E+00  0.00000000E+00
  0.00000000E+00  0.00000000E+00  0.00000000E+00
  0.00000000E+00  0.00000000E+00  0.00000000E+00
  0.00000000E+00  0.00000000E+00  0.00000000E+00
  0.00000000E+00  0.00000000E+00  0.00000000E+00
  0.00000000E+00  0.00000000E+00  0.00000000E+00
  0.00000000E+00  0.00000000E+00  0.00000000E+00
  0.00000000E+00  0.00000000E+00  0.00000000E+00
  0.00000000E+00  0.00000000E+00  0.00000000E+00
  0.00000000E+00  0.00000000E+00  0.00000000E+00
  0.00000000E+00  0.00000000E+00  0.00000000E+00
  0.00000000E+00  0.00000000E+00  0.00000000E+00
  0.00000000E+00  0.00000000E+00  0.00000000E+00
  0.00000000E+00  0.00000000E+00  0.00000000E+00
  0.00000000E+00  0.00000000E+00  0.00000000E+00
  0.00000000E+00  0.00000000E+00  0.00000000E+00
  0.00000000E+00  0.00000000E+00  0.00000000E+00
  0.00000000E+00  0.00000000E+00  0.00000000E+00
  0.00000000E+00  0.00000000E+00  0.00000000E+00
  0.00000000E+00  0.00000000E+00  0.00000000E+00
  0.00000000E+00  0.00000000E+00  0.00000000E+00
  0.00000000E+00  0.00000000E+00  0.00000000E+00
  0.00000000E+00  0.00000000E+00  0.00000000E+00
  0.00000000E+00  0.00000000E+00  0.00000000E+00
  0.00000000E+00  0.00000000E+00  0.00000000E+00
  0.00000000E+00  0.00000000E+00  0.00000000E+00
  0.00000000E+00  0.00000000E+00  0.00000000E+00
  0.00000000E+00  0.00000000E+00  0.00000000E+00
  0.00000000E+00  0.00000000E+00  0.00000000E+00
  0.00000000E+00  0.00000000E+00  0.00000000E+00
  0.00000000E+00  0.00000000E+00  0.00000000E+00
  0.00000000E+00  0.00000000E+00  0.00000000E+00
  0.00000000E+00  0.00000000E+00  0.00000000E+00
  0.00000000E+00  0.00000000E+00  0.00000000E+00
  0.00000000E+00  0.00000000E+00  0.00000000E+00
  0.00000000E+00  0.00000000E+00  0.00000000E+00
  0.00000000E+00  0.00000000E+00  0.00000000E+00
  0.00000000E+00  0.00000000E+00  0.00000000E+00
  0.00000000E+00  0.00000000E+00  0.00000000E+00
  0.00000000E+00  0.00000000E+00  0.00000000E+00
  0.00000000E+00  0.00000000E+00  0.00000000E+00
  0.00000000E+00  0.00000000E+00  0.00000000E+00
  0.00000000E+00  0.00000000E+00  0.00000000E+00
  0.00000000E+00  0.00000000E+00  0.00000000E+00
  0.00000000E+00  0.00000000E+00  0.00000000E+00
  0.00000000E+00  0.00000000E+00  0.00000000E+00
  0.00000000E+00  0.00000000E+00  0.00000000E+00
  0.00000000E+00  0.00000000E+00  0.00000000E+00
  0.00000000E+00  0.00000000E+00  0.00000000E+00
  0.00000000E+00  0.00000000E+00  0.00000000E+00
  0.00000000E+00  0.00000000E+00  0.00000000E+00
  0.00000000E+00  0.00000000E+00  0.00000000E+00
  0.00000000E+00  0.00000000E+00  0.00000000E+00
  0.00000000E+00  0.00000000E+00  0.00000000E+00
  0.00000000E+00  0.00000000E+00  0.00000000E+00
  0.00000000E+00  0.00000000E+00  0.00000000E+00
  0.00000000E+00  0.00000000E+00  0.00000000E+00
  0.00000000E+00  0.00000000E+00  0.00000000E+00
  0.00000000E+00  0.00000000E+00  0.00000000E+00
  0.00000000E+00  0.00000000E+00  0.00000000E+00
  0.00000000E+00  0.00000000E+00  0.00000000E+00
  0.00000000E+00  0.00000000E+00  0.00000000E+00
  0.00000000E+00  0.00000000E+00  0.00000000E+00
  0.00000000E+00  0.00000000E+00  0.00000000E+00
  0.00000000E+00  0.00000000E+00  0.00000000E+00
  0.00000000E+00  0.00000000E+00  0.00000000E+00
  0.00000000E+00  0.00000000E+00  0.00000000E+00
  0.00000000E+00  0.00000000E+00  0.00000000E+00
  0.00000000E+00  0.00000000E+00  0.00000000E+00
  0.00000000E+00  0.00000000E+00  0.00000000E+00
  0.00000000E+00  0.00000000E+00  0.00000000E+00
  0.00000000E+00  0.00000000E+00  0.00000000E+00
  0.00000000E+00  0.00000000E+00  0.00000000E+00
  0.00000000E+00  0.00000000E+00  0.00000000E+00
  0.00000000E+00  0.00000000E+00  0.00000000E+00
  0.00000000E+00  0.00000000E+00  0.00000000E+00
  0.00000000E+00  0.00000000E+00  0.00000000E+00
  0.00000000E+00  0.00000000E+00  0.00000000E+00
  0.00000000E+00  0.00000000E+00  0.00000000E+00
  0.00000000E+00  0.00000000E+00  0.00000000E+00
  0.00000000E+00  0.00000000E+00  0.00000000E+00
  0.00000000E+00  0.00000000E+00  0.00000000E+00
  0.00000000E+00  0.00000000E+00  0.00000000E+00
  0.00000000E+00  0.00000000E+00  0.00000000E+00
  0.00000000E+00  0.00000000E+00  0.00000000E+00
  0.00000000E+00  0.00000000E+00  0.00000000E+00
  0.00000000E+00  0.00000000E+00  0.00000000E+00
  0.00000000E+00  0.00000000E+00  0.00000000E+00
  0.00000000E+00  0.00000000E+00  0.00000000E+00
  0.00000000E+00  0.00000000E+00  0.00000000E+00
  0.00000000E+00  0.00000000E+00  0.00000000E+00
  0.00000000E+00  0.00000000E+00  0.00000000E+00
  0.00000000E+00  0.00000000E+00  0.00000000E+00
  0.00000000E+00  0.00000000E+00  0.00000000E+00
  0.00000000E+00  0.00000000E+00  0.00000000E+00
  0.00000000E+00  0.00000000E+00  0.00000000E+00
  0.00000000E+00  0.00000000E+00  0.00000000E+00
  0.00000000E+00  0.00000000E+00  0.00000000E+00
  0.00000000E+00  0.00000000E+00  0.00000000E+00
  0.00000000E+00  0.00000000E+00  0.00000000E+00
