Hf Ti                                   
    1.000000000000000     
    12.0502304317267317   -0.0012480237907587    0.0002545027875317
    -6.0261992882193471   10.4233807892103698   -0.0012947521366753
     0.0004500769873357   -0.0021914873365420   18.9961588497128950
  Hf              Ti            
    32    96
Direct
     0.4236330300189180    0.5833670138917498    0.4332810905869125
     0.1647729958430333    0.8312695161606325    0.1865707470944348
     0.5804823136871350    0.4158682031459165    0.3148800248553356
     0.6645471460904135    0.3313481665118860    0.6862895373572756
     0.6729408469464837    0.5923459643498804    0.6885832929153844
     0.5826406685051277    0.9137467120579112    0.3087738740688070
     0.6657017910587101    0.0803778563242215    0.6916265456264040
     0.5842385435543439    0.4244208906322923    0.0653469389476673
     0.5811429629349008    0.4173323007849069    0.5550238514355788
     0.3344416390603422    0.6664431501858555    0.5636670011894400
     0.5788472378713727    0.1568057857883326    0.0647989937422859
     0.0879011972903329    0.4151542286611770    0.8130075799351252
     0.5780958151085491    0.4191167540374759    0.8128625328846926
     0.3331737989896106    0.9207300785604361    0.5636705659125613
     0.0791978245063677    0.6690506249692547    0.5642717318238770
     0.6725368573872484    0.0872636551793625    0.4356471739583079
     0.8415282427630174    0.4221972271658003    0.0639219026564049
     0.0834930129377572    0.1616558420597863    0.5629668957083320
     0.1598775838854329    0.0843263736797187    0.1887157415547766
     0.6669212735161283    0.3299912231782423    0.9383938812471021
     0.9105419542002151    0.5799566973180550    0.4359984353920230
     0.3327205524399844    0.9161695682681318    0.8136121530009638
     0.0819412354133066    0.4139748123372095    0.5648941702168742
     0.8380679943941791    0.4187219457412427    0.8131165200089563
     0.5866387207268936    0.9137343978351564    0.5617571360528030
     0.1676187285592910    0.5832763942852986    0.4323617274282354
     0.4188895253323775    0.0908617696541415    0.4334311983202953
     0.8353514494409329    0.1613705599113672    0.0601503143807991
     0.8353868406094097    0.6731040475953761    0.3093248229346435
     0.4092390634064486    0.3351862450100128    0.9390564821817128
     0.4148643492273140    0.5804704192542453    0.6924553871176825
     0.3269722346127960    0.1589278200131815    0.0630914749764752
     0.9243510659825174    0.3353521387172496    0.9385227565363328
     0.3327657317084318    0.4117275087323646    0.5610850350652169
     0.3276038990421317    0.1672679987245688    0.3110425836627775
     0.5896899585079100    0.1701772231669393    0.3085410137795163
     0.5842187263965442    0.1690627573638627    0.5619352536536122
     0.9198122844083636    0.3294596241392531    0.4353428113904615
     0.6717732129066367    0.0846107560505274    0.1880602050722197
     0.3999310004149977    0.3258486860397903    0.4350400095117006
     0.3321188914871559    0.1675670135122988    0.5634835837070515
     0.0828692816136044    0.9177581685001941    0.5629583658905973
     0.0803062284129818    0.1688537021036506    0.3136410104822966
     0.8371330864069247    0.6742847783322506    0.0629887053916368
     0.6743966327477460    0.8315810880392567    0.4349172605236962
     0.1651962671875267    0.0808140256853454    0.4357248194265053
     0.3318929433170029    0.9116499875138619    0.0613688311619457
     0.5783361272543595    0.1618991658913971    0.8148013887030348
     0.0844205378164426    0.1630133912491276    0.8136633910300801
     0.1619148244526158    0.3335433359261899    0.1867910334421244
     0.9171423186656802    0.5810006141163259    0.1870317374863180
     0.0818965323834696    0.1660207357033946    0.0598843326346744
     0.5875756659244569    0.6740840907535914    0.8183877797229500
     0.9185998017798228    0.0840808484282689    0.6902813025668322
     0.4150716388762387    0.0877443670892367    0.6892020370696766
     0.8399639590368237    0.1696342614848917    0.3106899909545980
     0.1672567379326198    0.5866501516526568    0.9402556004612417
     0.0828709883540050    0.6718981681111857    0.8152525474941777
     0.9180366117640980    0.3302293881294421    0.6881208264333432
     0.4183896759291395    0.8304647935609892    0.9405589897004824
     0.1653165284010638    0.8330769007926765    0.9396710238138632
     0.6650262980171670    0.5865664750325695    0.1861336347555165
     0.4141449604019362    0.8314079475568713    0.4330562523950172
     0.1656835300006463    0.3314029349653904    0.4337802793302784
     0.8323156424974935    0.9142115109472355    0.5637421012588341
     0.9155939931287166    0.0812159278805419    0.4369348515093837
     0.4167121274033251    0.8312260393632838    0.6917336647404380
     0.0798714884755372    0.9169628501740029    0.8143245786196123
     0.4185907965981276    0.5863023627314756    0.1852508274972846
     0.1674792517738635    0.5919906114816761    0.6933591589845601
     0.6744479713946947    0.5937325894629450    0.9387089854629758
     0.1632064631532493    0.8355905509655649    0.4332140710512586
     0.3281049706177479    0.4203089205296053    0.0658058228512871
     0.9146015059478713    0.8329550138642366    0.9366361421187830
     0.5832776119243431    0.9097555334245844    0.8162852122102753
     0.6727738428111231    0.5971551156460897    0.4364429400445551
     0.6687427976742180    0.8373919768756302    0.9391714875330741
     0.1609763716241842    0.0775513042038823    0.9362296001807853
     0.1610453086424481    0.8344405022558912    0.6906003041737899
     0.0832644691460717    0.6628981737525121    0.3087411354894581
     0.8325029911063282    0.9159278466215922    0.8130993760789826
     0.9216178759539289    0.8416379736031210    0.4389733118766694
     0.8353133820581282    0.9140646120538983    0.0614187335202878
     0.6698983488160225    0.8321722466845018    0.1850104729031765
     0.9181432978121804    0.3317680723079814    0.1888475740180365
     0.9195859273477932    0.0789984703618204    0.9355767041407701
     0.4160496538746415    0.3353487363409757    0.1892116514518680
     0.4072015439381468    0.3264975021889929    0.6864474719491033
     0.8336388760385839    0.6707519008723859    0.5628619561655911
     0.8359701518863767    0.4112989071368414    0.3102107198635434
     0.9239650646629964    0.8397601252805195    0.6880519152672828
     0.0746286084699709    0.9124605540348621    0.0591307810735988
     0.3342956703544542    0.6693397231035147    0.8172769361430197
     0.8351483842226852    0.1637625400262417    0.8161135812433302
     0.3309283167997202    0.9127758823709808    0.3112967982766843
     0.0858678944091608    0.6685095825527746    0.0610004767599232
     0.4193925646431249    0.0817978619306202    0.1917003777435405
     0.0825186209454689    0.4144916521193497    0.3086675103642655
     0.5840215082839706    0.6675663239704357    0.3070670302311227
     0.0828690910527565    0.9200238986295184    0.3137242139639768
     0.5825030078917058    0.6703669370003428    0.0613526713178995
     0.9212919059030952    0.5873142109738460    0.6897267577004400
     0.3296411919866596    0.1643123721349175    0.8124988463081197
     0.9139472462905395    0.8357950267924393    0.1857570198514908
     0.8303442331708080    0.4106243363610128    0.5613332926183490
     0.8394390516003876    0.6741104184101731    0.8142999072988766
     0.6687140889029811    0.3348144460936286    0.1900756390404750
     0.1643340580523776    0.5780189825790042    0.1846944768880265
     0.4169667153722031    0.8334719631194862    0.1845839378566712
     0.6693393910976189    0.8341999472692437    0.6907503491471938
     0.1677876170539566    0.0782009768968320    0.6902318812333731
     0.4123098971992066    0.0766473683466798    0.9377036889600407
     0.3275548051312078    0.4100932742168033    0.8139925371874699
     0.3303695385222448    0.6657457944139727    0.3057147624971525
     0.5916612920318675    0.6709836794866550    0.5618151452690824
     0.0879649425793394    0.4184942374378132    0.0625983500438919
     0.9140162809205654    0.0831357519771418    0.1882583387861236
     0.8387493550863051    0.9228641904119338    0.3114084884200228
     0.3252568121633810    0.4131655221974174    0.3079036665453613
     0.5825966535479880    0.9109316288274317    0.0631688080489641
     0.4132449794405952    0.5839255289644034    0.9392939724274707
     0.9213454542156709    0.5927972479333586    0.9389012754657036
     0.1697153276924813    0.3274887460056924    0.6888997091024691
     0.1641714586035963    0.3332013989404512    0.9404467662203625
     0.6616215948971398    0.0743994534768863    0.9356365979215581
     0.3328388229943770    0.6667637682459906    0.0629375637445612
     0.8343982799640310    0.1680073742789115    0.5642452417116823
     0.6732610823489292    0.3301835978436765    0.4351377128640730
 
  0.00000000E+00  0.00000000E+00  0.00000000E+00
  0.00000000E+00  0.00000000E+00  0.00000000E+00
  0.00000000E+00  0.00000000E+00  0.00000000E+00
  0.00000000E+00  0.00000000E+00  0.00000000E+00
  0.00000000E+00  0.00000000E+00  0.00000000E+00
  0.00000000E+00  0.00000000E+00  0.00000000E+00
  0.00000000E+00  0.00000000E+00  0.00000000E+00
  0.00000000E+00  0.00000000E+00  0.00000000E+00
  0.00000000E+00  0.00000000E+00  0.00000000E+00
  0.00000000E+00  0.00000000E+00  0.00000000E+00
  0.00000000E+00  0.00000000E+00  0.00000000E+00
  0.00000000E+00  0.00000000E+00  0.00000000E+00
  0.00000000E+00  0.00000000E+00  0.00000000E+00
  0.00000000E+00  0.00000000E+00  0.00000000E+00
  0.00000000E+00  0.00000000E+00  0.00000000E+00
  0.00000000E+00  0.00000000E+00  0.00000000E+00
  0.00000000E+00  0.00000000E+00  0.00000000E+00
  0.00000000E+00  0.00000000E+00  0.00000000E+00
  0.00000000E+00  0.00000000E+00  0.00000000E+00
  0.00000000E+00  0.00000000E+00  0.00000000E+00
  0.00000000E+00  0.00000000E+00  0.00000000E+00
  0.00000000E+00  0.00000000E+00  0.00000000E+00
  0.00000000E+00  0.00000000E+00  0.00000000E+00
  0.00000000E+00  0.00000000E+00  0.00000000E+00
  0.00000000E+00  0.00000000E+00  0.00000000E+00
  0.00000000E+00  0.00000000E+00  0.00000000E+00
  0.00000000E+00  0.00000000E+00  0.00000000E+00
  0.00000000E+00  0.00000000E+00  0.00000000E+00
  0.00000000E+00  0.00000000E+00  0.00000000E+00
  0.00000000E+00  0.00000000E+00  0.00000000E+00
  0.00000000E+00  0.00000000E+00  0.00000000E+00
  0.00000000E+00  0.00000000E+00  0.00000000E+00
  0.00000000E+00  0.00000000E+00  0.00000000E+00
  0.00000000E+00  0.00000000E+00  0.00000000E+00
  0.00000000E+00  0.00000000E+00  0.00000000E+00
  0.00000000E+00  0.00000000E+00  0.00000000E+00
  0.00000000E+00  0.00000000E+00  0.00000000E+00
  0.00000000E+00  0.00000000E+00  0.00000000E+00
  0.00000000E+00  0.00000000E+00  0.00000000E+00
  0.00000000E+00  0.00000000E+00  0.00000000E+00
  0.00000000E+00  0.00000000E+00  0.00000000E+00
  0.00000000E+00  0.00000000E+00  0.00000000E+00
  0.00000000E+00  0.00000000E+00  0.00000000E+00
  0.00000000E+00  0.00000000E+00  0.00000000E+00
  0.00000000E+00  0.00000000E+00  0.00000000E+00
  0.00000000E+00  0.00000000E+00  0.00000000E+00
  0.00000000E+00  0.00000000E+00  0.00000000E+00
  0.00000000E+00  0.00000000E+00  0.00000000E+00
  0.00000000E+00  0.00000000E+00  0.00000000E+00
  0.00000000E+00  0.00000000E+00  0.00000000E+00
  0.00000000E+00  0.00000000E+00  0.00000000E+00
  0.00000000E+00  0.00000000E+00  0.00000000E+00
  0.00000000E+00  0.00000000E+00  0.00000000E+00
  0.00000000E+00  0.00000000E+00  0.00000000E+00
  0.00000000E+00  0.00000000E+00  0.00000000E+00
  0.00000000E+00  0.00000000E+00  0.00000000E+00
  0.00000000E+00  0.00000000E+00  0.00000000E+00
  0.00000000E+00  0.00000000E+00  0.00000000E+00
  0.00000000E+00  0.00000000E+00  0.00000000E+00
  0.00000000E+00  0.00000000E+00  0.00000000E+00
  0.00000000E+00  0.00000000E+00  0.00000000E+00
  0.00000000E+00  0.00000000E+00  0.00000000E+00
  0.00000000E+00  0.00000000E+00  0.00000000E+00
  0.00000000E+00  0.00000000E+00  0.00000000E+00
  0.00000000E+00  0.00000000E+00  0.00000000E+00
  0.00000000E+00  0.00000000E+00  0.00000000E+00
  0.00000000E+00  0.00000000E+00  0.00000000E+00
  0.00000000E+00  0.00000000E+00  0.00000000E+00
  0.00000000E+00  0.00000000E+00  0.00000000E+00
  0.00000000E+00  0.00000000E+00  0.00000000E+00
  0.00000000E+00  0.00000000E+00  0.00000000E+00
  0.00000000E+00  0.00000000E+00  0.00000000E+00
  0.00000000E+00  0.00000000E+00  0.00000000E+00
  0.00000000E+00  0.00000000E+00  0.00000000E+00
  0.00000000E+00  0.00000000E+00  0.00000000E+00
  0.00000000E+00  0.00000000E+00  0.00000000E+00
  0.00000000E+00  0.00000000E+00  0.00000000E+00
  0.00000000E+00  0.00000000E+00  0.00000000E+00
  0.00000000E+00  0.00000000E+00  0.00000000E+00
  0.00000000E+00  0.00000000E+00  0.00000000E+00
  0.00000000E+00  0.00000000E+00  0.00000000E+00
  0.00000000E+00  0.00000000E+00  0.00000000E+00
  0.00000000E+00  0.00000000E+00  0.00000000E+00
  0.00000000E+00  0.00000000E+00  0.00000000E+00
  0.00000000E+00  0.00000000E+00  0.00000000E+00
  0.00000000E+00  0.00000000E+00  0.00000000E+00
  0.00000000E+00  0.00000000E+00  0.00000000E+00
  0.00000000E+00  0.00000000E+00  0.00000000E+00
  0.00000000E+00  0.00000000E+00  0.00000000E+00
  0.00000000E+00  0.00000000E+00  0.00000000E+00
  0.00000000E+00  0.00000000E+00  0.00000000E+00
  0.00000000E+00  0.00000000E+00  0.00000000E+00
  0.00000000E+00  0.00000000E+00  0.00000000E+00
  0.00000000E+00  0.00000000E+00  0.00000000E+00
  0.00000000E+00  0.00000000E+00  0.00000000E+00
  0.00000000E+00  0.00000000E+00  0.00000000E+00
  0.00000000E+00  0.00000000E+00  0.00000000E+00
  0.00000000E+00  0.00000000E+00  0.00000000E+00
  0.00000000E+00  0.00000000E+00  0.00000000E+00
  0.00000000E+00  0.00000000E+00  0.00000000E+00
  0.00000000E+00  0.00000000E+00  0.00000000E+00
  0.00000000E+00  0.00000000E+00  0.00000000E+00
  0.00000000E+00  0.00000000E+00  0.00000000E+00
  0.00000000E+00  0.00000000E+00  0.00000000E+00
  0.00000000E+00  0.00000000E+00  0.00000000E+00
  0.00000000E+00  0.00000000E+00  0.00000000E+00
  0.00000000E+00  0.00000000E+00  0.00000000E+00
  0.00000000E+00  0.00000000E+00  0.00000000E+00
  0.00000000E+00  0.00000000E+00  0.00000000E+00
  0.00000000E+00  0.00000000E+00  0.00000000E+00
  0.00000000E+00  0.00000000E+00  0.00000000E+00
  0.00000000E+00  0.00000000E+00  0.00000000E+00
  0.00000000E+00  0.00000000E+00  0.00000000E+00
  0.00000000E+00  0.00000000E+00  0.00000000E+00
  0.00000000E+00  0.00000000E+00  0.00000000E+00
  0.00000000E+00  0.00000000E+00  0.00000000E+00
  0.00000000E+00  0.00000000E+00  0.00000000E+00
  0.00000000E+00  0.00000000E+00  0.00000000E+00
  0.00000000E+00  0.00000000E+00  0.00000000E+00
  0.00000000E+00  0.00000000E+00  0.00000000E+00
  0.00000000E+00  0.00000000E+00  0.00000000E+00
  0.00000000E+00  0.00000000E+00  0.00000000E+00
  0.00000000E+00  0.00000000E+00  0.00000000E+00
  0.00000000E+00  0.00000000E+00  0.00000000E+00
  0.00000000E+00  0.00000000E+00  0.00000000E+00
  0.00000000E+00  0.00000000E+00  0.00000000E+00
  0.00000000E+00  0.00000000E+00  0.00000000E+00
  0.00000000E+00  0.00000000E+00  0.00000000E+00
