Nb Ta                                   
    1.000000000000000     
    13.2396115511204346    0.0015214599886170   -0.0014616049942791
     0.0015217671986504   13.2414701961236236    0.0001516269551920
    -0.0014616170085682    0.0001514002685867   13.2408604546314432
   Nb   Ta
   104    24
Direct
  0.2499474156517184  0.7496234245773300  0.5026188956151391
  0.6258780099867034  0.3752184158454670  0.8750845794827763
  0.5016625004005462  0.2501292167602948  0.4995281433301449
  0.7478037746069434  0.7497751687616928 -0.0009540923217365
  0.1239354375508683  0.8745263057847953  0.1251539546905884
  0.0015723932652047  0.7503368002786093  0.7506554378680574
  0.2498551444716568  0.0023894099648628  0.2488956403059685
  0.6243349172553299  0.3736927176751541  0.1253164718747205
  0.3761931385071257  0.3772218622368699  0.1241231661010113
  0.4995546192266383  0.2501020846139049 -0.0011618993542926
  0.6249632697720526  0.6243393592360407  0.3753614714178017
  0.2494751824186588  0.4992216282599262  0.0007501803458866
  0.3747759840425725  0.3756116353443376  0.8753441945867328
  0.4975095153271594  0.2496691316812823  0.2504547195082384
  0.4998674087653949  0.5002152589399432  0.7498045611330347
  0.0001689456232178  0.7489778162646409  0.4998716072407081
  0.7498366530856577 -0.0002560943741132  0.0005402014994623
  0.7491158123518871  0.2501349529869216  0.7485488048817597
  0.0005062498280438  0.7486015066526525  0.2511210114125086
  0.1242547462469780  0.3738707053683359  0.8750064777320669
  0.1249583671449007  0.8759174255897230  0.6246519834967041
  0.2506406423441676  0.2492782704639210  0.0016226197407307
  0.7493314375339153  0.2504474560198436 -0.0003300270772830
  0.7497200608381207  0.2492544179933736  0.2515586794694481
  0.7496472536944238  0.7507138722077201  0.4999300865114586
  0.8746709571810478  0.3764004754495929  0.6270430510481151
  0.1257316872189417  0.6260095900304018  0.3757011084314570
  0.1254839215506415  0.3727785965920041  0.3759443704688371
  0.3750802783337248  0.3741143225362861  0.6248442762538313
  0.7493674781893149  0.4999234523466598  0.7498470712266703
  0.4997726407365445 -0.0003678210932403  0.7508808126259721
  0.3751431884769158  0.6267837305480479  0.3735311094526941
  0.8750989316150936  0.8755454401296831  0.8767997393679807
  0.2500587884674287 -0.0020426193886073  0.7498974419785099
  0.3758897488321822  0.8759024931011212  0.6232660460272728
  0.6252348099179393  0.6241165500247929  0.1258008257022792
  0.6259438005312208  0.8761349368121714  0.1247825834982773
  0.1273175074730898  0.8764340091557198  0.3746749465590051
  0.0003673566847294  0.2507075874086171  0.7493034266897719
  0.0007651696499142  0.5002902241527739  0.7489083078564178
  0.3731950891484175  0.1253540791637842  0.8735706775517567
  0.4987508284289007  0.4997236193713388  0.2501681540953850
  0.7500599105725054  0.7506072293084018  0.7504390391765234
  0.7503784094375334 -0.0004880892663939  0.7503305517222163
  0.3771826493202173  0.1246060949058628  0.1246077558848849
  0.8744119777946856  0.3739811692542592  0.3738863144775448
  0.3746451865014677  0.8731735666778637  0.1272695925550676
 -0.0001700091890415 -0.0013818863639449  0.7498660370115937
  0.2504904522237164  0.2507194481425672  0.7506251413954560
  0.8758507369908715  0.8752660279401305  0.3740927549386368
  0.5006542354946079 -0.0000519517995702  0.4993753963792388
  0.5010594002988422  0.7500351008966494  0.2480506787023031
  0.6226089714471047  0.8742671124718785  0.3757973242300935
  0.2513590553585690  0.7509788534696538 -0.0021979038096734
  0.2491217105100871  0.7490867082985587  0.2498831485928601
  0.5001399697880865  0.2504056242440142  0.7511657254988388
  0.2498730090875023 -0.0005005322479135  0.5002430480702453
  0.7494740675517448  0.5002876573082679  0.0002270817069485
  0.8738482640089088  0.6255034680759322  0.3751673445163738
  0.6248752060279219  0.6246730579580334  0.8740518533390211
  0.6241068769573921  0.3759300789113172  0.3743411998538513
  0.7491310595953358  0.7518243844792458  0.2508061472509200
  0.8754909849877947  0.6233024304771392  0.8747799750393225
  0.6249771548807803  0.8751330207793944  0.8743202007301397
  0.8745106630204896  0.8737494620839549  0.6247380330369352
  0.3734950495390950  0.1231691733942736  0.3765907413608628
  0.0016625178954012  0.2519655912332334  0.2487298705855496
  0.6265899075017708  0.6251354017273204  0.6248749759894877
  0.1248890332210621  0.6242925885856061  0.8751352933953132
  0.3756210790796204  0.6244954925715648  0.6245189085163791
  0.7516252024198303  0.4996717051489133  0.2499457581830080
  0.1253801555811199  0.6258580530121566  0.1241495980087841
  0.0007415383125816  0.2500392872056902  0.0007963785840212
  0.1252477088195689  0.8766279521364747  0.8753631345248737
  0.6261738001124195  0.1251981859105670  0.8751752229866653
  0.8743031904418422  0.3757545802130702  0.1235413909837053
  0.1233603450528734  0.6247646585665263  0.6251197206473303
  0.6240375196465870  0.3745704630708932  0.6252718796201147
  0.2499478635118248  0.5014719580406314  0.7498421956810976
  0.3757763517108586  0.3757481417192988  0.3756927167184740
  0.3749289006101644  0.8752405704156019  0.8751630462243613
  0.2503133450042184  0.0003528391990445  0.0006258603634637
  0.7499199736476405  0.0008085832002933  0.4979501873147609
  0.1250738086797373  0.3750543060387199  0.1238137444412119
  0.1261669436982263  0.3741752333118258  0.6253194820066024
  0.1235932946630945  0.1244363159308717  0.1250256613341792
 -0.0000574274471428  0.5002317102477060  0.0014264802818470
 -0.0005211513507518 -0.0007771268917795  0.2495755049968705
  0.3747279557521189  0.6240456764106286  0.8765734832968525
  0.2508173072721441  0.2504543508233787  0.4984696813178544
  0.2488139353527543  0.5003541728540504  0.4985638997164633
 -0.0017285704637149  0.2526170434589430  0.5010529996240338
  0.0002864665752542  0.7498360744721801 -0.0015793581749353
  0.5010868294950659  0.5010424457921443 -0.0004388336600528
  0.4980106621272876  0.7497574244838066  0.7510474286741363
 -0.0003848697092537 -0.0018367430267923  0.5006092874804274
  0.4997266689871629 -0.0016644195050036 -0.0002092094416214
  0.5002203864507412  0.5004031896259648  0.5004848421538204
  0.6252429821137062  0.1254369173406774  0.3750715104612668
  0.5013262753161015  0.0001969277561948  0.2498622682108846
  0.0002678002866042 -0.0001801754931505 -0.0000514504026306
  0.6244868354207498  0.8758073697573824  0.6249336383928441
  0.7513038799231302  0.4980420663959367  0.4999117183457703
  0.5002797553845744  0.7493082365959766  0.5012218300453345
  0.8749795189128972  0.1242152748491768  0.6252204107507396
  0.1257171070722483  0.1253019708630692  0.6249986580668597
  0.3746411931948821  0.8740125584815448  0.3743247260285007
  0.1232536260982288  0.1250413510869879  0.3767522464517520
  0.5004893891383961  0.7503165072143375 -0.0001599273430002
  0.3750131335889050  0.1253653016451885  0.6250510812440403
  0.8779977124857782  0.1253080427771202  0.3746455646562850
  0.6259524671255884  0.1259564709612314  0.1245553749317303
  0.6244491892496403  0.1244047198198953  0.6255195405856619
  0.8744095357730451  0.6255050118293790  0.6253120179633157
  0.2509191256080646  0.2507912458491223  0.2492567691368203
  0.3744690608564009  0.6247261816578588  0.1253453348741174
  0.8751140344288080  0.8734754717642862  0.1246865479504487
  0.2504106295153118  0.7503007674959147  0.7497050798205011
  0.8765002904371847  0.1268712692344152  0.8751387645634167
  0.0015576022013146  0.5002621990500332  0.2517280154219331
 -0.0006082090759441  0.4999025599630272  0.4979710762457188
  0.8735026526422058  0.1240100698232146  0.1250451410984169
  0.8746495535264905  0.6271521671528758  0.1250302451746233
  0.8751416761507985  0.3743189564919204  0.8751567648291247
  0.2478413091057659  0.4978543693797746  0.2505917102648330
  0.7495160814195417  0.2503407424913147  0.5003541873094848
  0.1242879969594605  0.1252463271941159  0.8730503209984333
  0.7495810679058619 -0.0005152102866048  0.2512216015616202
 
  0.00000000E+00  0.00000000E+00  0.00000000E+00
  0.00000000E+00  0.00000000E+00  0.00000000E+00
  0.00000000E+00  0.00000000E+00  0.00000000E+00
  0.00000000E+00  0.00000000E+00  0.00000000E+00
  0.00000000E+00  0.00000000E+00  0.00000000E+00
  0.00000000E+00  0.00000000E+00  0.00000000E+00
  0.00000000E+00  0.00000000E+00  0.00000000E+00
  0.00000000E+00  0.00000000E+00  0.00000000E+00
  0.00000000E+00  0.00000000E+00  0.00000000E+00
  0.00000000E+00  0.00000000E+00  0.00000000E+00
  0.00000000E+00  0.00000000E+00  0.00000000E+00
  0.00000000E+00  0.00000000E+00  0.00000000E+00
  0.00000000E+00  0.00000000E+00  0.00000000E+00
  0.00000000E+00  0.00000000E+00  0.00000000E+00
  0.00000000E+00  0.00000000E+00  0.00000000E+00
  0.00000000E+00  0.00000000E+00  0.00000000E+00
  0.00000000E+00  0.00000000E+00  0.00000000E+00
  0.00000000E+00  0.00000000E+00  0.00000000E+00
  0.00000000E+00  0.00000000E+00  0.00000000E+00
  0.00000000E+00  0.00000000E+00  0.00000000E+00
  0.00000000E+00  0.00000000E+00  0.00000000E+00
  0.00000000E+00  0.00000000E+00  0.00000000E+00
  0.00000000E+00  0.00000000E+00  0.00000000E+00
  0.00000000E+00  0.00000000E+00  0.00000000E+00
  0.00000000E+00  0.00000000E+00  0.00000000E+00
  0.00000000E+00  0.00000000E+00  0.00000000E+00
  0.00000000E+00  0.00000000E+00  0.00000000E+00
  0.00000000E+00  0.00000000E+00  0.00000000E+00
  0.00000000E+00  0.00000000E+00  0.00000000E+00
  0.00000000E+00  0.00000000E+00  0.00000000E+00
  0.00000000E+00  0.00000000E+00  0.00000000E+00
  0.00000000E+00  0.00000000E+00  0.00000000E+00
  0.00000000E+00  0.00000000E+00  0.00000000E+00
  0.00000000E+00  0.00000000E+00  0.00000000E+00
  0.00000000E+00  0.00000000E+00  0.00000000E+00
  0.00000000E+00  0.00000000E+00  0.00000000E+00
  0.00000000E+00  0.00000000E+00  0.00000000E+00
  0.00000000E+00  0.00000000E+00  0.00000000E+00
  0.00000000E+00  0.00000000E+00  0.00000000E+00
  0.00000000E+00  0.00000000E+00  0.00000000E+00
  0.00000000E+00  0.00000000E+00  0.00000000E+00
  0.00000000E+00  0.00000000E+00  0.00000000E+00
  0.00000000E+00  0.00000000E+00  0.00000000E+00
  0.00000000E+00  0.00000000E+00  0.00000000E+00
  0.00000000E+00  0.00000000E+00  0.00000000E+00
  0.00000000E+00  0.00000000E+00  0.00000000E+00
  0.00000000E+00  0.00000000E+00  0.00000000E+00
  0.00000000E+00  0.00000000E+00  0.00000000E+00
  0.00000000E+00  0.00000000E+00  0.00000000E+00
  0.00000000E+00  0.00000000E+00  0.00000000E+00
  0.00000000E+00  0.00000000E+00  0.00000000E+00
  0.00000000E+00  0.00000000E+00  0.00000000E+00
  0.00000000E+00  0.00000000E+00  0.00000000E+00
  0.00000000E+00  0.00000000E+00  0.00000000E+00
  0.00000000E+00  0.00000000E+00  0.00000000E+00
  0.00000000E+00  0.00000000E+00  0.00000000E+00
  0.00000000E+00  0.00000000E+00  0.00000000E+00
  0.00000000E+00  0.00000000E+00  0.00000000E+00
  0.00000000E+00  0.00000000E+00  0.00000000E+00
  0.00000000E+00  0.00000000E+00  0.00000000E+00
  0.00000000E+00  0.00000000E+00  0.00000000E+00
  0.00000000E+00  0.00000000E+00  0.00000000E+00
  0.00000000E+00  0.00000000E+00  0.00000000E+00
  0.00000000E+00  0.00000000E+00  0.00000000E+00
  0.00000000E+00  0.00000000E+00  0.00000000E+00
  0.00000000E+00  0.00000000E+00  0.00000000E+00
  0.00000000E+00  0.00000000E+00  0.00000000E+00
  0.00000000E+00  0.00000000E+00  0.00000000E+00
  0.00000000E+00  0.00000000E+00  0.00000000E+00
  0.00000000E+00  0.00000000E+00  0.00000000E+00
  0.00000000E+00  0.00000000E+00  0.00000000E+00
  0.00000000E+00  0.00000000E+00  0.00000000E+00
  0.00000000E+00  0.00000000E+00  0.00000000E+00
  0.00000000E+00  0.00000000E+00  0.00000000E+00
  0.00000000E+00  0.00000000E+00  0.00000000E+00
  0.00000000E+00  0.00000000E+00  0.00000000E+00
  0.00000000E+00  0.00000000E+00  0.00000000E+00
  0.00000000E+00  0.00000000E+00  0.00000000E+00
  0.00000000E+00  0.00000000E+00  0.00000000E+00
  0.00000000E+00  0.00000000E+00  0.00000000E+00
  0.00000000E+00  0.00000000E+00  0.00000000E+00
  0.00000000E+00  0.00000000E+00  0.00000000E+00
  0.00000000E+00  0.00000000E+00  0.00000000E+00
  0.00000000E+00  0.00000000E+00  0.00000000E+00
  0.00000000E+00  0.00000000E+00  0.00000000E+00
  0.00000000E+00  0.00000000E+00  0.00000000E+00
  0.00000000E+00  0.00000000E+00  0.00000000E+00
  0.00000000E+00  0.00000000E+00  0.00000000E+00
  0.00000000E+00  0.00000000E+00  0.00000000E+00
  0.00000000E+00  0.00000000E+00  0.00000000E+00
  0.00000000E+00  0.00000000E+00  0.00000000E+00
  0.00000000E+00  0.00000000E+00  0.00000000E+00
  0.00000000E+00  0.00000000E+00  0.00000000E+00
  0.00000000E+00  0.00000000E+00  0.00000000E+00
  0.00000000E+00  0.00000000E+00  0.00000000E+00
  0.00000000E+00  0.00000000E+00  0.00000000E+00
  0.00000000E+00  0.00000000E+00  0.00000000E+00
  0.00000000E+00  0.00000000E+00  0.00000000E+00
  0.00000000E+00  0.00000000E+00  0.00000000E+00
  0.00000000E+00  0.00000000E+00  0.00000000E+00
  0.00000000E+00  0.00000000E+00  0.00000000E+00
  0.00000000E+00  0.00000000E+00  0.00000000E+00
  0.00000000E+00  0.00000000E+00  0.00000000E+00
  0.00000000E+00  0.00000000E+00  0.00000000E+00
  0.00000000E+00  0.00000000E+00  0.00000000E+00
  0.00000000E+00  0.00000000E+00  0.00000000E+00
  0.00000000E+00  0.00000000E+00  0.00000000E+00
  0.00000000E+00  0.00000000E+00  0.00000000E+00
  0.00000000E+00  0.00000000E+00  0.00000000E+00
  0.00000000E+00  0.00000000E+00  0.00000000E+00
  0.00000000E+00  0.00000000E+00  0.00000000E+00
  0.00000000E+00  0.00000000E+00  0.00000000E+00
  0.00000000E+00  0.00000000E+00  0.00000000E+00
  0.00000000E+00  0.00000000E+00  0.00000000E+00
  0.00000000E+00  0.00000000E+00  0.00000000E+00
  0.00000000E+00  0.00000000E+00  0.00000000E+00
  0.00000000E+00  0.00000000E+00  0.00000000E+00
  0.00000000E+00  0.00000000E+00  0.00000000E+00
  0.00000000E+00  0.00000000E+00  0.00000000E+00
  0.00000000E+00  0.00000000E+00  0.00000000E+00
  0.00000000E+00  0.00000000E+00  0.00000000E+00
  0.00000000E+00  0.00000000E+00  0.00000000E+00
  0.00000000E+00  0.00000000E+00  0.00000000E+00
  0.00000000E+00  0.00000000E+00  0.00000000E+00
  0.00000000E+00  0.00000000E+00  0.00000000E+00
  0.00000000E+00  0.00000000E+00  0.00000000E+00
  0.00000000E+00  0.00000000E+00  0.00000000E+00
  0.00000000E+00  0.00000000E+00  0.00000000E+00
