Hf Ta                                   
    1.000000000000000     
    12.3957902214948508   -0.4289291197410855    0.0256323957065081
    -6.5663857947309925   11.4235880563139371   -0.0002132372063427
     0.0388601703593308    0.0264396409221145   19.8556004916886444
  Hf             Ta           
             100              28
Direct
  0.1381510057182485  0.8172898321475536  0.4397313508294908
  0.6610117210594859  0.3272864397436651  0.6842177372854324
  0.8440603472153069  0.1781468077049806  0.3087657602843698
  0.4027486824886710  0.0664257212891356  0.4400098390094893
  0.1548761257304892  0.5880841650932808  0.1887390929106058
  0.3357171292338897  0.1700083570704026  0.8113267443308271
  0.8430964555832170  0.4192661896172903  0.8124969525286224
  0.0986841906622745  0.4236013065712182  0.0658226200641318
  0.8323386843788445  0.6671488150117164  0.0641117113729049
  0.1583193791835059  0.3263170562801846  0.6875014379472236
  0.9022668404249016  0.8276139172491787  0.1913065048048554
  0.8367977093679737  0.9254043719708657  0.3156619244497923
  0.5782009746023978  0.1565655826033758  0.5619523254041099
  0.1558687765203238  0.8315420809284915  0.1914443740665172
  0.8260535345139042  0.9093177757028984  0.8098563088453288
  0.6562049095460396  0.3364870383220644  0.9390031826702974
  0.8885524623202806  0.0686105592885029  0.6843927467129376
  0.3485566199344770  0.1723199067776753  0.3199452105398970
  0.4206949160409133  0.5960075735460274  0.4359917613836233
  0.0920461067401731  0.4211196853817888  0.8155711423298047
  0.0756999490153658  0.1608529645281463  0.0615706122279613
  0.6496889904567590  0.0744675312709264  0.9401368028338869
  0.8953111764069230  0.8257407336927211  0.6834125280506322
  0.1667511717261596  0.8430130715019521  0.9366659660880079
  0.6625018871077911  0.5685908387097321  0.6898925733241474
  0.0948420971368049  0.1809760335295655  0.5606969367887810
  0.1593577577472214  0.0798433562855639  0.1883612709432175
  0.9081181006646176  0.0841384403597269  0.4397368464361236
  0.3990552206832703  0.8245195398631763  0.9332599774699381
  0.4180769394534474  0.5768703858883102  0.6862723608335934
  0.9165917338589088  0.3323444758955263  0.4335407832576306
  0.0826655527211229  0.9212574030229586  0.3157584967762577
  0.6486508464970047  0.5786954587390484  0.1931175247506569
  0.6619278065886544  0.0884919181461063  0.6895363964687428
  0.3507141339224330  0.9320888790380097  0.0605102905234754
  0.1559185294316652  0.0785627804443371  0.9374616706173274
  0.3992806204417636  0.3292726536655030  0.1962603585100810
  0.9008150670850937  0.5675028453548374  0.4298708581836048
  0.6574415695557164  0.3382832593481911  0.1866215638377448
  0.3462462126738231  0.4182395228302670  0.8111163731065845
  0.5930777754283171  0.4242940023363658  0.5600787147299359
  0.4009632287206204  0.5708280544797840  0.9378483235269458
  0.3347555279219717  0.9153088106287328  0.3134257228608464
  0.8978222818492818  0.0705047317672532  0.1862461007691124
  0.1524906532964149  0.8251803268083104  0.6813864841349367
  0.0880459995852589  0.9196898498000768  0.8092388404760424
  0.4095612369678078  0.8342748297739889  0.4423816738108053
  0.9166872465859063  0.5859310693797309  0.9366389224845306
  0.3808366576547955  0.5616914410496154  0.1883521469345837
  0.5902086940964684  0.9262959602000800  0.8121090595128448
  0.1479092682792397  0.0771765933876597  0.6841747401989265
  0.4020926582387253  0.8292978109424280  0.6913284469792850
  0.9033821732868542  0.5833199350279783  0.1935470458678520
  0.8498291723165746  0.4227664872208589  0.5614068777545735
  0.4096002867311008  0.3300489563970905  0.6833870752458924
  0.6438915992132255  0.8162025553474848  0.9368645118236949
  0.3528079206235301  0.6728752079759843  0.5640586249071672
  0.3463822500635931  0.6812365350659324  0.3106450901116263
  0.0957982086247448  0.6785426785694206  0.0624384150382017
  0.6431674668009448  0.8162306976912861  0.1903800658619909
  0.0999476286441545  0.4283448945882625  0.5612760697919402
  0.8273945272391793  0.9068387107475500  0.0615124089445258
  0.8940594109949634  0.0717230516119745  0.9354727116287941
  0.1652378582093559  0.5796203905458939  0.9407094487967832
  0.6534911456846255  0.5737870024911544  0.9342904854853186
  0.1077966340714045  0.1875588318822698  0.3101019628748852
  0.6176068566946662  0.9256660066006861  0.5664380262089868
  0.5893076099498787  0.9314176886764238  0.3099897780014236
  0.5997936494334452  0.1778222178768491  0.0646497557752757
  0.3283701924673489  0.4036437302883311  0.0642199993505245
  0.3394905492029615  0.1751692785650956  0.5596468490416495
  0.8957743230963396  0.3189844539857158  0.1808642183774781
  0.1472386177069535  0.0712607792004916  0.4412001167032900
  0.6249591048200276  0.6934017923121812  0.5644023330141050
  0.5877818628919554  0.1754940231147807  0.8140613704690054
  0.8680189806631677  0.6825345161749761  0.5584455306519687
  0.1529743495459595  0.3177943944660899  0.9362931009819535
  0.4172124380093091  0.0842417119299755  0.1913804278175221
  0.5762333034810360  0.6577169036810547  0.0647017008625881
  0.1656450596365591  0.5741448293633015  0.6896377342454328
  0.9013316948817701  0.3224421411263367  0.9434250209744972
  0.8396920628161175  0.4339947636338158  0.0629068041071631
  0.4133541849661952  0.3265673579893199  0.9378751224466854
  0.3468113157798581  0.1722986725640772  0.0633653778215018
  0.9074357889113080  0.8268553306520744  0.9352803472874752
  0.6601282905805004  0.0814651573481264  0.4353906283226290
  0.6538794111249749  0.3162132798646482  0.4369128116938590
  0.0780665865135631  0.1641938896372646  0.8103693708729348
  0.0849991484125859  0.9183573904160713  0.0631635527359230
  0.1097405614123859  0.4251105948674896  0.3062074752528565
  0.1774453359594641  0.3409748571132801  0.4364825933364385
  0.6038715933990556  0.4213111807767220  0.3152913779150762
  0.9214847627924020  0.5762243874299341  0.6871279199761477
  0.6558685813787596  0.5763396117504862  0.4362725875472180
  0.8413477983176072  0.1839141337403289  0.5638707392029841
  0.3993485226398077  0.0719633168694668  0.6865915754930033
  0.1599802940182726  0.5858603064203683  0.4353569929941113
  0.4092898591954175  0.8307808900312121  0.1815270114791567
  0.1126815321354275  0.6805631998517521  0.8133132294130664
  0.8405404048414803  0.6635951487513251  0.8107845156639557
  0.6076438830061714  0.1781226450857041  0.3069844976963119
  0.1059664070388133  0.6655674512378992  0.5632729803573996
  0.8517637078945014  0.4136506602254938  0.3081623066329531
  0.5894475750754821  0.4085933115779999  0.8111031737847092
  0.6535112334380681  0.0715421655559081  0.1817665722337056
  0.3466516299193781  0.6748974480248735  0.0595875066713954
  0.9096520418654441  0.3198448518920016  0.6922090642711336
  0.5944013517598968  0.9177544350983905  0.0622507331159440
  0.8245259571840350  0.1513620678887977  0.0620530298001571
  0.3600862079363072  0.4389283733945847  0.5574718004084658
  0.8883712964129490  0.8238026354533216  0.4346670539004546
  0.3581526771890217  0.6700670949209966  0.8106007517300513
  0.5854147766382803  0.4295737007258710  0.0641884488832242
  0.0811590817189027  0.6636929088810500  0.3128166100250143
  0.5913941715423237  0.6689883785493338  0.8089116342235321
  0.6105894813829026  0.6837080420722490  0.3207601059541023
  0.8465409414376908  0.6811191563989004  0.3177404463532377
  0.4065451744242808  0.3310088500503027  0.4402170772665122
  0.1431454887344455  0.3095998041702013  0.1823961886075632
  0.3733650528947267  0.4366542482022382  0.3230412893411137
  0.6577027066899466  0.8389040908639483  0.4347323839076543
  0.3464124611792174  0.9375273911677799  0.8151056001398016
  0.6421328557987487  0.8195958714526039  0.6968643890733776
  0.3309082958950929  0.9095124295885200  0.5640580345825438
  0.8440966028504900  0.1851908373279496  0.8148097705528372
  0.4060263987609575  0.0830152851097379  0.9366149653950450
  0.1078068077312330  0.9300909836725925  0.5633341398219441
  0.8777425083553498  0.9274831022087129  0.5558845598811867
 
  0.00000000E+00  0.00000000E+00  0.00000000E+00
  0.00000000E+00  0.00000000E+00  0.00000000E+00
  0.00000000E+00  0.00000000E+00  0.00000000E+00
  0.00000000E+00  0.00000000E+00  0.00000000E+00
  0.00000000E+00  0.00000000E+00  0.00000000E+00
  0.00000000E+00  0.00000000E+00  0.00000000E+00
  0.00000000E+00  0.00000000E+00  0.00000000E+00
  0.00000000E+00  0.00000000E+00  0.00000000E+00
  0.00000000E+00  0.00000000E+00  0.00000000E+00
  0.00000000E+00  0.00000000E+00  0.00000000E+00
  0.00000000E+00  0.00000000E+00  0.00000000E+00
  0.00000000E+00  0.00000000E+00  0.00000000E+00
  0.00000000E+00  0.00000000E+00  0.00000000E+00
  0.00000000E+00  0.00000000E+00  0.00000000E+00
  0.00000000E+00  0.00000000E+00  0.00000000E+00
  0.00000000E+00  0.00000000E+00  0.00000000E+00
  0.00000000E+00  0.00000000E+00  0.00000000E+00
  0.00000000E+00  0.00000000E+00  0.00000000E+00
  0.00000000E+00  0.00000000E+00  0.00000000E+00
  0.00000000E+00  0.00000000E+00  0.00000000E+00
  0.00000000E+00  0.00000000E+00  0.00000000E+00
  0.00000000E+00  0.00000000E+00  0.00000000E+00
  0.00000000E+00  0.00000000E+00  0.00000000E+00
  0.00000000E+00  0.00000000E+00  0.00000000E+00
  0.00000000E+00  0.00000000E+00  0.00000000E+00
  0.00000000E+00  0.00000000E+00  0.00000000E+00
  0.00000000E+00  0.00000000E+00  0.00000000E+00
  0.00000000E+00  0.00000000E+00  0.00000000E+00
  0.00000000E+00  0.00000000E+00  0.00000000E+00
  0.00000000E+00  0.00000000E+00  0.00000000E+00
  0.00000000E+00  0.00000000E+00  0.00000000E+00
  0.00000000E+00  0.00000000E+00  0.00000000E+00
  0.00000000E+00  0.00000000E+00  0.00000000E+00
  0.00000000E+00  0.00000000E+00  0.00000000E+00
  0.00000000E+00  0.00000000E+00  0.00000000E+00
  0.00000000E+00  0.00000000E+00  0.00000000E+00
  0.00000000E+00  0.00000000E+00  0.00000000E+00
  0.00000000E+00  0.00000000E+00  0.00000000E+00
  0.00000000E+00  0.00000000E+00  0.00000000E+00
  0.00000000E+00  0.00000000E+00  0.00000000E+00
  0.00000000E+00  0.00000000E+00  0.00000000E+00
  0.00000000E+00  0.00000000E+00  0.00000000E+00
  0.00000000E+00  0.00000000E+00  0.00000000E+00
  0.00000000E+00  0.00000000E+00  0.00000000E+00
  0.00000000E+00  0.00000000E+00  0.00000000E+00
  0.00000000E+00  0.00000000E+00  0.00000000E+00
  0.00000000E+00  0.00000000E+00  0.00000000E+00
  0.00000000E+00  0.00000000E+00  0.00000000E+00
  0.00000000E+00  0.00000000E+00  0.00000000E+00
  0.00000000E+00  0.00000000E+00  0.00000000E+00
  0.00000000E+00  0.00000000E+00  0.00000000E+00
  0.00000000E+00  0.00000000E+00  0.00000000E+00
  0.00000000E+00  0.00000000E+00  0.00000000E+00
  0.00000000E+00  0.00000000E+00  0.00000000E+00
  0.00000000E+00  0.00000000E+00  0.00000000E+00
  0.00000000E+00  0.00000000E+00  0.00000000E+00
  0.00000000E+00  0.00000000E+00  0.00000000E+00
  0.00000000E+00  0.00000000E+00  0.00000000E+00
  0.00000000E+00  0.00000000E+00  0.00000000E+00
  0.00000000E+00  0.00000000E+00  0.00000000E+00
  0.00000000E+00  0.00000000E+00  0.00000000E+00
  0.00000000E+00  0.00000000E+00  0.00000000E+00
  0.00000000E+00  0.00000000E+00  0.00000000E+00
  0.00000000E+00  0.00000000E+00  0.00000000E+00
  0.00000000E+00  0.00000000E+00  0.00000000E+00
  0.00000000E+00  0.00000000E+00  0.00000000E+00
  0.00000000E+00  0.00000000E+00  0.00000000E+00
  0.00000000E+00  0.00000000E+00  0.00000000E+00
  0.00000000E+00  0.00000000E+00  0.00000000E+00
  0.00000000E+00  0.00000000E+00  0.00000000E+00
  0.00000000E+00  0.00000000E+00  0.00000000E+00
  0.00000000E+00  0.00000000E+00  0.00000000E+00
  0.00000000E+00  0.00000000E+00  0.00000000E+00
  0.00000000E+00  0.00000000E+00  0.00000000E+00
  0.00000000E+00  0.00000000E+00  0.00000000E+00
  0.00000000E+00  0.00000000E+00  0.00000000E+00
  0.00000000E+00  0.00000000E+00  0.00000000E+00
  0.00000000E+00  0.00000000E+00  0.00000000E+00
  0.00000000E+00  0.00000000E+00  0.00000000E+00
  0.00000000E+00  0.00000000E+00  0.00000000E+00
  0.00000000E+00  0.00000000E+00  0.00000000E+00
  0.00000000E+00  0.00000000E+00  0.00000000E+00
  0.00000000E+00  0.00000000E+00  0.00000000E+00
  0.00000000E+00  0.00000000E+00  0.00000000E+00
  0.00000000E+00  0.00000000E+00  0.00000000E+00
  0.00000000E+00  0.00000000E+00  0.00000000E+00
  0.00000000E+00  0.00000000E+00  0.00000000E+00
  0.00000000E+00  0.00000000E+00  0.00000000E+00
  0.00000000E+00  0.00000000E+00  0.00000000E+00
  0.00000000E+00  0.00000000E+00  0.00000000E+00
  0.00000000E+00  0.00000000E+00  0.00000000E+00
  0.00000000E+00  0.00000000E+00  0.00000000E+00
  0.00000000E+00  0.00000000E+00  0.00000000E+00
  0.00000000E+00  0.00000000E+00  0.00000000E+00
  0.00000000E+00  0.00000000E+00  0.00000000E+00
  0.00000000E+00  0.00000000E+00  0.00000000E+00
  0.00000000E+00  0.00000000E+00  0.00000000E+00
  0.00000000E+00  0.00000000E+00  0.00000000E+00
  0.00000000E+00  0.00000000E+00  0.00000000E+00
  0.00000000E+00  0.00000000E+00  0.00000000E+00
  0.00000000E+00  0.00000000E+00  0.00000000E+00
  0.00000000E+00  0.00000000E+00  0.00000000E+00
  0.00000000E+00  0.00000000E+00  0.00000000E+00
  0.00000000E+00  0.00000000E+00  0.00000000E+00
  0.00000000E+00  0.00000000E+00  0.00000000E+00
  0.00000000E+00  0.00000000E+00  0.00000000E+00
  0.00000000E+00  0.00000000E+00  0.00000000E+00
  0.00000000E+00  0.00000000E+00  0.00000000E+00
  0.00000000E+00  0.00000000E+00  0.00000000E+00
  0.00000000E+00  0.00000000E+00  0.00000000E+00
  0.00000000E+00  0.00000000E+00  0.00000000E+00
  0.00000000E+00  0.00000000E+00  0.00000000E+00
  0.00000000E+00  0.00000000E+00  0.00000000E+00
  0.00000000E+00  0.00000000E+00  0.00000000E+00
  0.00000000E+00  0.00000000E+00  0.00000000E+00
  0.00000000E+00  0.00000000E+00  0.00000000E+00
  0.00000000E+00  0.00000000E+00  0.00000000E+00
  0.00000000E+00  0.00000000E+00  0.00000000E+00
  0.00000000E+00  0.00000000E+00  0.00000000E+00
  0.00000000E+00  0.00000000E+00  0.00000000E+00
  0.00000000E+00  0.00000000E+00  0.00000000E+00
  0.00000000E+00  0.00000000E+00  0.00000000E+00
  0.00000000E+00  0.00000000E+00  0.00000000E+00
  0.00000000E+00  0.00000000E+00  0.00000000E+00
  0.00000000E+00  0.00000000E+00  0.00000000E+00
  0.00000000E+00  0.00000000E+00  0.00000000E+00
  0.00000000E+00  0.00000000E+00  0.00000000E+00
  0.00000000E+00  0.00000000E+00  0.00000000E+00
