Nb  V                                   
    1.000000000000000     
    12.1454688630360970   -0.0087266052828031    0.0040756380462292
    -0.0087214222520115   12.1446428374796920    0.0061640404334671
     0.0040731644137868    0.0061595713084902   12.1418676848085543
   Nb   V 
    16   112
Direct
  0.5001594500345885  0.2495599684686337  0.5014784151854768
  0.2575281575018818  0.2544800297759824  0.7478076758764390
  0.2509240213100072  0.5009149932744877  0.2499385539224121
  0.1252738975718672  0.1248903915892743  0.8777335928414520
  0.1269913732232650  0.1252112103385753  0.6168195171298892
  0.5027834947620273  0.5013865314097791  0.2505006647458094
 -0.0040053229211350 -0.0013685745112160  0.0063039897470568
  0.1279569285176256  0.8682628824164743  0.6212769720139371
  0.0016550047105306  0.5038415417868097  0.5036594393044501
  0.8710915776939882  0.3720577186956390  0.3737453293756717
  0.8684306805269660  0.1271924670663302  0.6212040527964451
 -0.0010035674868437  0.5035187588082239  0.2445025709467080
  0.5011517538006828 -0.0001815894264741  0.2508542189520895
 -0.0011566189464276  0.7465289880767514  0.0000854783606188
  0.2530840441459434  0.2528229566241875  0.0045879920013905
 -0.0064533817689541 -0.0061066367683847  0.7506599609445711
  0.6266976041717609  0.1268590432007274  0.1222975315723133
  0.2501280375338956  0.2464431163550272  0.2526717876278638
  0.2569700147442222 -0.0029947178901471  0.4938919743935489
  0.3798792949043405  0.8712879883944759  0.6270851381953370
 -0.0008707150917527  0.5009778515275888  0.7522572590224573
  0.1277264611634372  0.3676576000164354  0.3762765092426690
 -0.0042378396711438  0.7413298914748034  0.7491533404408428
  0.2553549479050402  0.7453572378392126  0.7536145103495384
  0.6222920551246434  0.8740388309693948  0.8749546703874872
  0.8649939092692948  0.1300373923416630  0.8781321052381945
  0.6279883289805890  0.3735604343867099  0.1210821355390374
  0.6246714753970553  0.1247819029320217  0.8760408366259834
  0.3782726293242369  0.6299081403512613  0.1197513443408428
  0.5016617740637439  0.7502872378780056  0.5015555744136753
  0.3772659100383065  0.1232785507345098  0.1259264220952055
  0.7477252940734702  0.7492674405206249  0.7491924208094901
  0.1201378395160464  0.3821960881167416  0.8749975521018353
  0.1279687911456132  0.6341955259488777  0.3774311920319165
  0.2482465153951188 -0.0008007242288525  0.2501929461822558
  0.8750292025267786  0.1211672829324551  0.3703571693611666
  0.8731010706406095  0.3762028821584761  0.8747118038932985
  0.6242966385688772  0.6250716595586082  0.8743472467531386
  0.7464112184557965  0.7496183886687324 -0.0006711755831868
  0.1305064423933585  0.8740656401769896  0.1313057743249892
  0.3803559474728015  0.3745370520065554  0.1218277292822477
  0.3755825358049027  0.8724767672575605  0.1234171056124925
  0.3770327302435175  0.6315750868280630  0.3807198839587878
  0.7470979200511157  0.5046581133005631  0.2449513389787737
  0.7481660565597540  0.7502128863797345  0.4995326691858367
 -0.0005066735407664 -0.0007419982254856  0.2516881318803534
  0.3822502845739308  0.3816897241519386  0.8750154254644597
  0.2535626535692211  0.7485244701409275  0.0006751644614469
  0.7483533183076473  0.2505190056885347 -0.0001021008044317
  0.7448971908589549  0.2539754898072501  0.7541193983754623
  0.5012548374390081 -0.0008575601437492 -0.0020422647648010
  0.6303857391533451  0.1246770948686554  0.3749554629526901
  0.1284229012280608  0.6218837962135549  0.8721995279090464
  0.3771246575323252  0.6258840283348810  0.8747001610379096
  0.1247643052753318  0.1243943028748443  0.1333086461186383
  0.7486242460996440  0.7517224590880008  0.2497418537159341
 -0.0014681726533368  0.4982170082602976 -0.0049834463858385
  0.8701475367097752  0.3732052885908352  0.1184246177595488
  0.0020111501852710  0.2508257657325379  0.4952472225418316
 -0.0037441534894571 -0.0036683097338005  0.4897448170023531
  0.3783869317533813  0.8727119166500125  0.8754300892166141
  0.5011735611091656  0.5017288469103407  0.7503601514360906
 -0.0062524340209883  0.2549738493798195  0.0032510875182396
  0.6235283379764711  0.1219743147931845  0.6290846102914784
  0.2511486695867129  0.5035577813037116  0.7505089265614108
  0.8708300153239256  0.1278131561068966  0.1284582845002518
  0.1241118447655255  0.1228280940360295  0.3711912320545321
  0.7447771694152945 -0.0000733515661667  0.0003986799012250
  0.5012385143564083  0.7496813040032442  0.7504592550725546
  0.6266601878094245  0.3793443944476481  0.6293087952657102
 -0.0057097067010234  0.2598334840598423  0.7522936413959264
  0.2519116443009510  0.5037737472342321 -0.0036161379405536
  0.7423249096929050 -0.0036882647169006  0.7528610754659431
  0.6259807350574897  0.8731247255207324  0.1224576281546389
  0.3772978245949357  0.6264110898972987  0.6273270422964247
  0.7446517859654309 -0.0038531043649683  0.4963906959712500
  0.5004244890426444  0.5039963753940399  0.5045332237298507
  0.3735935265808160  0.3735689094646077  0.3778980447332960
  0.5048873599002082  0.2503889673232810  0.7536773580258518
  0.6260766532630881  0.3755856579492763  0.3750963917560028
  0.3735601289727056  0.8728999646793322  0.3776941362204088
  0.0017856684931446  0.2449409384506403  0.2463557805877810
  0.8677896323285520  0.6259175299199712  0.1223912488587522
  0.5018799183547519  0.5011587954215001 -0.0028969455022727
  0.8706020386889148  0.6270721966496496  0.6273977638229161
  0.5012062462686837 -0.0035998462661419  0.5041581350669664
  0.5046026387199908  0.2499271886579179  0.0001593678919650
  0.2519133224089358  0.7532991042390218  0.2503503275951021
  0.6241212389239373  0.8736212802174015  0.6257715810917533
  0.1249271095764999  0.8760903353796285  0.3722854409660515
  0.8740602101248800  0.8755871115877555  0.3742134325503784
  0.6270661378875396  0.6292753879973371  0.3780498535450726
  0.1332902992783702  0.8671018103701554  0.8760637843382180
 -0.0041014753512831  0.7502287408411765  0.4960779773970896
  0.1252633691701893  0.3789805824985339  0.6255624939108595
  0.7435128467203271  0.5048544203912676  0.5043849249577483
  0.3702637166784374  0.1229135825706116  0.3749195602356121
  0.5020738342624095 -0.0023033962029829  0.7511348346556747
  0.2569266608324586 -0.0060279734126768  0.0047098728608636
  0.6268862730380365  0.8727127914167733  0.3771861022159904
  0.1210162072425696  0.3731967412534994  0.1223848734870296
  0.2546074961341611  0.5017636617572423  0.5042601901832753
  0.8693444346470054  0.6334370297237729  0.3743146467901630
  0.5009569630651326  0.7502687155698698 -0.0004614515485014
  0.3841220913419045  0.1189785415391971  0.8769836703807783
  0.6256598727861243  0.3763807330541540  0.8757545992105442
  0.1289948817427490  0.6241332954749682  0.6282083145158833
 -0.0002614940109741  0.7543851504241057  0.2518913065519955
  0.8676840464697356  0.8695002107522681  0.6205158776325862
  0.8708053855260344  0.3782918992901070  0.6309322325442683
  0.8649588882120163  0.8703867407164687  0.8727757725967527
  0.3802840812608659  0.1169031035584687  0.6251131284381352
  0.3784490669341520  0.3833304319438359  0.6264887663881793
  0.2539356276498470  0.7470008416162245  0.4978790498932699
  0.7458295465451837  0.2511345674621766  0.4996772620712023
  0.2603523676748803 -0.0071476165568806  0.7524924324027275
  0.2515808838997212  0.2531721147834371  0.4943189502671209
  0.7492565209321537  0.5013585242346921  0.7506726924711058
  0.8686715257831805  0.8749461380037650  0.1303723314547023
  0.7466718718847646  0.2467925830681715  0.2459645786418075
  0.6260761835648481  0.6279349474756767  0.1209087141801302
  0.6236576880149854  0.6261671490001567  0.6262651590995757
  0.5003374070623893  0.2495890180815283  0.2474387032662189
  0.5010012015529804  0.7508151228356247  0.2501122488115299
  0.1292481550467609  0.6275957484054158  0.1218732553520985
  0.8702318957949331  0.6209821200111874  0.8715894829601275
  0.7521953887674624 -0.0007409879117957  0.2492821628864379
  0.7487165746937849  0.5005942417885120 -0.0022045373898726
 
  0.00000000E+00  0.00000000E+00  0.00000000E+00
  0.00000000E+00  0.00000000E+00  0.00000000E+00
  0.00000000E+00  0.00000000E+00  0.00000000E+00
  0.00000000E+00  0.00000000E+00  0.00000000E+00
  0.00000000E+00  0.00000000E+00  0.00000000E+00
  0.00000000E+00  0.00000000E+00  0.00000000E+00
  0.00000000E+00  0.00000000E+00  0.00000000E+00
  0.00000000E+00  0.00000000E+00  0.00000000E+00
  0.00000000E+00  0.00000000E+00  0.00000000E+00
  0.00000000E+00  0.00000000E+00  0.00000000E+00
  0.00000000E+00  0.00000000E+00  0.00000000E+00
  0.00000000E+00  0.00000000E+00  0.00000000E+00
  0.00000000E+00  0.00000000E+00  0.00000000E+00
  0.00000000E+00  0.00000000E+00  0.00000000E+00
  0.00000000E+00  0.00000000E+00  0.00000000E+00
  0.00000000E+00  0.00000000E+00  0.00000000E+00
  0.00000000E+00  0.00000000E+00  0.00000000E+00
  0.00000000E+00  0.00000000E+00  0.00000000E+00
  0.00000000E+00  0.00000000E+00  0.00000000E+00
  0.00000000E+00  0.00000000E+00  0.00000000E+00
  0.00000000E+00  0.00000000E+00  0.00000000E+00
  0.00000000E+00  0.00000000E+00  0.00000000E+00
  0.00000000E+00  0.00000000E+00  0.00000000E+00
  0.00000000E+00  0.00000000E+00  0.00000000E+00
  0.00000000E+00  0.00000000E+00  0.00000000E+00
  0.00000000E+00  0.00000000E+00  0.00000000E+00
  0.00000000E+00  0.00000000E+00  0.00000000E+00
  0.00000000E+00  0.00000000E+00  0.00000000E+00
  0.00000000E+00  0.00000000E+00  0.00000000E+00
  0.00000000E+00  0.00000000E+00  0.00000000E+00
  0.00000000E+00  0.00000000E+00  0.00000000E+00
  0.00000000E+00  0.00000000E+00  0.00000000E+00
  0.00000000E+00  0.00000000E+00  0.00000000E+00
  0.00000000E+00  0.00000000E+00  0.00000000E+00
  0.00000000E+00  0.00000000E+00  0.00000000E+00
  0.00000000E+00  0.00000000E+00  0.00000000E+00
  0.00000000E+00  0.00000000E+00  0.00000000E+00
  0.00000000E+00  0.00000000E+00  0.00000000E+00
  0.00000000E+00  0.00000000E+00  0.00000000E+00
  0.00000000E+00  0.00000000E+00  0.00000000E+00
  0.00000000E+00  0.00000000E+00  0.00000000E+00
  0.00000000E+00  0.00000000E+00  0.00000000E+00
  0.00000000E+00  0.00000000E+00  0.00000000E+00
  0.00000000E+00  0.00000000E+00  0.00000000E+00
  0.00000000E+00  0.00000000E+00  0.00000000E+00
  0.00000000E+00  0.00000000E+00  0.00000000E+00
  0.00000000E+00  0.00000000E+00  0.00000000E+00
  0.00000000E+00  0.00000000E+00  0.00000000E+00
  0.00000000E+00  0.00000000E+00  0.00000000E+00
  0.00000000E+00  0.00000000E+00  0.00000000E+00
  0.00000000E+00  0.00000000E+00  0.00000000E+00
  0.00000000E+00  0.00000000E+00  0.00000000E+00
  0.00000000E+00  0.00000000E+00  0.00000000E+00
  0.00000000E+00  0.00000000E+00  0.00000000E+00
  0.00000000E+00  0.00000000E+00  0.00000000E+00
  0.00000000E+00  0.00000000E+00  0.00000000E+00
  0.00000000E+00  0.00000000E+00  0.00000000E+00
  0.00000000E+00  0.00000000E+00  0.00000000E+00
  0.00000000E+00  0.00000000E+00  0.00000000E+00
  0.00000000E+00  0.00000000E+00  0.00000000E+00
  0.00000000E+00  0.00000000E+00  0.00000000E+00
  0.00000000E+00  0.00000000E+00  0.00000000E+00
  0.00000000E+00  0.00000000E+00  0.00000000E+00
  0.00000000E+00  0.00000000E+00  0.00000000E+00
  0.00000000E+00  0.00000000E+00  0.00000000E+00
  0.00000000E+00  0.00000000E+00  0.00000000E+00
  0.00000000E+00  0.00000000E+00  0.00000000E+00
  0.00000000E+00  0.00000000E+00  0.00000000E+00
  0.00000000E+00  0.00000000E+00  0.00000000E+00
  0.00000000E+00  0.00000000E+00  0.00000000E+00
  0.00000000E+00  0.00000000E+00  0.00000000E+00
  0.00000000E+00  0.00000000E+00  0.00000000E+00
  0.00000000E+00  0.00000000E+00  0.00000000E+00
  0.00000000E+00  0.00000000E+00  0.00000000E+00
  0.00000000E+00  0.00000000E+00  0.00000000E+00
  0.00000000E+00  0.00000000E+00  0.00000000E+00
  0.00000000E+00  0.00000000E+00  0.00000000E+00
  0.00000000E+00  0.00000000E+00  0.00000000E+00
  0.00000000E+00  0.00000000E+00  0.00000000E+00
  0.00000000E+00  0.00000000E+00  0.00000000E+00
  0.00000000E+00  0.00000000E+00  0.00000000E+00
  0.00000000E+00  0.00000000E+00  0.00000000E+00
  0.00000000E+00  0.00000000E+00  0.00000000E+00
  0.00000000E+00  0.00000000E+00  0.00000000E+00
  0.00000000E+00  0.00000000E+00  0.00000000E+00
  0.00000000E+00  0.00000000E+00  0.00000000E+00
  0.00000000E+00  0.00000000E+00  0.00000000E+00
  0.00000000E+00  0.00000000E+00  0.00000000E+00
  0.00000000E+00  0.00000000E+00  0.00000000E+00
  0.00000000E+00  0.00000000E+00  0.00000000E+00
  0.00000000E+00  0.00000000E+00  0.00000000E+00
  0.00000000E+00  0.00000000E+00  0.00000000E+00
  0.00000000E+00  0.00000000E+00  0.00000000E+00
  0.00000000E+00  0.00000000E+00  0.00000000E+00
  0.00000000E+00  0.00000000E+00  0.00000000E+00
  0.00000000E+00  0.00000000E+00  0.00000000E+00
  0.00000000E+00  0.00000000E+00  0.00000000E+00
  0.00000000E+00  0.00000000E+00  0.00000000E+00
  0.00000000E+00  0.00000000E+00  0.00000000E+00
  0.00000000E+00  0.00000000E+00  0.00000000E+00
  0.00000000E+00  0.00000000E+00  0.00000000E+00
  0.00000000E+00  0.00000000E+00  0.00000000E+00
  0.00000000E+00  0.00000000E+00  0.00000000E+00
  0.00000000E+00  0.00000000E+00  0.00000000E+00
  0.00000000E+00  0.00000000E+00  0.00000000E+00
  0.00000000E+00  0.00000000E+00  0.00000000E+00
  0.00000000E+00  0.00000000E+00  0.00000000E+00
  0.00000000E+00  0.00000000E+00  0.00000000E+00
  0.00000000E+00  0.00000000E+00  0.00000000E+00
  0.00000000E+00  0.00000000E+00  0.00000000E+00
  0.00000000E+00  0.00000000E+00  0.00000000E+00
  0.00000000E+00  0.00000000E+00  0.00000000E+00
  0.00000000E+00  0.00000000E+00  0.00000000E+00
  0.00000000E+00  0.00000000E+00  0.00000000E+00
  0.00000000E+00  0.00000000E+00  0.00000000E+00
  0.00000000E+00  0.00000000E+00  0.00000000E+00
  0.00000000E+00  0.00000000E+00  0.00000000E+00
  0.00000000E+00  0.00000000E+00  0.00000000E+00
  0.00000000E+00  0.00000000E+00  0.00000000E+00
  0.00000000E+00  0.00000000E+00  0.00000000E+00
  0.00000000E+00  0.00000000E+00  0.00000000E+00
  0.00000000E+00  0.00000000E+00  0.00000000E+00
  0.00000000E+00  0.00000000E+00  0.00000000E+00
  0.00000000E+00  0.00000000E+00  0.00000000E+00
  0.00000000E+00  0.00000000E+00  0.00000000E+00
  0.00000000E+00  0.00000000E+00  0.00000000E+00
  0.00000000E+00  0.00000000E+00  0.00000000E+00
  0.00000000E+00  0.00000000E+00  0.00000000E+00
