Nb Ti                                   
    1.000000000000000     
    13.1462513814499413    0.0266580600010125   -0.1385700614010671
    -6.4342623280846096    9.2914627101046428    0.0816267386178023
     0.2275328353804096   -0.0363504488789376   18.7039605855400808
  Nb              Ti            
   112    16
Direct
     0.3091858092898797    0.1224382564505535    0.5633905434513012
     0.8084993749885171    0.3735044275167791    0.5633123089126389
     0.8191908879398123    0.1293604330718222    0.5597042334852972
     0.4421273379530939    0.1281172696185787    0.6856320814592339
     0.8118615977291294    0.1240777766606636    0.8123559672675690
     0.0624218571735350    0.8709804025910580    0.5597395663762008
     0.6884825273116043    0.8745710955829209    0.6874692277133690
     0.6885176565551420    0.8771897078364653    0.9371293266673004
     0.0643044565876321    0.3774042493025253    0.5633060603604890
     0.8078433637164818    0.8713065907831452    0.5633298010460986
     0.0615048411294697    0.8738175124926073    0.3161840106566695
     0.3117832890584299    0.3737253666408540    0.0628770526320019
     0.5626884692456003    0.6250842574081685    0.0618919123511106
     0.3130623882340417    0.6255364266487671    0.8120132327125360
     0.4358084065103033    0.1271348869309083    0.4385755195306502
     0.1874201079693344    0.8750685312322585    0.9378486107061643
     0.4375719296032156    0.6263169992782438    0.9374279711344095
     0.5628845212436442    0.3759783026977825    0.8123289619894484
     0.3118515294847268    0.8761811174150459    0.3131763477492543
     0.6846411217909552    0.1210542045502283    0.4384932570055379
     0.9421300435412649    0.1269494497616703    0.4350963197539280
     0.3143850823380335    0.8783611789690451    0.8137921699507025
     0.1876063335246628    0.1237752786843270    0.6873811639993629
     0.1870206086055692    0.3719555270069580    0.6866481479558416
     0.6902789442923903    0.3738303260577394    0.4369444965341830
     0.8133287775346849    0.1275934444369960    0.3141298730066012
     0.9370249686162117    0.8778357175144706    0.4399581956871506
     0.4382639388855308    0.3755256839402879    0.1874241951614456
     0.4372549432639446    0.8747894716006637    0.6881572648532480
     0.1874750432954991    0.1248901242980739    0.9385320047179142
     0.0621530618641719    0.1224601587931630    0.8120601062801782
     0.8117914933036672    0.6243446953123502    0.8124015571066335
     0.0628899123396919    0.6248863269129832    0.8121521324043128
     0.0611622169919386    0.1224443163418889    0.3124211207634702
     0.4374418132282352    0.3740144991602816    0.6875552697518899
     0.3127983750761711    0.1262462988255958    0.8121704027676663
     0.6862686104302185    0.1247006568403698    0.1888878447851803
     0.9388912653204916    0.8772613836430861    0.6860557703312440
     0.4380890290446375    0.8736558398962975    0.9369527739156285
     0.1879318521769967    0.3758512919605721    0.9372225060690224
     0.4377208036179301    0.6248983435439789    0.1872712422597166
     0.5650998141098875    0.8750136348683486    0.0627944063414157
     0.4324369764858939    0.8711923294846893    0.1887894562603108
     0.6893268292280819    0.6234461304504878    0.4380858450989488
     0.0614514592014357    0.6217101749838763    0.5623210623146525
     0.0573170887909817    0.8727364259169837    0.0613353421089241
     0.8115077401124345    0.6238511112670480    0.0628492361702437
     0.5602845276350130    0.3716006285922770    0.0608045238511540
     0.5621569248033652    0.6251988717260497    0.5616899035466384
     0.4374781330784202    0.1249095383383008    0.1874167968127305
     0.5628129769672379    0.6257065166288629    0.8120006328492866
     0.5619914621172760    0.1260000192330710    0.5614879082318058
     0.8112490641722593    0.6246321628194966    0.3117843718075896
     0.0606695102854670    0.1246087150877870    0.0633654894716740
     0.1864026870757359    0.3781160014499083    0.4386109892808496
     0.8118248632478564    0.8748005008727840    0.3119992216533721
     0.8131433754279577    0.3752600134406541    0.8131978863798967
     0.1876861825897225    0.8746970202432505    0.6875381671721214
     0.1892411323006849    0.8746671641845437    0.4382191707169030
     0.9378750781577069    0.6249419421160155    0.1878800488586979
     0.8145982585430480    0.3801349934039774    0.0606264285864847
     0.5621171559470116    0.3753137941951130    0.3125258271222405
     0.9376766986352426    0.8748076069540374    0.9359533656095399
     0.5632681311895095    0.1267451484265688    0.8115670258828664
     0.8172108507010754    0.3796230900639551    0.3131322495766578
     0.1840923045332209    0.6242975360952729    0.9379189076945612
     0.6889572126254071    0.6295904217289825    0.1861070422307017
     0.1822268443863844    0.6223397004321861    0.4366110916069090
     0.8123231001411249    0.8750492531160330    0.8122788870950665
     0.5640791340122984    0.8781933564077256    0.8108562682467743
     0.6879322470743746    0.8747595681255551    0.4371062264264170
     0.0648250526496566    0.6279845000416826    0.0645630150097525
     0.9370211070275487    0.3752030313543076    0.6880564657232130
     0.1882584648707773    0.6244914241533109    0.6879269933480838
     0.9348769332287837    0.3709737408513045    0.9383105722887976
     0.6916053325337387    0.6282787450526176    0.9388517901166018
     0.6877599675802627    0.3756586072090778    0.1872021443583216
     0.6863049867149305    0.1245524624820788    0.9370368948379114
     0.5663010821433262    0.1246488890020469    0.0632081302944218
     0.6868656731183896    0.3751108981643533    0.9367684852437904
     0.0612075331011042    0.3721451250973503    0.8139703739599711
     0.5625732576638899    0.8758835897645003    0.3122586347708415
     0.9387903974169943    0.1267141378783659    0.1884361532594488
     0.9353769248757722    0.6241472965160434    0.6871917260152648
     0.5591678147933737    0.6242314558022519    0.3125287427892351
     0.0614498612044185    0.8719876613691805    0.8135630827153831
     0.0665882542676793    0.6284069414115921    0.3112889024128836
     0.1866730960769938    0.1262982604664046    0.1877123193437150
     0.6883871318965091    0.8790101837529416    0.1868426485528081
     0.3111619353872056    0.1226310083338918    0.3113359939023569
     0.1842690455379796    0.6180859066606342    0.1889768695204448
     0.4386351213053667    0.3778793287336148    0.4370182071397986
     0.3094547590632539    0.1208870979656143    0.0644129349490493
     0.4353487653018867    0.8715207082815728    0.4360729944038906
     0.3132803197040714    0.6245256113840102    0.5631431990351182
     0.3076653761476866    0.3701457502560608    0.3140423231630379
     0.0620405677296881    0.3734558827022044    0.0613773864593746
     0.9351442534170247    0.3730481614372159    0.1861428418571743
     0.3122781097557171    0.6253606736766697    0.0628543071018084
     0.1890744961426073    0.3758412228952683    0.1886866711222560
     0.9340169869055370    0.1250434961246945    0.6873526113999041
     0.4415738662039101    0.6268900664681691    0.6860772263589279
     0.3137557780757064    0.3730937596394074    0.5606291584007271
     0.9399505853935705    0.8752927874459429    0.1880164810023437
     0.4389089777459999    0.3786008591604486    0.9372308145626954
     0.6886307452407525    0.3761131250940189    0.6883232462884674
     0.8135423771831883    0.6253379923797164    0.5619947867339129
     0.4381667822125089    0.6258673711614462    0.4391919581805960
     0.5624925628532277    0.1262348361497097    0.3129692317857082
     0.3159248239313546    0.8753655745995794    0.5622606021761988
     0.3122140295854351    0.3742139241967897    0.8126459081944098
     0.3144814027808249    0.8772551757114740    0.0611247046674073
     0.8124599123053242    0.1299226625669988    0.0634579981715847
     0.9336191520436553    0.3695238502726393    0.4397361525774717
     0.0627996939941708    0.3755163849085592    0.3128823271358905
     0.9385060294670070    0.1246948665450257    0.9392106484437789
     0.4365495394672514    0.1238307767818127    0.9388878086042194
     0.1866714238627366    0.8740864494272806    0.1877067723607183
     0.3137576259571786    0.6272726605755611    0.3134322409376715
     0.9386526287000860    0.6252349411058430    0.9387997333344412
     0.5635043308972719    0.3758856227353262    0.5630263434751405
     0.9391552797176492    0.6282064875996630    0.4360087711679522
     0.0604811491800138    0.1225671041231121    0.5632931498173410
     0.5652531692884248    0.8796937857334255    0.5634563453380463
     0.6862487283224098    0.1208753827136160    0.6838962468451876
     0.1882149163906195    0.1263870376590542    0.4366233362074856
     0.6862819556153082    0.6234113548900292    0.6843746924869704
     0.8138044196397329    0.8754130106706539    0.0613555693819833
 
  0.00000000E+00  0.00000000E+00  0.00000000E+00
  0.00000000E+00  0.00000000E+00  0.00000000E+00
  0.00000000E+00  0.00000000E+00  0.00000000E+00
  0.00000000E+00  0.00000000E+00  0.00000000E+00
  0.00000000E+00  0.00000000E+00  0.00000000E+00
  0.00000000E+00  0.00000000E+00  0.00000000E+00
  0.00000000E+00  0.00000000E+00  0.00000000E+00
  0.00000000E+00  0.00000000E+00  0.00000000E+00
  0.00000000E+00  0.00000000E+00  0.00000000E+00
  0.00000000E+00  0.00000000E+00  0.00000000E+00
  0.00000000E+00  0.00000000E+00  0.00000000E+00
  0.00000000E+00  0.00000000E+00  0.00000000E+00
  0.00000000E+00  0.00000000E+00  0.00000000E+00
  0.00000000E+00  0.00000000E+00  0.00000000E+00
  0.00000000E+00  0.00000000E+00  0.00000000E+00
  0.00000000E+00  0.00000000E+00  0.00000000E+00
  0.00000000E+00  0.00000000E+00  0.00000000E+00
  0.00000000E+00  0.00000000E+00  0.00000000E+00
  0.00000000E+00  0.00000000E+00  0.00000000E+00
  0.00000000E+00  0.00000000E+00  0.00000000E+00
  0.00000000E+00  0.00000000E+00  0.00000000E+00
  0.00000000E+00  0.00000000E+00  0.00000000E+00
  0.00000000E+00  0.00000000E+00  0.00000000E+00
  0.00000000E+00  0.00000000E+00  0.00000000E+00
  0.00000000E+00  0.00000000E+00  0.00000000E+00
  0.00000000E+00  0.00000000E+00  0.00000000E+00
  0.00000000E+00  0.00000000E+00  0.00000000E+00
  0.00000000E+00  0.00000000E+00  0.00000000E+00
  0.00000000E+00  0.00000000E+00  0.00000000E+00
  0.00000000E+00  0.00000000E+00  0.00000000E+00
  0.00000000E+00  0.00000000E+00  0.00000000E+00
  0.00000000E+00  0.00000000E+00  0.00000000E+00
  0.00000000E+00  0.00000000E+00  0.00000000E+00
  0.00000000E+00  0.00000000E+00  0.00000000E+00
  0.00000000E+00  0.00000000E+00  0.00000000E+00
  0.00000000E+00  0.00000000E+00  0.00000000E+00
  0.00000000E+00  0.00000000E+00  0.00000000E+00
  0.00000000E+00  0.00000000E+00  0.00000000E+00
  0.00000000E+00  0.00000000E+00  0.00000000E+00
  0.00000000E+00  0.00000000E+00  0.00000000E+00
  0.00000000E+00  0.00000000E+00  0.00000000E+00
  0.00000000E+00  0.00000000E+00  0.00000000E+00
  0.00000000E+00  0.00000000E+00  0.00000000E+00
  0.00000000E+00  0.00000000E+00  0.00000000E+00
  0.00000000E+00  0.00000000E+00  0.00000000E+00
  0.00000000E+00  0.00000000E+00  0.00000000E+00
  0.00000000E+00  0.00000000E+00  0.00000000E+00
  0.00000000E+00  0.00000000E+00  0.00000000E+00
  0.00000000E+00  0.00000000E+00  0.00000000E+00
  0.00000000E+00  0.00000000E+00  0.00000000E+00
  0.00000000E+00  0.00000000E+00  0.00000000E+00
  0.00000000E+00  0.00000000E+00  0.00000000E+00
  0.00000000E+00  0.00000000E+00  0.00000000E+00
  0.00000000E+00  0.00000000E+00  0.00000000E+00
  0.00000000E+00  0.00000000E+00  0.00000000E+00
  0.00000000E+00  0.00000000E+00  0.00000000E+00
  0.00000000E+00  0.00000000E+00  0.00000000E+00
  0.00000000E+00  0.00000000E+00  0.00000000E+00
  0.00000000E+00  0.00000000E+00  0.00000000E+00
  0.00000000E+00  0.00000000E+00  0.00000000E+00
  0.00000000E+00  0.00000000E+00  0.00000000E+00
  0.00000000E+00  0.00000000E+00  0.00000000E+00
  0.00000000E+00  0.00000000E+00  0.00000000E+00
  0.00000000E+00  0.00000000E+00  0.00000000E+00
  0.00000000E+00  0.00000000E+00  0.00000000E+00
  0.00000000E+00  0.00000000E+00  0.00000000E+00
  0.00000000E+00  0.00000000E+00  0.00000000E+00
  0.00000000E+00  0.00000000E+00  0.00000000E+00
  0.00000000E+00  0.00000000E+00  0.00000000E+00
  0.00000000E+00  0.00000000E+00  0.00000000E+00
  0.00000000E+00  0.00000000E+00  0.00000000E+00
  0.00000000E+00  0.00000000E+00  0.00000000E+00
  0.00000000E+00  0.00000000E+00  0.00000000E+00
  0.00000000E+00  0.00000000E+00  0.00000000E+00
  0.00000000E+00  0.00000000E+00  0.00000000E+00
  0.00000000E+00  0.00000000E+00  0.00000000E+00
  0.00000000E+00  0.00000000E+00  0.00000000E+00
  0.00000000E+00  0.00000000E+00  0.00000000E+00
  0.00000000E+00  0.00000000E+00  0.00000000E+00
  0.00000000E+00  0.00000000E+00  0.00000000E+00
  0.00000000E+00  0.00000000E+00  0.00000000E+00
  0.00000000E+00  0.00000000E+00  0.00000000E+00
  0.00000000E+00  0.00000000E+00  0.00000000E+00
  0.00000000E+00  0.00000000E+00  0.00000000E+00
  0.00000000E+00  0.00000000E+00  0.00000000E+00
  0.00000000E+00  0.00000000E+00  0.00000000E+00
  0.00000000E+00  0.00000000E+00  0.00000000E+00
  0.00000000E+00  0.00000000E+00  0.00000000E+00
  0.00000000E+00  0.00000000E+00  0.00000000E+00
  0.00000000E+00  0.00000000E+00  0.00000000E+00
  0.00000000E+00  0.00000000E+00  0.00000000E+00
  0.00000000E+00  0.00000000E+00  0.00000000E+00
  0.00000000E+00  0.00000000E+00  0.00000000E+00
  0.00000000E+00  0.00000000E+00  0.00000000E+00
  0.00000000E+00  0.00000000E+00  0.00000000E+00
  0.00000000E+00  0.00000000E+00  0.00000000E+00
  0.00000000E+00  0.00000000E+00  0.00000000E+00
  0.00000000E+00  0.00000000E+00  0.00000000E+00
  0.00000000E+00  0.00000000E+00  0.00000000E+00
  0.00000000E+00  0.00000000E+00  0.00000000E+00
  0.00000000E+00  0.00000000E+00  0.00000000E+00
  0.00000000E+00  0.00000000E+00  0.00000000E+00
  0.00000000E+00  0.00000000E+00  0.00000000E+00
  0.00000000E+00  0.00000000E+00  0.00000000E+00
  0.00000000E+00  0.00000000E+00  0.00000000E+00
  0.00000000E+00  0.00000000E+00  0.00000000E+00
  0.00000000E+00  0.00000000E+00  0.00000000E+00
  0.00000000E+00  0.00000000E+00  0.00000000E+00
  0.00000000E+00  0.00000000E+00  0.00000000E+00
  0.00000000E+00  0.00000000E+00  0.00000000E+00
  0.00000000E+00  0.00000000E+00  0.00000000E+00
  0.00000000E+00  0.00000000E+00  0.00000000E+00
  0.00000000E+00  0.00000000E+00  0.00000000E+00
  0.00000000E+00  0.00000000E+00  0.00000000E+00
  0.00000000E+00  0.00000000E+00  0.00000000E+00
  0.00000000E+00  0.00000000E+00  0.00000000E+00
  0.00000000E+00  0.00000000E+00  0.00000000E+00
  0.00000000E+00  0.00000000E+00  0.00000000E+00
  0.00000000E+00  0.00000000E+00  0.00000000E+00
  0.00000000E+00  0.00000000E+00  0.00000000E+00
  0.00000000E+00  0.00000000E+00  0.00000000E+00
  0.00000000E+00  0.00000000E+00  0.00000000E+00
  0.00000000E+00  0.00000000E+00  0.00000000E+00
  0.00000000E+00  0.00000000E+00  0.00000000E+00
  0.00000000E+00  0.00000000E+00  0.00000000E+00
  0.00000000E+00  0.00000000E+00  0.00000000E+00
  0.00000000E+00  0.00000000E+00  0.00000000E+00
  0.00000000E+00  0.00000000E+00  0.00000000E+00
