 128 128   0   0
  0.1831273E+02  0.1328376E-08  0.1328376E-08  0.1328376E-08  0.5000000E-15
   1.0000000000000000E-004
  CAR 
 bcc_NbZr_Zr128                          
     14.28551355    -41.93924834  301      9.04052503      1.00000000
    -41.939  0.0000E+00  0.0000E+00
    -41.752  0.0000E+00  0.0000E+00
    -41.564  0.0000E+00  0.0000E+00
    -41.377  0.0000E+00  0.0000E+00
    -41.190  0.0000E+00  0.0000E+00
    -41.002 -0.6508E-29 -0.1220E-29
    -40.815 -0.1123E-22 -0.2104E-23
    -40.627 -0.3389E-17 -0.6351E-18
    -40.440 -0.1740E-12 -0.3261E-13
    -40.253 -0.1620E-08 -0.3036E-09
    -40.065 -0.2709E-05 -0.5079E-06
    -39.878 -0.8315E-03 -0.1563E-03
    -39.690 -0.4629E-01 -0.8833E-02
    -39.503 -0.2929E+00 -0.6374E-01
    -39.315  0.2687E+01  0.4398E+00
    -39.128  0.8834E+01  0.2095E+01
    -38.941  0.2856E+01  0.2631E+01
    -38.753 -0.3312E+00  0.2569E+01
    -38.566 -0.4564E-01  0.2560E+01
    -38.378 -0.6385E-03  0.2560E+01
    -38.191 -0.1503E-05  0.2560E+01
    -38.004 -0.6355E-09  0.2560E+01
    -37.816 -0.4850E-13  0.2560E+01
    -37.629  0.0000E+00  0.2560E+01
    -37.441  0.0000E+00  0.2560E+01
    -37.254  0.0000E+00  0.2560E+01
    -37.066  0.0000E+00  0.2560E+01
    -36.879  0.0000E+00  0.2560E+01
    -36.692  0.0000E+00  0.2560E+01
    -36.504  0.0000E+00  0.2560E+01
    -36.317  0.0000E+00  0.2560E+01
    -36.129  0.0000E+00  0.2560E+01
    -35.942  0.0000E+00  0.2560E+01
    -35.755  0.0000E+00  0.2560E+01
    -35.567  0.0000E+00  0.2560E+01
    -35.380  0.0000E+00  0.2560E+01
    -35.192  0.0000E+00  0.2560E+01
    -35.005  0.0000E+00  0.2560E+01
    -34.817  0.0000E+00  0.2560E+01
    -34.630  0.0000E+00  0.2560E+01
    -34.443  0.0000E+00  0.2560E+01
    -34.255  0.0000E+00  0.2560E+01
    -34.068  0.0000E+00  0.2560E+01
    -33.880  0.0000E+00  0.2560E+01
    -33.693  0.0000E+00  0.2560E+01
    -33.506  0.0000E+00  0.2560E+01
    -33.318  0.0000E+00  0.2560E+01
    -33.131  0.0000E+00  0.2560E+01
    -32.943  0.0000E+00  0.2560E+01
    -32.756  0.0000E+00  0.2560E+01
    -32.568  0.0000E+00  0.2560E+01
    -32.381  0.0000E+00  0.2560E+01
    -32.194  0.0000E+00  0.2560E+01
    -32.006  0.0000E+00  0.2560E+01
    -31.819  0.0000E+00  0.2560E+01
    -31.631  0.0000E+00  0.2560E+01
    -31.444  0.0000E+00  0.2560E+01
    -31.257  0.0000E+00  0.2560E+01
    -31.069  0.0000E+00  0.2560E+01
    -30.882  0.0000E+00  0.2560E+01
    -30.694  0.0000E+00  0.2560E+01
    -30.507  0.0000E+00  0.2560E+01
    -30.319  0.0000E+00  0.2560E+01
    -30.132  0.0000E+00  0.2560E+01
    -29.945  0.0000E+00  0.2560E+01
    -29.757  0.0000E+00  0.2560E+01
    -29.570  0.0000E+00  0.2560E+01
    -29.382  0.0000E+00  0.2560E+01
    -29.195  0.0000E+00  0.2560E+01
    -29.008  0.0000E+00  0.2560E+01
    -28.820  0.0000E+00  0.2560E+01
    -28.633  0.0000E+00  0.2560E+01
    -28.445  0.0000E+00  0.2560E+01
    -28.258  0.0000E+00  0.2560E+01
    -28.070  0.0000E+00  0.2560E+01
    -27.883  0.0000E+00  0.2560E+01
    -27.696  0.0000E+00  0.2560E+01
    -27.508  0.0000E+00  0.2560E+01
    -27.321  0.0000E+00  0.2560E+01
    -27.133  0.0000E+00  0.2560E+01
    -26.946  0.0000E+00  0.2560E+01
    -26.759  0.0000E+00  0.2560E+01
    -26.571  0.0000E+00  0.2560E+01
    -26.384  0.0000E+00  0.2560E+01
    -26.196  0.0000E+00  0.2560E+01
    -26.009  0.0000E+00  0.2560E+01
    -25.821  0.0000E+00  0.2560E+01
    -25.634  0.0000E+00  0.2560E+01
    -25.447  0.0000E+00  0.2560E+01
    -25.259  0.0000E+00  0.2560E+01
    -25.072  0.0000E+00  0.2560E+01
    -24.884  0.0000E+00  0.2560E+01
    -24.697  0.0000E+00  0.2560E+01
    -24.510  0.0000E+00  0.2560E+01
    -24.322  0.0000E+00  0.2560E+01
    -24.135  0.0000E+00  0.2560E+01
    -23.947  0.0000E+00  0.2560E+01
    -23.760  0.0000E+00  0.2560E+01
    -23.572  0.0000E+00  0.2560E+01
    -23.385  0.0000E+00  0.2560E+01
    -23.198  0.0000E+00  0.2560E+01
    -23.010  0.0000E+00  0.2560E+01
    -22.823  0.0000E+00  0.2560E+01
    -22.635  0.0000E+00  0.2560E+01
    -22.448  0.0000E+00  0.2560E+01
    -22.261  0.0000E+00  0.2560E+01
    -22.073  0.0000E+00  0.2560E+01
    -21.886  0.0000E+00  0.2560E+01
    -21.698  0.0000E+00  0.2560E+01
    -21.511  0.0000E+00  0.2560E+01
    -21.324  0.0000E+00  0.2560E+01
    -21.136  0.0000E+00  0.2560E+01
    -20.949  0.0000E+00  0.2560E+01
    -20.761  0.0000E+00  0.2560E+01
    -20.574  0.0000E+00  0.2560E+01
    -20.386  0.0000E+00  0.2560E+01
    -20.199  0.0000E+00  0.2560E+01
    -20.012  0.0000E+00  0.2560E+01
    -19.824  0.0000E+00  0.2560E+01
    -19.637 -0.3491E-32  0.2560E+01
    -19.449 -0.1301E-25  0.2560E+01
    -19.262 -0.8486E-20  0.2560E+01
    -19.075 -0.9671E-15  0.2560E+01
    -18.887 -0.1970E-10  0.2560E+01
    -18.700 -0.7280E-07  0.2560E+01
    -18.512 -0.4816E-04  0.2560E+01
    -18.325 -0.5620E-02  0.2559E+01
    -18.137 -0.1033E+00  0.2540E+01
    -17.950  0.1526E+00  0.2568E+01
    -17.763  0.3842E+01  0.3288E+01
    -17.575  0.6661E+01  0.4537E+01
    -17.388  0.5680E+01  0.5601E+01
    -17.200  0.7406E+01  0.6989E+01
    -17.013  0.9362E+01  0.8744E+01
    -16.826  0.7376E+01  0.1013E+02
    -16.638  0.8604E+00  0.1029E+02
    -16.451 -0.2373E+00  0.1024E+02
    -16.263 -0.1556E-01  0.1024E+02
    -16.076 -0.1328E-03  0.1024E+02
    -15.888 -0.1856E-06  0.1024E+02
    -15.701 -0.4431E-10  0.1024E+02
    -15.514 -0.1765E-14  0.1024E+02
    -15.326  0.0000E+00  0.1024E+02
    -15.139  0.0000E+00  0.1024E+02
    -14.951  0.0000E+00  0.1024E+02
    -14.764  0.0000E+00  0.1024E+02
    -14.577  0.0000E+00  0.1024E+02
    -14.389  0.0000E+00  0.1024E+02
    -14.202  0.0000E+00  0.1024E+02
    -14.014  0.0000E+00  0.1024E+02
    -13.827  0.0000E+00  0.1024E+02
    -13.639  0.0000E+00  0.1024E+02
    -13.452  0.0000E+00  0.1024E+02
    -13.265  0.0000E+00  0.1024E+02
    -13.077  0.0000E+00  0.1024E+02
    -12.890  0.0000E+00  0.1024E+02
    -12.702  0.0000E+00  0.1024E+02
    -12.515  0.0000E+00  0.1024E+02
    -12.328  0.0000E+00  0.1024E+02
    -12.140  0.0000E+00  0.1024E+02
    -11.953  0.0000E+00  0.1024E+02
    -11.765  0.0000E+00  0.1024E+02
    -11.578  0.0000E+00  0.1024E+02
    -11.390  0.0000E+00  0.1024E+02
    -11.203  0.0000E+00  0.1024E+02
    -11.016  0.0000E+00  0.1024E+02
    -10.828  0.0000E+00  0.1024E+02
    -10.641  0.0000E+00  0.1024E+02
    -10.453  0.0000E+00  0.1024E+02
    -10.266  0.0000E+00  0.1024E+02
    -10.079  0.0000E+00  0.1024E+02
     -9.891  0.0000E+00  0.1024E+02
     -9.704  0.0000E+00  0.1024E+02
     -9.516  0.0000E+00  0.1024E+02
     -9.329  0.0000E+00  0.1024E+02
     -9.141  0.0000E+00  0.1024E+02
     -8.954  0.0000E+00  0.1024E+02
     -8.767  0.0000E+00  0.1024E+02
     -8.579  0.0000E+00  0.1024E+02
     -8.392  0.0000E+00  0.1024E+02
     -8.204  0.0000E+00  0.1024E+02
     -8.017  0.0000E+00  0.1024E+02
     -7.830  0.0000E+00  0.1024E+02
     -7.642  0.0000E+00  0.1024E+02
     -7.455  0.0000E+00  0.1024E+02
     -7.267  0.0000E+00  0.1024E+02
     -7.080  0.0000E+00  0.1024E+02
     -6.892  0.0000E+00  0.1024E+02
     -6.705  0.0000E+00  0.1024E+02
     -6.518  0.0000E+00  0.1024E+02
     -6.330  0.0000E+00  0.1024E+02
     -6.143  0.0000E+00  0.1024E+02
     -5.955  0.0000E+00  0.1024E+02
     -5.768  0.0000E+00  0.1024E+02
     -5.581  0.0000E+00  0.1024E+02
     -5.393  0.0000E+00  0.1024E+02
     -5.206  0.0000E+00  0.1024E+02
     -5.018  0.0000E+00  0.1024E+02
     -4.831  0.0000E+00  0.1024E+02
     -4.643  0.0000E+00  0.1024E+02
     -4.456  0.0000E+00  0.1024E+02
     -4.269  0.0000E+00  0.1024E+02
     -4.081  0.0000E+00  0.1024E+02
     -3.894  0.0000E+00  0.1024E+02
     -3.706  0.0000E+00  0.1024E+02
     -3.519  0.0000E+00  0.1024E+02
     -3.332  0.0000E+00  0.1024E+02
     -3.144  0.0000E+00  0.1024E+02
     -2.957  0.0000E+00  0.1024E+02
     -2.769  0.0000E+00  0.1024E+02
     -2.582  0.0000E+00  0.1024E+02
     -2.394  0.0000E+00  0.1024E+02
     -2.207  0.0000E+00  0.1024E+02
     -2.020  0.0000E+00  0.1024E+02
     -1.832  0.0000E+00  0.1024E+02
     -1.645  0.0000E+00  0.1024E+02
     -1.457  0.0000E+00  0.1024E+02
     -1.270  0.0000E+00  0.1024E+02
     -1.083  0.0000E+00  0.1024E+02
     -0.895  0.0000E+00  0.1024E+02
     -0.708  0.0000E+00  0.1024E+02
     -0.520  0.0000E+00  0.1024E+02
     -0.333  0.0000E+00  0.1024E+02
     -0.146  0.0000E+00  0.1024E+02
      0.042  0.0000E+00  0.1024E+02
      0.229  0.0000E+00  0.1024E+02
      0.417  0.0000E+00  0.1024E+02
      0.604  0.0000E+00  0.1024E+02
      0.792  0.0000E+00  0.1024E+02
      0.979  0.0000E+00  0.1024E+02
      1.166  0.0000E+00  0.1024E+02
      1.354  0.0000E+00  0.1024E+02
      1.541  0.0000E+00  0.1024E+02
      1.729  0.0000E+00  0.1024E+02
      1.916 -0.2281E-34  0.1024E+02
      2.103 -0.1096E-27  0.1024E+02
      2.291 -0.8956E-22  0.1024E+02
      2.478 -0.1241E-16  0.1024E+02
      2.666 -0.2779E-12  0.1024E+02
      2.853 -0.1058E-08  0.1024E+02
      3.041 -0.6431E-06  0.1024E+02
      3.228 -0.5712E-04  0.1024E+02
      3.415 -0.4740E-03  0.1024E+02
      3.603  0.2292E-02  0.1024E+02
      3.790  0.1203E-01  0.1024E+02
      3.978  0.4880E-01  0.1025E+02
      4.165  0.9238E-01  0.1027E+02
      4.352  0.1138E+00  0.1029E+02
      4.540  0.7708E-01  0.1030E+02
      4.727  0.6477E-01  0.1032E+02
      4.915  0.2052E+00  0.1036E+02
      5.102  0.2922E+00  0.1041E+02
      5.290  0.1801E+00  0.1044E+02
      5.477  0.9670E-01  0.1046E+02
      5.664  0.2120E+00  0.1050E+02
      5.852  0.3484E+00  0.1057E+02
      6.039  0.4946E+00  0.1066E+02
      6.227  0.7089E+00  0.1079E+02
      6.414  0.1002E+01  0.1098E+02
      6.601  0.1104E+01  0.1119E+02
      6.789  0.1342E+01  0.1144E+02
      6.976  0.1718E+01  0.1176E+02
      7.164  0.1383E+01  0.1202E+02
      7.351  0.2521E+01  0.1249E+02
      7.539  0.1492E+01  0.1277E+02
      7.726  0.4703E+00  0.1286E+02
      7.913  0.9436E+00  0.1304E+02
      8.101  0.8203E+00  0.1319E+02
      8.288  0.1484E+01  0.1347E+02
      8.476  0.3147E+01  0.1406E+02
      8.663  0.2898E+01  0.1460E+02
      8.850  0.2060E+01  0.1499E+02
      9.038  0.1951E+01  0.1535E+02
      9.225  0.2602E+01  0.1584E+02
      9.413  0.2704E+01  0.1635E+02
      9.600  0.2323E+01  0.1678E+02
      9.788  0.1553E+01  0.1707E+02
      9.975  0.1498E+01  0.1736E+02
     10.162  0.8871E+00  0.1752E+02
     10.350  0.4988E+00  0.1762E+02
     10.537  0.6610E+00  0.1774E+02
     10.725  0.4770E+00  0.1783E+02
     10.912  0.2466E+00  0.1787E+02
     11.099  0.7643E+00  0.1802E+02
     11.287  0.1338E+01  0.1827E+02
     11.474  0.7282E+00  0.1841E+02
     11.662  0.2481E+00  0.1845E+02
     11.849  0.1479E+00  0.1848E+02
     12.037  0.9062E-02  0.1848E+02
     12.224 -0.4915E-02  0.1848E+02
     12.411 -0.2054E-03  0.1848E+02
     12.599 -0.1092E-05  0.1848E+02
     12.786 -0.9008E-09  0.1848E+02
     12.974 -0.1219E-12  0.1848E+02
     13.161  0.0000E+00  0.1848E+02
     13.348  0.0000E+00  0.1848E+02
     13.536  0.0000E+00  0.1848E+02
     13.723  0.0000E+00  0.1848E+02
     13.911  0.0000E+00  0.1848E+02
     14.098  0.0000E+00  0.1848E+02
     14.286  0.0000E+00  0.1848E+02
