  128  128  100    1
  0.1831273E+02  0.1328376E-08  0.1328376E-08  0.1328376E-08  0.5000000E-15
   1.0000000000000000E-004
  CAR 
 bcc_NbZr_Zr128                          
   1536      4    924
 
  0.1262379E-14  0.1262379E-14  0.1262379E-14  0.1250000E+00
      1        -39.383577   1.000000
      2        -39.336179   1.000000
      3        -39.336173   1.000000
      4        -39.336169   1.000000
      5        -39.336163   1.000000
      6        -39.336158   1.000000
      7        -39.336151   1.000000
      8        -39.299964   1.000000
      9        -39.299960   1.000000
     10        -39.299957   1.000000
     11        -39.299955   1.000000
     12        -39.299951   1.000000
     13        -39.299948   1.000000
     14        -39.299945   1.000000
     15        -39.299942   1.000000
     16        -39.299941   1.000000
     17        -39.299940   1.000000
     18        -39.299936   1.000000
     19        -39.299926   1.000000
     20        -39.271954   1.000000
     21        -39.271954   1.000000
     22        -39.271946   1.000000
     23        -39.271945   1.000000
     24        -39.271944   1.000000
     25        -39.271943   1.000000
     26        -39.271935   1.000000
     27        -39.271934   1.000000
     28        -39.227519   1.000000
     29        -39.227519   1.000000
     30        -39.227519   1.000000
     31        -39.227519   1.000000
     32        -39.227518   1.000000
     33        -39.227518   1.000000
     34        -39.220594   1.000000
     35        -39.220592   1.000000
     36        -39.220592   1.000000
     37        -39.220586   1.000000
     38        -39.220584   1.000000
     39        -39.220583   1.000000
     40        -39.220583   1.000000
     41        -39.220583   1.000000
     42        -39.220580   1.000000
     43        -39.220579   1.000000
     44        -39.220578   1.000000
     45        -39.220576   1.000000
     46        -39.220575   1.000000
     47        -39.220574   1.000000
     48        -39.220573   1.000000
     49        -39.220571   1.000000
     50        -39.220568   1.000000
     51        -39.220568   1.000000
     52        -39.220567   1.000000
     53        -39.220565   1.000000
     54        -39.220561   1.000000
     55        -39.220561   1.000000
     56        -39.220559   1.000000
     57        -39.220554   1.000000
     58        -39.213974   1.000000
     59        -39.213968   1.000000
     60        -39.213967   1.000000
     61        -39.213964   1.000000
     62        -39.213962   1.000000
     63        -39.213962   1.000000
     64        -39.213960   1.000000
     65        -39.213959   1.000000
     66        -39.213957   1.000000
     67        -39.213955   1.000000
     68        -39.213954   1.000000
     69        -39.213953   1.000000
     70        -39.213951   1.000000
     71        -39.213948   1.000000
     72        -39.213946   1.000000
     73        -39.213946   1.000000
     74        -39.213945   1.000000
     75        -39.213944   1.000000
     76        -39.213943   1.000000
     77        -39.213940   1.000000
     78        -39.213938   1.000000
     79        -39.213937   1.000000
     80        -39.213933   1.000000
     81        -39.213923   1.000000
     82        -39.213866   1.000000
     83        -39.213866   1.000000
     84        -39.213864   1.000000
     85        -39.213864   1.000000
     86        -39.213864   1.000000
     87        -39.213863   1.000000
     88        -39.207319   1.000000
     89        -39.207317   1.000000
     90        -39.207310   1.000000
     91        -39.207310   1.000000
     92        -39.207309   1.000000
     93        -39.207305   1.000000
     94        -39.207300   1.000000
     95        -39.207299   1.000000
     96        -39.207296   1.000000
     97        -39.207294   1.000000
     98        -39.207291   1.000000
     99        -39.207284   1.000000
    100        -39.200763   1.000000
    101        -39.200763   1.000000
    102        -39.168623   1.000000
    103        -39.168622   1.000000
    104        -39.168615   1.000000
    105        -39.168614   1.000000
    106        -39.168611   1.000000
    107        -39.168611   1.000000
    108        -39.168603   1.000000
    109        -39.168602   1.000000
    110        -39.153950   1.000000
    111        -39.153946   1.000000
    112        -39.153943   1.000000
    113        -39.153941   1.000000
    114        -39.153937   1.000000
    115        -39.153935   1.000000
    116        -39.153931   1.000000
    117        -39.153929   1.000000
    118        -39.153927   1.000000
    119        -39.153926   1.000000
    120        -39.153923   1.000000
    121        -39.153913   1.000000
    122        -39.130085   1.000000
    123        -39.130079   1.000000
    124        -39.130075   1.000000
    125        -39.130069   1.000000
    126        -39.130064   1.000000
    127        -39.130058   1.000000
    128        -39.093383   1.000000
    129        -17.925150   1.000000
    130        -17.925150   1.000000
    131        -17.925150   1.000000
    132        -17.925150   1.000000
    133        -17.925149   1.000000
    134        -17.925149   1.000000
    135        -17.773102   1.000000
    136        -17.773101   1.000000
    137        -17.773099   1.000000
    138        -17.773098   1.000000
    139        -17.773096   1.000000
    140        -17.773095   1.000000
    141        -17.773092   1.000000
    142        -17.773090   1.000000
    143        -17.773089   1.000000
    144        -17.773088   1.000000
    145        -17.773084   1.000000
    146        -17.773082   1.000000
    147        -17.761777   1.000000
    148        -17.761776   1.000000
    149        -17.761774   1.000000
    150        -17.761773   1.000000
    151        -17.761770   1.000000
    152        -17.761770   1.000000
    153        -17.761769   1.000000
    154        -17.761768   1.000000
    155        -17.761766   1.000000
    156        -17.761765   1.000000
    157        -17.761765   1.000000
    158        -17.761763   1.000000
    159        -17.742390   1.000000
    160        -17.742390   1.000000
    161        -17.742389   1.000000
    162        -17.742386   1.000000
    163        -17.742385   1.000000
    164        -17.742383   1.000000
    165        -17.742382   1.000000
    166        -17.742382   1.000000
    167        -17.742381   1.000000
    168        -17.742381   1.000000
    169        -17.742378   1.000000
    170        -17.742378   1.000000
    171        -17.742376   1.000000
    172        -17.742375   1.000000
    173        -17.742373   1.000000
    174        -17.742373   1.000000
    175        -17.742372   1.000000
    176        -17.742371   1.000000
    177        -17.742369   1.000000
    178        -17.742368   1.000000
    179        -17.742367   1.000000
    180        -17.742366   1.000000
    181        -17.742363   1.000000
    182        -17.742362   1.000000
    183        -17.733938   1.000000
    184        -17.733937   1.000000
    185        -17.733936   1.000000
    186        -17.733935   1.000000
    187        -17.733934   1.000000
    188        -17.733932   1.000000
    189        -17.733931   1.000000
    190        -17.733931   1.000000
    191        -17.733929   1.000000
    192        -17.733928   1.000000
    193        -17.733927   1.000000
    194        -17.733926   1.000000
    195        -17.733925   1.000000
    196        -17.733924   1.000000
    197        -17.733923   1.000000
    198        -17.733922   1.000000
    199        -17.733921   1.000000
    200        -17.733920   1.000000
    201        -17.733919   1.000000
    202        -17.733917   1.000000
    203        -17.733916   1.000000
    204        -17.733914   1.000000
    205        -17.733912   1.000000
    206        -17.733909   1.000000
    207        -17.629812   1.000000
    208        -17.629812   1.000000
    209        -17.629811   1.000000
    210        -17.629810   1.000000
    211        -17.629809   1.000000
    212        -17.629809   1.000000
    213        -17.629805   1.000000
    214        -17.629804   1.000000
    215        -17.629803   1.000000
    216        -17.629802   1.000000
    217        -17.629799   1.000000
    218        -17.629799   1.000000
    219        -17.629798   1.000000
    220        -17.629798   1.000000
    221        -17.629797   1.000000
    222        -17.629796   1.000000
    223        -17.592123   1.000000
    224        -17.592121   1.000000
    225        -17.592120   1.000000
    226        -17.588287   1.000000
    227        -17.588285   1.000000
    228        -17.588283   1.000000
    229        -17.588283   1.000000
    230        -17.588279   1.000000
    231        -17.588278   1.000000
    232        -17.565591   1.000000
    233        -17.565591   1.000000
    234        -17.565588   1.000000
    235        -17.565588   1.000000
    236        -17.565587   1.000000
    237        -17.565586   1.000000
    238        -17.565584   1.000000
    239        -17.565583   1.000000
    240        -17.482944   1.000000
    241        -17.482942   1.000000
    242        -17.482938   1.000000
    243        -17.482937   1.000000
    244        -17.482934   1.000000
    245        -17.482931   1.000000
    246        -17.482930   1.000000
    247        -17.482928   1.000000
    248        -17.482927   1.000000
    249        -17.482924   1.000000
    250        -17.482923   1.000000
    251        -17.482919   1.000000
    252        -17.439914   1.000000
    253        -17.439914   1.000000
    254        -17.439914   1.000000
    255        -17.439914   1.000000
    256        -17.439913   1.000000
    257        -17.439913   1.000000
    258        -17.417135   1.000000
    259        -17.417133   1.000000
    260        -17.417133   1.000000
    261        -17.417132   1.000000
    262        -17.417130   1.000000
    263        -17.417129   1.000000
    264        -17.417128   1.000000
    265        -17.417128   1.000000
    266        -17.417125   1.000000
    267        -17.417124   1.000000
    268        -17.417123   1.000000
    269        -17.417122   1.000000
    270        -17.403699   1.000000
    271        -17.403699   1.000000
    272        -17.403698   1.000000
    273        -17.403698   1.000000
    274        -17.403697   1.000000
    275        -17.403697   1.000000
    276        -17.400952   1.000000
    277        -17.400948   1.000000
    278        -17.400947   1.000000
    279        -17.400947   1.000000
    280        -17.400946   1.000000
    281        -17.400943   1.000000
    282        -17.400941   1.000000
    283        -17.400938   1.000000
    284        -17.400937   1.000000
    285        -17.400937   1.000000
    286        -17.400936   1.000000
    287        -17.400932   1.000000
    288        -17.314403   1.000000
    289        -17.314403   1.000000
    290        -17.314403   1.000000
    291        -17.314402   1.000000
    292        -17.314400   1.000000
    293        -17.314400   1.000000
    294        -17.314400   1.000000
    295        -17.314398   1.000000
    296        -17.314397   1.000000
    297        -17.314396   1.000000
    298        -17.314396   1.000000
    299        -17.314395   1.000000
    300        -17.314395   1.000000
    301        -17.314395   1.000000
    302        -17.314394   1.000000
    303        -17.314393   1.000000
    304        -17.314392   1.000000
    305        -17.314392   1.000000
    306        -17.314391   1.000000
    307        -17.314391   1.000000
    308        -17.314390   1.000000
    309        -17.314390   1.000000
    310        -17.314389   1.000000
    311        -17.314388   1.000000
    312        -17.304273   1.000000
    313        -17.304272   1.000000
    314        -17.304271   1.000000
    315        -17.304267   1.000000
    316        -17.304266   1.000000
    317        -17.304266   1.000000
    318        -17.304265   1.000000
    319        -17.304265   1.000000
    320        -17.304263   1.000000
    321        -17.304260   1.000000
    322        -17.304257   1.000000
    323        -17.304256   1.000000
    324        -17.247013   1.000000
    325        -17.247011   1.000000
    326        -17.247010   1.000000
    327        -17.247009   1.000000
    328        -17.247008   1.000000
    329        -17.247007   1.000000
    330        -17.247006   1.000000
    331        -17.247005   1.000000
    332        -17.247002   1.000000
    333        -17.247001   1.000000
    334        -17.247000   1.000000
    335        -17.246999   1.000000
    336        -17.223921   1.000000
    337        -17.223921   1.000000
    338        -17.223921   1.000000
    339        -17.223921   1.000000
    340        -17.223920   1.000000
    341        -17.223920   1.000000
    342        -17.223920   1.000000
    343        -17.223920   1.000000
    344        -17.223919   1.000000
    345        -17.223919   1.000000
    346        -17.223919   1.000000
    347        -17.223919   1.000000
    348        -17.213016   1.000000
    349        -17.213014   1.000000
    350        -17.213013   1.000000
    351        -17.213012   1.000000
    352        -17.213010   1.000000
    353        -17.213008   1.000000
    354        -17.213006   1.000000
    355        -17.213006   1.000000
    356        -17.213005   1.000000
    357        -17.213003   1.000000
    358        -17.213002   1.000000
    359        -17.213000   1.000000
    360        -17.213000   1.000000
    361        -17.212999   1.000000
    362        -17.212999   1.000000
    363        -17.212998   1.000000
    364        -17.212997   1.000000
    365        -17.212996   1.000000
    366        -17.212995   1.000000
    367        -17.212993   1.000000
    368        -17.212989   1.000000
    369        -17.212989   1.000000
    370        -17.212989   1.000000
    371        -17.212985   1.000000
    372        -17.202809   1.000000
    373        -17.202809   1.000000
    374        -17.202809   1.000000
    375        -17.202809   1.000000
    376        -17.202809   1.000000
    377        -17.202809   1.000000
    378        -17.084061   1.000000
    379        -17.084060   1.000000
    380        -17.084057   1.000000
    381        -17.084056   1.000000
    382        -17.084053   1.000000
    383        -17.084051   1.000000
    384        -17.071280   1.000000
    385        -17.071280   1.000000
    386        -17.071277   1.000000
    387        -17.071277   1.000000
    388        -17.071276   1.000000
    389        -17.071276   1.000000
    390        -17.071273   1.000000
    391        -17.071272   1.000000
    392        -17.039631   1.000000
    393        -17.039627   1.000000
    394        -17.039626   1.000000
    395        -17.039625   1.000000
    396        -17.039625   1.000000
    397        -17.039623   1.000000
    398        -17.039620   1.000000
    399        -17.039617   1.000000
    400        -17.039616   1.000000
    401        -17.039616   1.000000
    402        -17.039615   1.000000
    403        -17.039611   1.000000
    404        -17.033204   1.000000
    405        -17.033203   1.000000
    406        -17.033200   1.000000
    407        -17.033199   1.000000
    408        -17.033198   1.000000
    409        -17.033197   1.000000
    410        -17.033194   1.000000
    411        -17.033193   1.000000
    412        -17.033192   1.000000
    413        -17.033191   1.000000
    414        -17.033187   1.000000
    415        -17.033185   1.000000
    416        -17.001970   1.000000
    417        -17.001970   1.000000
    418        -17.001969   1.000000
    419        -17.001969   1.000000
    420        -17.001968   1.000000
    421        -17.001968   1.000000
    422        -17.001965   1.000000
    423        -17.001964   1.000000
    424        -17.001963   1.000000
    425        -17.001962   1.000000
    426        -17.001959   1.000000
    427        -17.001959   1.000000
    428        -17.001958   1.000000
    429        -17.001958   1.000000
    430        -17.001957   1.000000
    431        -17.001957   1.000000
    432        -16.992321   1.000000
    433        -16.992321   1.000000
    434        -16.992319   1.000000
    435        -16.992318   1.000000
    436        -16.992316   1.000000
    437        -16.992315   1.000000
    438        -16.992313   1.000000
    439        -16.992313   1.000000
    440        -16.992312   1.000000
    441        -16.992311   1.000000
    442        -16.992309   1.000000
    443        -16.992309   1.000000
    444        -16.992308   1.000000
    445        -16.992306   1.000000
    446        -16.992305   1.000000
    447        -16.992304   1.000000
    448        -16.992303   1.000000
    449        -16.992303   1.000000
    450        -16.992301   1.000000
    451        -16.992301   1.000000
    452        -16.992299   1.000000
    453        -16.992299   1.000000
    454        -16.992296   1.000000
    455        -16.992295   1.000000
    456        -16.981629   1.000000
    457        -16.981628   1.000000
    458        -16.981627   1.000000
    459        -16.981626   1.000000
    460        -16.981625   1.000000
    461        -16.981624   1.000000
    462        -16.981623   1.000000
    463        -16.981622   1.000000
    464        -16.981622   1.000000
    465        -16.981620   1.000000
    466        -16.981619   1.000000
    467        -16.981617   1.000000
    468        -16.981617   1.000000
    469        -16.981616   1.000000
    470        -16.981616   1.000000
    471        -16.981615   1.000000
    472        -16.981614   1.000000
    473        -16.981613   1.000000
    474        -16.981612   1.000000
    475        -16.981610   1.000000
    476        -16.981609   1.000000
    477        -16.981607   1.000000
    478        -16.981605   1.000000
    479        -16.981603   1.000000
    480        -16.972068   1.000000
    481        -16.972066   1.000000
    482        -16.972063   1.000000
    483        -16.972062   1.000000
    484        -16.972059   1.000000
    485        -16.972056   1.000000
    486        -16.972055   1.000000
    487        -16.972053   1.000000
    488        -16.972052   1.000000
    489        -16.972050   1.000000
    490        -16.972048   1.000000
    491        -16.972045   1.000000
    492        -16.879835   1.000000
    493        -16.879835   1.000000
    494        -16.879835   1.000000
    495        -16.879835   1.000000
    496        -16.879834   1.000000
    497        -16.879834   1.000000
    498        -16.875119   1.000000
    499        -16.875118   1.000000
    500        -16.875115   1.000000
    501        -16.875115   1.000000
    502        -16.875112   1.000000
    503        -16.875111   1.000000
    504        -16.875110   1.000000
    505        -16.875110   1.000000
    506        -16.875108   1.000000
    507        -16.875107   1.000000
    508        -16.875107   1.000000
    509        -16.875105   1.000000
    510        -16.868703   1.000000
    511        -16.868702   1.000000
    512        -16.868701   1.000000
    513          3.663645   1.000000
    514          4.693082   1.000000
    515          4.693091   1.000000
    516          4.693094   1.000000
    517          4.693103   1.000000
    518          4.693108   1.000000
    519          4.693117   1.000000
    520          5.429013   1.000000
    521          5.429018   1.000000
    522          5.429020   1.000000
    523          5.429023   1.000000
    524          5.429029   1.000000
    525          5.429030   1.000000
    526          5.429034   1.000000
    527          5.429038   1.000000
    528          5.429039   1.000000
    529          5.429042   1.000000
    530          5.429046   1.000000
    531          5.429058   1.000000
    532          6.187478   1.000000
    533          6.187478   1.000000
    534          6.187478   1.000000
    535          6.187478   1.000000
    536          6.187478   1.000000
    537          6.187478   1.000000
    538          6.271332   1.000000
    539          6.271333   1.000000
    540          6.271343   1.000000
    541          6.271345   1.000000
    542          6.271347   1.000000
    543          6.271348   1.000000
    544          6.271358   1.000000
    545          6.271358   1.000000
    546          6.383022   1.000000
    547          6.383023   1.000000
    548          6.623880   1.000000
    549          6.623881   1.000000
    550          6.623882   1.000000
    551          6.623885   1.000000
    552          6.623886   1.000000
    553          6.623888   1.000000
    554          6.623889   1.000000
    555          6.623891   1.000000
    556          6.623891   1.000000
    557          6.623893   1.000000
    558          6.623893   1.000000
    559          6.623894   1.000000
    560          6.623895   1.000000
    561          6.623897   1.000000
    562          6.623898   1.000000
    563          6.623899   1.000000
    564          6.623900   1.000000
    565          6.623901   1.000000
    566          6.623902   1.000000
    567          6.623905   1.000000
    568          6.623905   1.000000
    569          6.623906   1.000000
    570          6.623908   1.000000
    571          6.623911   1.000000
    572          6.802886   1.000000
    573          6.802886   1.000000
    574          6.802886   1.000000
    575          6.802887   1.000000
    576          6.802887   1.000000
    577          6.802887   1.000000
    578          6.988914   1.000000
    579          6.988922   1.000000
    580          6.988923   1.000000
    581          6.988928   1.000000
    582          6.988932   1.000000
    583          6.988935   1.000000
    584          7.070554   1.000000
    585          7.070560   1.000000
    586          7.070562   1.000000
    587          7.070566   1.000000
    588          7.070570   1.000000
    589          7.070573   1.000000
    590          7.142098   1.000000
    591          7.142100   1.000000
    592          7.142103   1.000000
    593          7.142105   1.000000
    594          7.142106   1.000000
    595          7.142107   1.000000
    596          7.142109   1.000000
    597          7.142111   1.000000
    598          7.142114   1.000000
    599          7.142115   1.000000
    600          7.142116   1.000000
    601          7.142121   1.000000
    602          7.197165   1.000000
    603          7.197166   1.000000
    604          7.197168   1.000000
    605          7.197172   1.000000
    606          7.197175   1.000000
    607          7.197175   1.000000
    608          7.197176   1.000000
    609          7.197176   1.000000
    610          7.197178   1.000000
    611          7.197182   1.000000
    612          7.197184   1.000000
    613          7.197186   1.000000
    614          7.247784   1.000000
    615          7.247785   1.000000
    616          7.247787   1.000000
    617          7.247788   1.000000
    618          7.247788   1.000000
    619          7.247789   1.000000
    620          7.247790   1.000000
    621          7.247790   1.000000
    622          7.247792   1.000000
    623          7.247793   1.000000
    624          7.247793   1.000000
    625          7.247794   1.000000
    626          7.247794   1.000000
    627          7.247796   1.000000
    628          7.247796   1.000000
    629          7.247797   1.000000
    630          7.247798   1.000000
    631          7.247800   1.000000
    632          7.247801   1.000000
    633          7.247801   1.000000
    634          7.247803   1.000000
    635          7.247804   1.000000
    636          7.247808   1.000000
    637          7.247809   1.000000
    638          7.923471   1.000000
    639          7.923474   1.000000
    640          7.923477   1.000000
    641          7.923479   1.000000
    642          7.923481   1.000000
    643          7.923483   1.000000
    644          7.923484   1.000000
    645          7.923488   1.000000
    646          7.923491   1.000000
    647          7.923492   1.000000
    648          7.923493   1.000000
    649          7.923499   1.000000
    650          8.092860   1.000000
    651          8.092861   1.000000
    652          8.092861   1.000000
    653          8.092862   1.000000
    654          8.092869   1.000000
    655          8.092870   1.000000
    656          8.092870   1.000000
    657          8.092872   1.000000
    658          8.092872   1.000000
    659          8.092873   1.000000
    660          8.092873   1.000000
    661          8.092874   1.000000
    662          8.092881   1.000000
    663          8.092882   1.000000
    664          8.092882   1.000000
    665          8.092883   1.000000
    666          8.200956   1.000000
    667          8.200957   1.000000
    668          8.200960   1.000000
    669          8.200961   1.000000
    670          8.200963   1.000000
    671          8.200963   1.000000
    672          8.200967   1.000000
    673          8.200967   1.000000
    674          8.200968   1.000000
    675          8.200969   1.000000
    676          8.200972   1.000000
    677          8.200974   1.000000
    678          8.321269   1.000002
    679          8.321269   1.000002
    680          8.321269   1.000002
    681          8.321269   1.000002
    682          8.321270   1.000002
    683          8.321270   1.000002
    684          8.338388   1.000004
    685          8.338389   1.000004
    686          8.338391   1.000004
    687          8.338392   1.000004
    688          8.338394   1.000004
    689          8.338395   1.000004
    690          8.338396   1.000004
    691          8.338396   1.000004
    692          8.338398   1.000004
    693          8.338398   1.000004
    694          8.338399   1.000004
    695          8.338399   1.000004
    696          8.338400   1.000004
    697          8.338401   1.000004
    698          8.338401   1.000004
    699          8.338404   1.000004
    700          8.338404   1.000004
    701          8.338404   1.000004
    702          8.338406   1.000004
    703          8.338407   1.000004
    704          8.338409   1.000004
    705          8.338409   1.000004
    706          8.338410   1.000004
    707          8.338413   1.000004
    708          8.487512   1.000327
    709          8.487512   1.000327
    710          8.487512   1.000327
    711          8.487513   1.000327
    712          8.487513   1.000327
    713          8.487513   1.000327
    714          8.487514   1.000327
    715          8.487514   1.000327
    716          8.503927   1.000492
    717          8.503927   1.000492
    718          8.503927   1.000492
    719          8.503927   1.000492
    720          8.503927   1.000492
    721          8.503927   1.000492
    722          8.723783   1.023820
    723          8.723783   1.023820
    724          8.723783   1.023820
    725          8.723783   1.023820
    726          8.723783   1.023820
    727          8.723783   1.023820
    728          8.728225   1.024848
    729          8.728225   1.024848
    730          8.728225   1.024848
    731          8.728225   1.024848
    732          8.728226   1.024848
    733          8.728227   1.024848
    734          8.728228   1.024848
    735          8.728228   1.024848
    736          8.728233   1.024850
    737          8.728234   1.024850
    738          8.728234   1.024850
    739          8.728235   1.024850
    740          8.728236   1.024850
    741          8.728236   1.024850
    742          8.728236   1.024850
    743          8.728236   1.024850
    744          9.070848   0.373313
    745          9.070849   0.373310
    746          9.070850   0.373306
    747          9.070852   0.373297
    748          9.070855   0.373287
    749          9.070855   0.373284
    750          9.070857   0.373278
    751          9.070857   0.373275
    752          9.070859   0.373267
    753          9.070860   0.373264
    754          9.070862   0.373258
    755          9.070863   0.373253
    756          9.070864   0.373250
    757          9.070865   0.373245
    758          9.070866   0.373241
    759          9.070868   0.373231
    760          9.070869   0.373228
    761          9.070870   0.373224
    762          9.070871   0.373221
    763          9.070872   0.373214
    764          9.070874   0.373209
    765          9.070874   0.373208
    766          9.070877   0.373194
    767          9.070879   0.373189
    768          9.085221   0.316012
    769          9.085222   0.316007
    770          9.085225   0.315997
    771          9.085225   0.315997
    772          9.085226   0.315993
    773          9.085226   0.315992
    774          9.085227   0.315989
    775          9.085227   0.315988
    776          9.085228   0.315985
    777          9.085229   0.315982
    778          9.085230   0.315975
    779          9.085231   0.315973
    780          9.085233   0.315965
    781          9.085234   0.315962
    782          9.085235   0.315958
    783          9.085235   0.315956
    784          9.085236   0.315955
    785          9.085236   0.315953
    786          9.085239   0.315943
    787          9.085239   0.315943
    788          9.085239   0.315942
    789          9.085240   0.315940
    790          9.085242   0.315930
    791          9.085243   0.315926
    792          9.118660   0.195696
    793          9.118662   0.195691
    794          9.118662   0.195688
    795          9.118663   0.195685
    796          9.118665   0.195679
    797          9.118666   0.195678
    798          9.118667   0.195673
    799          9.118667   0.195672
    800          9.118668   0.195670
    801          9.118669   0.195668
    802          9.118670   0.195664
    803          9.118671   0.195660
    804          9.118672   0.195657
    805          9.118673   0.195655
    806          9.118673   0.195654
    807          9.118674   0.195652
    808          9.118675   0.195647
    809          9.118676   0.195645
    810          9.118678   0.195639
    811          9.118678   0.195637
    812          9.118680   0.195632
    813          9.118681   0.195629
    814          9.118681   0.195628
    815          9.118682   0.195624
    816          9.122824   0.182305
    817          9.122825   0.182302
    818          9.122826   0.182298
    819          9.122826   0.182296
    820          9.122828   0.182291
    821          9.122829   0.182287
    822          9.122831   0.182283
    823          9.122831   0.182281
    824          9.122833   0.182276
    825          9.122833   0.182276
    826          9.122835   0.182268
    827          9.122836   0.182265
    828          9.466491  -0.005140
    829          9.466491  -0.005140
    830          9.466491  -0.005140
    831          9.466492  -0.005140
    832          9.466492  -0.005140
    833          9.466494  -0.005140
    834          9.466494  -0.005139
    835          9.466494  -0.005139
    836          9.466495  -0.005139
    837          9.466495  -0.005139
    838          9.466496  -0.005139
    839          9.466497  -0.005139
    840          9.700738  -0.000016
    841          9.700739  -0.000016
    842          9.700742  -0.000016
    843          9.700742  -0.000016
    844          9.700744  -0.000016
    845          9.700745  -0.000016
    846          9.700748  -0.000016
    847          9.700749  -0.000016
    848          9.700750  -0.000016
    849          9.700751  -0.000016
    850          9.700754  -0.000016
    851          9.700756  -0.000016
    852         10.074233  -0.000000
    853         10.074234  -0.000000
    854         10.074237  -0.000000
    855         10.074238  -0.000000
    856         10.074241  -0.000000
    857         10.074244  -0.000000
    858         10.074244  -0.000000
    859         10.074247  -0.000000
    860         10.074248  -0.000000
    861         10.074249  -0.000000
    862         10.074250  -0.000000
    863         10.074254  -0.000000
    864         10.172189  -0.000000
    865         10.172190  -0.000000
    866         10.172192  -0.000000
    867         10.434242  -0.000000
    868         10.434244  -0.000000
    869         10.434245  -0.000000
    870         10.434246  -0.000000
    871         10.434247  -0.000000
    872         10.434247  -0.000000
    873         10.434249  -0.000000
    874         10.434250  -0.000000
    875         10.434251  -0.000000
    876         10.434251  -0.000000
    877         10.434254  -0.000000
    878         10.434255  -0.000000
    879         10.545233  -0.000000
    880         10.545233  -0.000000
    881         10.545234  -0.000000
    882         10.545234  -0.000000
    883         10.545234  -0.000000
    884         10.545234  -0.000000
    885         10.545234  -0.000000
    886         10.545234  -0.000000
    887         10.545234  -0.000000
    888         10.545234  -0.000000
    889         10.545235  -0.000000
    890         10.545235  -0.000000
    891         10.674990  -0.000000
    892         10.674992  -0.000000
    893         10.674997  -0.000000
    894         10.674998  -0.000000
    895         10.675003  -0.000000
    896         10.675005  -0.000000
    897         10.746610  -0.000000
    898         10.746610  -0.000000
    899         10.746611  -0.000000
    900         10.746611  -0.000000
    901         10.746611  -0.000000
    902         10.746611  -0.000000
    903         11.098620  -0.000000
    904         11.098621  -0.000000
    905         11.098621  -0.000000
    906         11.098622  -0.000000
    907         11.098623  -0.000000
    908         11.098623  -0.000000
    909         11.098624  -0.000000
    910         11.098624  -0.000000
    911         11.098625  -0.000000
    912         11.098626  -0.000000
    913         11.098627  -0.000000
    914         11.098627  -0.000000
    915         11.180113  -0.000000
    916         11.180116  -0.000000
    917         11.180118  -0.000000
    918         11.180121  -0.000000
    919         11.180122  -0.000000
    920         11.180125  -0.000000
    921         11.729838  -0.000000
    922         11.729839  -0.000000
    923         11.729840  -0.000000
    924         11.729843  -0.000000
 
  0.5000000E+00  0.1262379E-14  0.1262379E-14  0.3750000E+00
      1        -39.371458   1.000000
      2        -39.371322   1.000000
      3        -39.326643   1.000000
      4        -39.326632   1.000000
      5        -39.326628   1.000000
      6        -39.326624   1.000000
      7        -39.326500   1.000000
      8        -39.326492   1.000000
      9        -39.326486   1.000000
     10        -39.326479   1.000000
     11        -39.292543   1.000000
     12        -39.292542   1.000000
     13        -39.292535   1.000000
     14        -39.292533   1.000000
     15        -39.292407   1.000000
     16        -39.292406   1.000000
     17        -39.292399   1.000000
     18        -39.292397   1.000000
     19        -39.284963   1.000000
     20        -39.284962   1.000000
     21        -39.261967   1.000000
     22        -39.261967   1.000000
     23        -39.261964   1.000000
     24        -39.261964   1.000000
     25        -39.261961   1.000000
     26        -39.261959   1.000000
     27        -39.261954   1.000000
     28        -39.261953   1.000000
     29        -39.243785   1.000000
     30        -39.243782   1.000000
     31        -39.243782   1.000000
     32        -39.243780   1.000000
     33        -39.243776   1.000000
     34        -39.243774   1.000000
     35        -39.243773   1.000000
     36        -39.243771   1.000000
     37        -39.225439   1.000000
     38        -39.225438   1.000000
     39        -39.225438   1.000000
     40        -39.225438   1.000000
     41        -39.225302   1.000000
     42        -39.225302   1.000000
     43        -39.225302   1.000000
     44        -39.225301   1.000000
     45        -39.218799   1.000000
     46        -39.218796   1.000000
     47        -39.218789   1.000000
     48        -39.218785   1.000000
     49        -39.218783   1.000000
     50        -39.218783   1.000000
     51        -39.218780   1.000000
     52        -39.218775   1.000000
     53        -39.218657   1.000000
     54        -39.218655   1.000000
     55        -39.218648   1.000000
     56        -39.218647   1.000000
     57        -39.218641   1.000000
     58        -39.218640   1.000000
     59        -39.218635   1.000000
     60        -39.218631   1.000000
     61        -39.215952   1.000000
     62        -39.215952   1.000000
     63        -39.215951   1.000000
     64        -39.215951   1.000000
     65        -39.215816   1.000000
     66        -39.215816   1.000000
     67        -39.215816   1.000000
     68        -39.215815   1.000000
     69        -39.211921   1.000000
     70        -39.211921   1.000000
     71        -39.211785   1.000000
     72        -39.211785   1.000000
     73        -39.209300   1.000000
     74        -39.209297   1.000000
     75        -39.209290   1.000000
     76        -39.209287   1.000000
     77        -39.209285   1.000000
     78        -39.209284   1.000000
     79        -39.209282   1.000000
     80        -39.209276   1.000000
     81        -39.209159   1.000000
     82        -39.209157   1.000000
     83        -39.209150   1.000000
     84        -39.209148   1.000000
     85        -39.209143   1.000000
     86        -39.209142   1.000000
     87        -39.209136   1.000000
     88        -39.209133   1.000000
     89        -39.202757   1.000000
     90        -39.202757   1.000000
     91        -39.202622   1.000000
     92        -39.202621   1.000000
     93        -39.187873   1.000000
     94        -39.187870   1.000000
     95        -39.187869   1.000000
     96        -39.187868   1.000000
     97        -39.187864   1.000000
     98        -39.187862   1.000000
     99        -39.187861   1.000000
    100        -39.187858   1.000000
    101        -39.182968   1.000000
    102        -39.182968   1.000000
    103        -39.182965   1.000000
    104        -39.182964   1.000000
    105        -39.182962   1.000000
    106        -39.182960   1.000000
    107        -39.182955   1.000000
    108        -39.182953   1.000000
    109        -39.173274   1.000000
    110        -39.173273   1.000000
    111        -39.157705   1.000000
    112        -39.157704   1.000000
    113        -39.157698   1.000000
    114        -39.157695   1.000000
    115        -39.157570   1.000000
    116        -39.157568   1.000000
    117        -39.157561   1.000000
    118        -39.157560   1.000000
    119        -39.136014   1.000000
    120        -39.136004   1.000000
    121        -39.136000   1.000000
    122        -39.135996   1.000000
    123        -39.135873   1.000000
    124        -39.135865   1.000000
    125        -39.135859   1.000000
    126        -39.135852   1.000000
    127        -39.102561   1.000000
    128        -39.102426   1.000000
    129        -17.885725   1.000000
    130        -17.885725   1.000000
    131        -17.885586   1.000000
    132        -17.885586   1.000000
    133        -17.876364   1.000000
    134        -17.876363   1.000000
    135        -17.876362   1.000000
    136        -17.876362   1.000000
    137        -17.876227   1.000000
    138        -17.876227   1.000000
    139        -17.876226   1.000000
    140        -17.876226   1.000000
    141        -17.792975   1.000000
    142        -17.792973   1.000000
    143        -17.792972   1.000000
    144        -17.792971   1.000000
    145        -17.792970   1.000000
    146        -17.792969   1.000000
    147        -17.792967   1.000000
    148        -17.792966   1.000000
    149        -17.756778   1.000000
    150        -17.756777   1.000000
    151        -17.756774   1.000000
    152        -17.756773   1.000000
    153        -17.756772   1.000000
    154        -17.756771   1.000000
    155        -17.756768   1.000000
    156        -17.756766   1.000000
    157        -17.756655   1.000000
    158        -17.756654   1.000000
    159        -17.756650   1.000000
    160        -17.756649   1.000000
    161        -17.756648   1.000000
    162        -17.756647   1.000000
    163        -17.756642   1.000000
    164        -17.756641   1.000000
    165        -17.736240   1.000000
    166        -17.736239   1.000000
    167        -17.736229   1.000000
    168        -17.736229   1.000000
    169        -17.736226   1.000000
    170        -17.736226   1.000000
    171        -17.736223   1.000000
    172        -17.736221   1.000000
    173        -17.736108   1.000000
    174        -17.736108   1.000000
    175        -17.736101   1.000000
    176        -17.736100   1.000000
    177        -17.736094   1.000000
    178        -17.736094   1.000000
    179        -17.736088   1.000000
    180        -17.736087   1.000000
    181        -17.727740   1.000000
    182        -17.727739   1.000000
    183        -17.727739   1.000000
    184        -17.727739   1.000000
    185        -17.727602   1.000000
    186        -17.727601   1.000000
    187        -17.727601   1.000000
    188        -17.727600   1.000000
    189        -17.718730   1.000000
    190        -17.718728   1.000000
    191        -17.718728   1.000000
    192        -17.718727   1.000000
    193        -17.718724   1.000000
    194        -17.718722   1.000000
    195        -17.718722   1.000000
    196        -17.718720   1.000000
    197        -17.673482   1.000000
    198        -17.673481   1.000000
    199        -17.673481   1.000000
    200        -17.673480   1.000000
    201        -17.673477   1.000000
    202        -17.673477   1.000000
    203        -17.673477   1.000000
    204        -17.673474   1.000000
    205        -17.672565   1.000000
    206        -17.672562   1.000000
    207        -17.672561   1.000000
    208        -17.672557   1.000000
    209        -17.672523   1.000000
    210        -17.672522   1.000000
    211        -17.672520   1.000000
    212        -17.672518   1.000000
    213        -17.608934   1.000000
    214        -17.608933   1.000000
    215        -17.608932   1.000000
    216        -17.608930   1.000000
    217        -17.608930   1.000000
    218        -17.608929   1.000000
    219        -17.608927   1.000000
    220        -17.608925   1.000000
    221        -17.604096   1.000000
    222        -17.604096   1.000000
    223        -17.604096   1.000000
    224        -17.604096   1.000000
    225        -17.593773   1.000000
    226        -17.593641   1.000000
    227        -17.563740   1.000000
    228        -17.563739   1.000000
    229        -17.563739   1.000000
    230        -17.563739   1.000000
    231        -17.563682   1.000000
    232        -17.563682   1.000000
    233        -17.563682   1.000000
    234        -17.563681   1.000000
    235        -17.563455   1.000000
    236        -17.563455   1.000000
    237        -17.563317   1.000000
    238        -17.563317   1.000000
    239        -17.544874   1.000000
    240        -17.544874   1.000000
    241        -17.497793   1.000000
    242        -17.497792   1.000000
    243        -17.497786   1.000000
    244        -17.497784   1.000000
    245        -17.497727   1.000000
    246        -17.497726   1.000000
    247        -17.497720   1.000000
    248        -17.497719   1.000000
    249        -17.484948   1.000000
    250        -17.484948   1.000000
    251        -17.484947   1.000000
    252        -17.484947   1.000000
    253        -17.484947   1.000000
    254        -17.484947   1.000000
    255        -17.484947   1.000000
    256        -17.484947   1.000000
    257        -17.461727   1.000000
    258        -17.461726   1.000000
    259        -17.461725   1.000000
    260        -17.461725   1.000000
    261        -17.461624   1.000000
    262        -17.461624   1.000000
    263        -17.461623   1.000000
    264        -17.461622   1.000000
    265        -17.461188   1.000000
    266        -17.461184   1.000000
    267        -17.461182   1.000000
    268        -17.461179   1.000000
    269        -17.461050   1.000000
    270        -17.461046   1.000000
    271        -17.461044   1.000000
    272        -17.461041   1.000000
    273        -17.384916   1.000000
    274        -17.384910   1.000000
    275        -17.384905   1.000000
    276        -17.384902   1.000000
    277        -17.384875   1.000000
    278        -17.384871   1.000000
    279        -17.384864   1.000000
    280        -17.384860   1.000000
    281        -17.375120   1.000000
    282        -17.375119   1.000000
    283        -17.374985   1.000000
    284        -17.374985   1.000000
    285        -17.363226   1.000000
    286        -17.363226   1.000000
    287        -17.363226   1.000000
    288        -17.363226   1.000000
    289        -17.319203   1.000000
    290        -17.319200   1.000000
    291        -17.319199   1.000000
    292        -17.319198   1.000000
    293        -17.319198   1.000000
    294        -17.319196   1.000000
    295        -17.319196   1.000000
    296        -17.319193   1.000000
    297        -17.319110   1.000000
    298        -17.319108   1.000000
    299        -17.319107   1.000000
    300        -17.319106   1.000000
    301        -17.319105   1.000000
    302        -17.319105   1.000000
    303        -17.319104   1.000000
    304        -17.319100   1.000000
    305        -17.313076   1.000000
    306        -17.313074   1.000000
    307        -17.313073   1.000000
    308        -17.313071   1.000000
    309        -17.313070   1.000000
    310        -17.313068   1.000000
    311        -17.313067   1.000000
    312        -17.313066   1.000000
    313        -17.273782   1.000000
    314        -17.273782   1.000000
    315        -17.255623   1.000000
    316        -17.255621   1.000000
    317        -17.255616   1.000000
    318        -17.255612   1.000000
    319        -17.255611   1.000000
    320        -17.255610   1.000000
    321        -17.255609   1.000000
    322        -17.255604   1.000000
    323        -17.255533   1.000000
    324        -17.255531   1.000000
    325        -17.255526   1.000000
    326        -17.255525   1.000000
    327        -17.255520   1.000000
    328        -17.255519   1.000000
    329        -17.255514   1.000000
    330        -17.255512   1.000000
    331        -17.232518   1.000000
    332        -17.232518   1.000000
    333        -17.232386   1.000000
    334        -17.232385   1.000000
    335        -17.220463   1.000000
    336        -17.220462   1.000000
    337        -17.220462   1.000000
    338        -17.220462   1.000000
    339        -17.220326   1.000000
    340        -17.220325   1.000000
    341        -17.220325   1.000000
    342        -17.220325   1.000000
    343        -17.214072   1.000000
    344        -17.214069   1.000000
    345        -17.214069   1.000000
    346        -17.214066   1.000000
    347        -17.214033   1.000000
    348        -17.214032   1.000000
    349        -17.214030   1.000000
    350        -17.214028   1.000000
    351        -17.206054   1.000000
    352        -17.206054   1.000000
    353        -17.206054   1.000000
    354        -17.206053   1.000000
    355        -17.205917   1.000000
    356        -17.205917   1.000000
    357        -17.205917   1.000000
    358        -17.205917   1.000000
    359        -17.203061   1.000000
    360        -17.203061   1.000000
    361        -17.203060   1.000000
    362        -17.203060   1.000000
    363        -17.167310   1.000000
    364        -17.167309   1.000000
    365        -17.167307   1.000000
    366        -17.167306   1.000000
    367        -17.167239   1.000000
    368        -17.167239   1.000000
    369        -17.167237   1.000000
    370        -17.167236   1.000000
    371        -17.144752   1.000000
    372        -17.144751   1.000000
    373        -17.144751   1.000000
    374        -17.144751   1.000000
    375        -17.144751   1.000000
    376        -17.144751   1.000000
    377        -17.144751   1.000000
    378        -17.144750   1.000000
    379        -17.120563   1.000000
    380        -17.120562   1.000000
    381        -17.120562   1.000000
    382        -17.120562   1.000000
    383        -17.120509   1.000000
    384        -17.120509   1.000000
    385        -17.120509   1.000000
    386        -17.120508   1.000000
    387        -17.117209   1.000000
    388        -17.117207   1.000000
    389        -17.117206   1.000000
    390        -17.117204   1.000000
    391        -17.117203   1.000000
    392        -17.117201   1.000000
    393        -17.117200   1.000000
    394        -17.117199   1.000000
    395        -17.111305   1.000000
    396        -17.111304   1.000000
    397        -17.111303   1.000000
    398        -17.111302   1.000000
    399        -17.111301   1.000000
    400        -17.111300   1.000000
    401        -17.111299   1.000000
    402        -17.111298   1.000000
    403        -17.086739   1.000000
    404        -17.086739   1.000000
    405        -17.086739   1.000000
    406        -17.086738   1.000000
    407        -17.027193   1.000000
    408        -17.027192   1.000000
    409        -17.027186   1.000000
    410        -17.027184   1.000000
    411        -17.027095   1.000000
    412        -17.027094   1.000000
    413        -17.027088   1.000000
    414        -17.027086   1.000000
    415        -17.011041   1.000000
    416        -17.011041   1.000000
    417        -17.011037   1.000000
    418        -17.011037   1.000000
    419        -17.011036   1.000000
    420        -17.011035   1.000000
    421        -17.011033   1.000000
    422        -17.011031   1.000000
    423        -17.010937   1.000000
    424        -17.010936   1.000000
    425        -17.010932   1.000000
    426        -17.010931   1.000000
    427        -17.010931   1.000000
    428        -17.010930   1.000000
    429        -17.010926   1.000000
    430        -17.010925   1.000000
    431        -17.009092   1.000000
    432        -17.009091   1.000000
    433        -17.009091   1.000000
    434        -17.009090   1.000000
    435        -17.009088   1.000000
    436        -17.009088   1.000000
    437        -17.009087   1.000000
    438        -17.009086   1.000000
    439        -16.989191   1.000000
    440        -16.989188   1.000000
    441        -16.989186   1.000000
    442        -16.989183   1.000000
    443        -16.989055   1.000000
    444        -16.989051   1.000000
    445        -16.989050   1.000000
    446        -16.989047   1.000000
    447        -16.982734   1.000000
    448        -16.982733   1.000000
    449        -16.982732   1.000000
    450        -16.982732   1.000000
    451        -16.982730   1.000000
    452        -16.982728   1.000000
    453        -16.982728   1.000000
    454        -16.982727   1.000000
    455        -16.980737   1.000000
    456        -16.980735   1.000000
    457        -16.980727   1.000000
    458        -16.980726   1.000000
    459        -16.980724   1.000000
    460        -16.980723   1.000000
    461        -16.980721   1.000000
    462        -16.980719   1.000000
    463        -16.980629   1.000000
    464        -16.980629   1.000000
    465        -16.980624   1.000000
    466        -16.980622   1.000000
    467        -16.980617   1.000000
    468        -16.980617   1.000000
    469        -16.980611   1.000000
    470        -16.980610   1.000000
    471        -16.930292   1.000000
    472        -16.930159   1.000000
    473        -16.919436   1.000000
    474        -16.919436   1.000000
    475        -16.919301   1.000000
    476        -16.919301   1.000000
    477        -16.908532   1.000000
    478        -16.908532   1.000000
    479        -16.908531   1.000000
    480        -16.908530   1.000000
    481        -16.908398   1.000000
    482        -16.908397   1.000000
    483        -16.908396   1.000000
    484        -16.908396   1.000000
    485        -16.907836   1.000000
    486        -16.907835   1.000000
    487        -16.907835   1.000000
    488        -16.907835   1.000000
    489        -16.907701   1.000000
    490        -16.907700   1.000000
    491        -16.907700   1.000000
    492        -16.907699   1.000000
    493        -16.907483   1.000000
    494        -16.907481   1.000000
    495        -16.907480   1.000000
    496        -16.907480   1.000000
    497        -16.907479   1.000000
    498        -16.907477   1.000000
    499        -16.907477   1.000000
    500        -16.907476   1.000000
    501        -16.906731   1.000000
    502        -16.906726   1.000000
    503        -16.906721   1.000000
    504        -16.906719   1.000000
    505        -16.906690   1.000000
    506        -16.906688   1.000000
    507        -16.906680   1.000000
    508        -16.906676   1.000000
    509        -16.895773   1.000000
    510        -16.895772   1.000000
    511        -16.895637   1.000000
    512        -16.895637   1.000000
    513          3.934800   1.000000
    514          3.934947   1.000000
    515          4.899064   1.000000
    516          4.899079   1.000000
    517          4.899084   1.000000
    518          4.899089   1.000000
    519          4.899218   1.000000
    520          4.899227   1.000000
    521          4.899238   1.000000
    522          4.899245   1.000000
    523          5.667684   1.000000
    524          5.667686   1.000000
    525          5.667693   1.000000
    526          5.667698   1.000000
    527          5.667829   1.000000
    528          5.667830   1.000000
    529          5.667839   1.000000
    530          5.667842   1.000000
    531          5.758697   1.000000
    532          5.758699   1.000000
    533          6.065940   1.000000
    534          6.065941   1.000000
    535          6.065944   1.000000
    536          6.065944   1.000000
    537          6.065946   1.000000
    538          6.065947   1.000000
    539          6.065953   1.000000
    540          6.065954   1.000000
    541          6.316793   1.000000
    542          6.316794   1.000000
    543          6.316794   1.000000
    544          6.316794   1.000000
    545          6.316930   1.000000
    546          6.316930   1.000000
    547          6.316930   1.000000
    548          6.316931   1.000000
    549          6.463108   1.000000
    550          6.463108   1.000000
    551          6.463252   1.000000
    552          6.463252   1.000000
    553          6.535669   1.000000
    554          6.535814   1.000000
    555          6.593648   1.000000
    556          6.593786   1.000000
    557          6.818490   1.000000
    558          6.818490   1.000000
    559          6.818491   1.000000
    560          6.818491   1.000000
    561          6.818616   1.000000
    562          6.818617   1.000000
    563          6.818617   1.000000
    564          6.818618   1.000000
    565          6.847251   1.000000
    566          6.847253   1.000000
    567          6.847261   1.000000
    568          6.847263   1.000000
    569          6.847265   1.000000
    570          6.847267   1.000000
    571          6.847267   1.000000
    572          6.847273   1.000000
    573          6.847394   1.000000
    574          6.847397   1.000000
    575          6.847402   1.000000
    576          6.847404   1.000000
    577          6.847410   1.000000
    578          6.847411   1.000000
    579          6.847416   1.000000
    580          6.847418   1.000000
    581          6.875496   1.000000
    582          6.875497   1.000000
    583          6.875498   1.000000
    584          6.875498   1.000000
    585          6.875506   1.000000
    586          6.875506   1.000000
    587          6.875507   1.000000
    588          6.875508   1.000000
    589          7.018100   1.000000
    590          7.018101   1.000000
    591          7.018102   1.000000
    592          7.018104   1.000000
    593          7.018105   1.000000
    594          7.018107   1.000000
    595          7.018107   1.000000
    596          7.018108   1.000000
    597          7.068354   1.000000
    598          7.068360   1.000000
    599          7.068363   1.000000
    600          7.068367   1.000000
    601          7.068491   1.000000
    602          7.068497   1.000000
    603          7.068502   1.000000
    604          7.068505   1.000000
    605          7.257491   1.000000
    606          7.257497   1.000000
    607          7.257497   1.000000
    608          7.257499   1.000000
    609          7.257499   1.000000
    610          7.257502   1.000000
    611          7.257502   1.000000
    612          7.257507   1.000000
    613          7.257606   1.000000
    614          7.257611   1.000000
    615          7.257613   1.000000
    616          7.257613   1.000000
    617          7.257616   1.000000
    618          7.257616   1.000000
    619          7.257618   1.000000
    620          7.257622   1.000000
    621          7.293517   1.000000
    622          7.293524   1.000000
    623          7.293526   1.000000
    624          7.293530   1.000000
    625          7.293660   1.000000
    626          7.293666   1.000000
    627          7.293671   1.000000
    628          7.293674   1.000000
    629          7.313109   1.000000
    630          7.313109   1.000000
    631          7.415004   1.000000
    632          7.415005   1.000000
    633          7.415011   1.000000
    634          7.415015   1.000000
    635          7.415145   1.000000
    636          7.415147   1.000000
    637          7.415153   1.000000
    638          7.415156   1.000000
    639          7.692152   1.000000
    640          7.692152   1.000000
    641          7.692153   1.000000
    642          7.692154   1.000000
    643          7.692157   1.000000
    644          7.692157   1.000000
    645          7.692158   1.000000
    646          7.692159   1.000000
    647          7.728350   1.000000
    648          7.728351   1.000000
    649          7.972188   1.000000
    650          7.972190   1.000000
    651          7.972197   1.000000
    652          7.972200   1.000000
    653          7.972327   1.000000
    654          7.972329   1.000000
    655          7.972337   1.000000
    656          7.972339   1.000000
    657          8.074470   1.000000
    658          8.074471   1.000000
    659          8.074595   1.000000
    660          8.074596   1.000000
    661          8.223914   1.000000
    662          8.223915   1.000000
    663          8.223916   1.000000
    664          8.223916   1.000000
    665          8.223922   1.000000
    666          8.223923   1.000000
    667          8.223923   1.000000
    668          8.223923   1.000000
    669          8.244474   1.000000
    670          8.244474   1.000000
    671          8.244474   1.000000
    672          8.244474   1.000000
    673          8.273109   1.000000
    674          8.273109   1.000000
    675          8.273235   1.000000
    676          8.273235   1.000000
    677          8.304029   1.000001
    678          8.304031   1.000001
    679          8.304035   1.000001
    680          8.304036   1.000001
    681          8.304037   1.000001
    682          8.304037   1.000001
    683          8.304039   1.000001
    684          8.304040   1.000001
    685          8.304143   1.000001
    686          8.304144   1.000001
    687          8.304148   1.000001
    688          8.304149   1.000001
    689          8.304151   1.000001
    690          8.304151   1.000001
    691          8.304157   1.000001
    692          8.304157   1.000001
    693          8.489386   1.000343
    694          8.489387   1.000343
    695          8.489387   1.000343
    696          8.489387   1.000343
    697          8.489390   1.000343
    698          8.489391   1.000343
    699          8.489391   1.000343
    700          8.489392   1.000343
    701          8.513785   1.000624
    702          8.513785   1.000624
    703          8.513786   1.000624
    704          8.513787   1.000624
    705          8.513928   1.000626
    706          8.513928   1.000626
    707          8.513929   1.000626
    708          8.513930   1.000626
    709          8.607639   1.004536
    710          8.607640   1.004536
    711          8.607643   1.004536
    712          8.607644   1.004536
    713          8.607651   1.004537
    714          8.607653   1.004537
    715          8.607657   1.004537
    716          8.607659   1.004537
    717          8.607664   1.004538
    718          8.607665   1.004538
    719          8.607669   1.004538
    720          8.607671   1.004538
    721          8.607676   1.004539
    722          8.607678   1.004539
    723          8.607679   1.004539
    724          8.607681   1.004539
    725          8.608379   1.004597
    726          8.608379   1.004597
    727          8.608382   1.004598
    728          8.608383   1.004598
    729          8.608384   1.004598
    730          8.608386   1.004598
    731          8.608388   1.004598
    732          8.608390   1.004598
    733          8.665754   1.011758
    734          8.665755   1.011759
    735          8.665755   1.011759
    736          8.665756   1.011759
    737          8.665866   1.011777
    738          8.665867   1.011778
    739          8.665867   1.011778
    740          8.665868   1.011778
    741          8.729388   1.025116
    742          8.729390   1.025117
    743          8.729392   1.025117
    744          8.729392   1.025117
    745          8.729393   1.025117
    746          8.729394   1.025118
    747          8.729395   1.025118
    748          8.729396   1.025118
    749          8.924950   0.909840
    750          8.924952   0.909835
    751          8.924953   0.909833
    752          8.924954   0.909829
    753          8.924955   0.909827
    754          8.924956   0.909825
    755          8.924957   0.909822
    756          8.924958   0.909820
    757          8.928678   0.900882
    758          8.928679   0.900879
    759          8.928680   0.900876
    760          8.928682   0.900873
    761          8.928682   0.900872
    762          8.928683   0.900869
    763          8.928684   0.900868
    764          8.928687   0.900861
    765          8.996153   0.682727
    766          8.996154   0.682723
    767          8.996156   0.682716
    768          8.996156   0.682714
    769          8.996273   0.682261
    770          8.996273   0.682258
    771          8.996275   0.682250
    772          8.996276   0.682249
    773          9.006843   0.640302
    774          9.006843   0.640302
    775          9.006844   0.640301
    776          9.006844   0.640301
    777          9.158193   0.085286
    778          9.158194   0.085284
    779          9.158195   0.085282
    780          9.158195   0.085282
    781          9.158300   0.085040
    782          9.158301   0.085038
    783          9.158302   0.085036
    784          9.158302   0.085035
    785          9.283347  -0.035440
    786          9.283349  -0.035440
    787          9.283350  -0.035440
    788          9.283351  -0.035440
    789          9.283368  -0.035441
    790          9.283369  -0.035441
    791          9.283370  -0.035441
    792          9.283371  -0.035441
    793          9.283390  -0.035441
    794          9.283391  -0.035441
    795          9.283391  -0.035441
    796          9.283393  -0.035441
    797          9.283406  -0.035441
    798          9.283407  -0.035441
    799          9.283408  -0.035441
    800          9.283409  -0.035441
    801          9.326626  -0.030605
    802          9.326627  -0.030605
    803          9.326629  -0.030605
    804          9.326630  -0.030604
    805          9.326630  -0.030604
    806          9.326631  -0.030604
    807          9.326634  -0.030604
    808          9.326635  -0.030603
    809          9.326746  -0.030581
    810          9.326747  -0.030581
    811          9.326750  -0.030580
    812          9.326751  -0.030580
    813          9.326751  -0.030580
    814          9.326752  -0.030580
    815          9.326756  -0.030579
    816          9.326757  -0.030579
    817          9.353847  -0.024611
    818          9.353847  -0.024611
    819          9.353849  -0.024611
    820          9.353849  -0.024611
    821          9.353849  -0.024611
    822          9.353850  -0.024611
    823          9.353852  -0.024610
    824          9.353852  -0.024610
    825          9.462450  -0.005521
    826          9.462451  -0.005521
    827          9.462452  -0.005521
    828          9.462453  -0.005521
    829          9.462485  -0.005518
    830          9.462486  -0.005518
    831          9.462487  -0.005518
    832          9.462488  -0.005518
    833          9.581297  -0.000444
    834          9.581298  -0.000444
    835          9.581299  -0.000444
    836          9.581300  -0.000444
    837          9.581302  -0.000444
    838          9.581302  -0.000444
    839          9.581304  -0.000444
    840          9.581305  -0.000444
    841          9.599535  -0.000280
    842          9.599542  -0.000280
    843          9.599543  -0.000280
    844          9.599545  -0.000280
    845          9.599587  -0.000280
    846          9.599590  -0.000280
    847          9.599595  -0.000280
    848          9.599599  -0.000280
    849          9.773962  -0.000001
    850          9.773964  -0.000001
    851          9.773964  -0.000001
    852          9.773966  -0.000001
    853          9.774038  -0.000001
    854          9.774039  -0.000001
    855          9.774040  -0.000001
    856          9.774043  -0.000001
    857          9.904732  -0.000000
    858          9.904732  -0.000000
    859          9.904733  -0.000000
    860          9.904733  -0.000000
    861          9.904804  -0.000000
    862          9.904805  -0.000000
    863          9.904805  -0.000000
    864          9.904805  -0.000000
    865          9.915184  -0.000000
    866          9.915184  -0.000000
    867         10.115653  -0.000000
    868         10.115654  -0.000000
    869         10.115654  -0.000000
    870         10.115656  -0.000000
    871         10.115747  -0.000000
    872         10.115749  -0.000000
    873         10.115749  -0.000000
    874         10.115750  -0.000000
    875         10.127055  -0.000000
    876         10.127055  -0.000000
    877         10.127183  -0.000000
    878         10.127183  -0.000000
    879         10.170777  -0.000000
    880         10.170777  -0.000000
    881         10.170778  -0.000000
    882         10.170778  -0.000000
    883         10.299389  -0.000000
    884         10.299533  -0.000000
    885         10.408490  -0.000000
    886         10.408490  -0.000000
    887         10.408607  -0.000000
    888         10.408607  -0.000000
    889         10.956735  -0.000000
    890         10.956735  -0.000000
    891         10.956735  -0.000000
    892         10.956735  -0.000000
    893         10.956813  -0.000000
    894         10.956813  -0.000000
    895         10.956813  -0.000000
    896         10.956813  -0.000000
    897         11.202551  -0.000000
    898         11.202551  -0.000000
    899         11.202552  -0.000000
    900         11.202552  -0.000000
    901         11.202552  -0.000000
    902         11.202553  -0.000000
    903         11.202553  -0.000000
    904         11.202554  -0.000000
    905         11.264993  -0.000000
    906         11.264994  -0.000000
    907         11.264994  -0.000000
    908         11.264994  -0.000000
    909         11.279695  -0.000000
    910         11.279696  -0.000000
    911         11.284765  -0.000000
    912         11.284766  -0.000000
    913         11.284769  -0.000000
    914         11.284772  -0.000000
    915         11.284804  -0.000000
    916         11.284806  -0.000000
    917         11.284808  -0.000000
    918         11.284812  -0.000000
    919         11.534587  -0.000000
    920         11.534590  -0.000000
    921         11.534605  -0.000000
    922         11.534620  -0.000000
    923         11.534655  -0.000000
    924         11.534658  -0.000000
 
  0.5000000E+00  0.5000000E+00  0.1262379E-14  0.3750000E+00
      1        -39.359812   1.000000
      2        -39.359739   1.000000
      3        -39.359670   1.000000
      4        -39.359608   1.000000
      5        -39.317609   1.000000
      6        -39.317602   1.000000
      7        -39.317538   1.000000
      8        -39.317528   1.000000
      9        -39.317469   1.000000
     10        -39.317459   1.000000
     11        -39.317405   1.000000
     12        -39.317398   1.000000
     13        -39.278753   1.000000
     14        -39.278752   1.000000
     15        -39.278718   1.000000
     16        -39.278717   1.000000
     17        -39.278652   1.000000
     18        -39.278650   1.000000
     19        -39.278616   1.000000
     20        -39.278614   1.000000
     21        -39.257044   1.000000
     22        -39.257041   1.000000
     23        -39.257035   1.000000
     24        -39.257033   1.000000
     25        -39.257008   1.000000
     26        -39.257007   1.000000
     27        -39.257000   1.000000
     28        -39.256997   1.000000
     29        -39.256942   1.000000
     30        -39.256939   1.000000
     31        -39.256932   1.000000
     32        -39.256932   1.000000
     33        -39.256906   1.000000
     34        -39.256904   1.000000
     35        -39.256897   1.000000
     36        -39.256896   1.000000
     37        -39.239141   1.000000
     38        -39.239134   1.000000
     39        -39.239132   1.000000
     40        -39.239125   1.000000
     41        -39.226387   1.000000
     42        -39.226382   1.000000
     43        -39.226381   1.000000
     44        -39.226380   1.000000
     45        -39.226374   1.000000
     46        -39.226373   1.000000
     47        -39.226371   1.000000
     48        -39.226363   1.000000
     49        -39.223632   1.000000
     50        -39.223632   1.000000
     51        -39.223560   1.000000
     52        -39.223559   1.000000
     53        -39.223491   1.000000
     54        -39.223490   1.000000
     55        -39.223429   1.000000
     56        -39.223428   1.000000
     57        -39.213950   1.000000
     58        -39.213949   1.000000
     59        -39.213946   1.000000
     60        -39.213946   1.000000
     61        -39.213879   1.000000
     62        -39.213877   1.000000
     63        -39.213875   1.000000
     64        -39.213871   1.000000
     65        -39.213811   1.000000
     66        -39.213809   1.000000
     67        -39.213803   1.000000
     68        -39.213802   1.000000
     69        -39.213748   1.000000
     70        -39.213745   1.000000
     71        -39.213742   1.000000
     72        -39.213741   1.000000
     73        -39.204671   1.000000
     74        -39.204670   1.000000
     75        -39.204598   1.000000
     76        -39.204598   1.000000
     77        -39.204530   1.000000
     78        -39.204529   1.000000
     79        -39.204468   1.000000
     80        -39.204467   1.000000
     81        -39.196413   1.000000
     82        -39.196406   1.000000
     83        -39.196404   1.000000
     84        -39.196397   1.000000
     85        -39.196060   1.000000
     86        -39.196055   1.000000
     87        -39.196054   1.000000
     88        -39.196053   1.000000
     89        -39.196048   1.000000
     90        -39.196047   1.000000
     91        -39.196044   1.000000
     92        -39.196036   1.000000
     93        -39.184082   1.000000
     94        -39.184079   1.000000
     95        -39.184073   1.000000
     96        -39.184072   1.000000
     97        -39.184046   1.000000
     98        -39.184046   1.000000
     99        -39.184039   1.000000
    100        -39.184036   1.000000
    101        -39.183981   1.000000
    102        -39.183978   1.000000
    103        -39.183971   1.000000
    104        -39.183971   1.000000
    105        -39.183945   1.000000
    106        -39.183943   1.000000
    107        -39.183936   1.000000
    108        -39.183935   1.000000
    109        -39.175601   1.000000
    110        -39.175600   1.000000
    111        -39.175566   1.000000
    112        -39.175565   1.000000
    113        -39.175500   1.000000
    114        -39.175498   1.000000
    115        -39.175464   1.000000
    116        -39.175463   1.000000
    117        -39.141486   1.000000
    118        -39.141479   1.000000
    119        -39.141415   1.000000
    120        -39.141406   1.000000
    121        -39.141346   1.000000
    122        -39.141337   1.000000
    123        -39.141283   1.000000
    124        -39.141276   1.000000
    125        -39.111116   1.000000
    126        -39.111044   1.000000
    127        -39.110976   1.000000
    128        -39.110914   1.000000
    129        -17.877982   1.000000
    130        -17.877977   1.000000
    131        -17.877975   1.000000
    132        -17.877966   1.000000
    133        -17.844031   1.000000
    134        -17.844030   1.000000
    135        -17.844028   1.000000
    136        -17.844027   1.000000
    137        -17.843960   1.000000
    138        -17.843958   1.000000
    139        -17.843956   1.000000
    140        -17.843954   1.000000
    141        -17.843891   1.000000
    142        -17.843890   1.000000
    143        -17.843886   1.000000
    144        -17.843885   1.000000
    145        -17.843828   1.000000
    146        -17.843827   1.000000
    147        -17.843825   1.000000
    148        -17.843824   1.000000
    149        -17.779791   1.000000
    150        -17.779782   1.000000
    151        -17.779781   1.000000
    152        -17.779775   1.000000
    153        -17.767698   1.000000
    154        -17.767696   1.000000
    155        -17.767695   1.000000
    156        -17.767694   1.000000
    157        -17.767664   1.000000
    158        -17.767663   1.000000
    159        -17.767662   1.000000
    160        -17.767659   1.000000
    161        -17.767600   1.000000
    162        -17.767597   1.000000
    163        -17.767595   1.000000
    164        -17.767594   1.000000
    165        -17.767565   1.000000
    166        -17.767564   1.000000
    167        -17.767563   1.000000
    168        -17.767562   1.000000
    169        -17.731627   1.000000
    170        -17.731625   1.000000
    171        -17.731620   1.000000
    172        -17.731618   1.000000
    173        -17.731578   1.000000
    174        -17.731573   1.000000
    175        -17.731569   1.000000
    176        -17.731561   1.000000
    177        -17.731454   1.000000
    178        -17.731453   1.000000
    179        -17.731447   1.000000
    180        -17.731444   1.000000
    181        -17.731411   1.000000
    182        -17.731408   1.000000
    183        -17.731404   1.000000
    184        -17.731402   1.000000
    185        -17.674984   1.000000
    186        -17.674983   1.000000
    187        -17.674937   1.000000
    188        -17.674934   1.000000
    189        -17.674890   1.000000
    190        -17.674887   1.000000
    191        -17.674845   1.000000
    192        -17.674844   1.000000
    193        -17.652890   1.000000
    194        -17.652890   1.000000
    195        -17.652875   1.000000
    196        -17.652874   1.000000
    197        -17.652850   1.000000
    198        -17.652849   1.000000
    199        -17.652834   1.000000
    200        -17.652834   1.000000
    201        -17.651204   1.000000
    202        -17.651204   1.000000
    203        -17.651168   1.000000
    204        -17.651168   1.000000
    205        -17.651132   1.000000
    206        -17.651131   1.000000
    207        -17.651097   1.000000
    208        -17.651096   1.000000
    209        -17.642143   1.000000
    210        -17.642138   1.000000
    211        -17.642136   1.000000
    212        -17.642128   1.000000
    213        -17.625366   1.000000
    214        -17.625364   1.000000
    215        -17.625363   1.000000
    216        -17.625362   1.000000
    217        -17.625336   1.000000
    218        -17.625334   1.000000
    219        -17.625332   1.000000
    220        -17.625331   1.000000
    221        -17.625278   1.000000
    222        -17.625277   1.000000
    223        -17.625275   1.000000
    224        -17.625273   1.000000
    225        -17.625248   1.000000
    226        -17.625247   1.000000
    227        -17.625245   1.000000
    228        -17.625244   1.000000
    229        -17.616688   1.000000
    230        -17.616688   1.000000
    231        -17.616641   1.000000
    232        -17.616641   1.000000
    233        -17.616595   1.000000
    234        -17.616594   1.000000
    235        -17.616552   1.000000
    236        -17.616550   1.000000
    237        -17.536656   1.000000
    238        -17.536582   1.000000
    239        -17.536512   1.000000
    240        -17.536449   1.000000
    241        -17.526738   1.000000
    242        -17.526734   1.000000
    243        -17.526732   1.000000
    244        -17.526732   1.000000
    245        -17.526725   1.000000
    246        -17.526725   1.000000
    247        -17.526723   1.000000
    248        -17.526713   1.000000
    249        -17.492608   1.000000
    250        -17.492600   1.000000
    251        -17.492598   1.000000
    252        -17.492592   1.000000
    253        -17.448275   1.000000
    254        -17.448273   1.000000
    255        -17.448271   1.000000
    256        -17.448271   1.000000
    257        -17.448268   1.000000
    258        -17.448267   1.000000
    259        -17.448266   1.000000
    260        -17.448262   1.000000
    261        -17.406976   1.000000
    262        -17.406975   1.000000
    263        -17.406961   1.000000
    264        -17.406960   1.000000
    265        -17.406937   1.000000
    266        -17.406935   1.000000
    267        -17.406921   1.000000
    268        -17.406921   1.000000
    269        -17.388816   1.000000
    270        -17.388815   1.000000
    271        -17.388810   1.000000
    272        -17.388809   1.000000
    273        -17.388797   1.000000
    274        -17.388796   1.000000
    275        -17.388791   1.000000
    276        -17.388790   1.000000
    277        -17.388761   1.000000
    278        -17.388759   1.000000
    279        -17.388754   1.000000
    280        -17.388753   1.000000
    281        -17.388741   1.000000
    282        -17.388739   1.000000
    283        -17.388735   1.000000
    284        -17.388734   1.000000
    285        -17.377764   1.000000
    286        -17.377764   1.000000
    287        -17.377759   1.000000
    288        -17.377758   1.000000
    289        -17.377757   1.000000
    290        -17.377756   1.000000
    291        -17.377749   1.000000
    292        -17.377748   1.000000
    293        -17.349868   1.000000
    294        -17.349866   1.000000
    295        -17.349832   1.000000
    296        -17.349831   1.000000
    297        -17.349765   1.000000
    298        -17.349763   1.000000
    299        -17.349729   1.000000
    300        -17.349727   1.000000
    301        -17.296503   1.000000
    302        -17.296502   1.000000
    303        -17.296467   1.000000
    304        -17.296466   1.000000
    305        -17.296430   1.000000
    306        -17.296429   1.000000
    307        -17.296394   1.000000
    308        -17.296394   1.000000
    309        -17.287211   1.000000
    310        -17.287206   1.000000
    311        -17.287188   1.000000
    312        -17.287185   1.000000
    313        -17.287163   1.000000
    314        -17.287161   1.000000
    315        -17.287139   1.000000
    316        -17.287135   1.000000
    317        -17.261812   1.000000
    318        -17.261806   1.000000
    319        -17.261804   1.000000
    320        -17.261797   1.000000
    321        -17.256784   1.000000
    322        -17.256784   1.000000
    323        -17.256770   1.000000
    324        -17.256770   1.000000
    325        -17.256748   1.000000
    326        -17.256746   1.000000
    327        -17.256733   1.000000
    328        -17.256733   1.000000
    329        -17.250716   1.000000
    330        -17.250715   1.000000
    331        -17.250711   1.000000
    332        -17.250709   1.000000
    333        -17.250708   1.000000
    334        -17.250707   1.000000
    335        -17.250700   1.000000
    336        -17.250699   1.000000
    337        -17.240635   1.000000
    338        -17.240634   1.000000
    339        -17.240633   1.000000
    340        -17.240633   1.000000
    341        -17.240570   1.000000
    342        -17.240569   1.000000
    343        -17.240566   1.000000
    344        -17.240566   1.000000
    345        -17.240507   1.000000
    346        -17.240506   1.000000
    347        -17.240504   1.000000
    348        -17.240503   1.000000
    349        -17.240450   1.000000
    350        -17.240449   1.000000
    351        -17.240449   1.000000
    352        -17.240447   1.000000
    353        -17.197611   1.000000
    354        -17.197608   1.000000
    355        -17.197606   1.000000
    356        -17.197605   1.000000
    357        -17.197601   1.000000
    358        -17.197600   1.000000
    359        -17.197599   1.000000
    360        -17.197594   1.000000
    361        -17.155446   1.000000
    362        -17.155438   1.000000
    363        -17.155437   1.000000
    364        -17.155430   1.000000
    365        -17.126809   1.000000
    366        -17.126807   1.000000
    367        -17.126802   1.000000
    368        -17.126801   1.000000
    369        -17.126785   1.000000
    370        -17.126783   1.000000
    371        -17.126778   1.000000
    372        -17.126776   1.000000
    373        -17.126737   1.000000
    374        -17.126735   1.000000
    375        -17.126730   1.000000
    376        -17.126729   1.000000
    377        -17.126712   1.000000
    378        -17.126710   1.000000
    379        -17.126705   1.000000
    380        -17.126704   1.000000
    381        -17.125332   1.000000
    382        -17.125332   1.000000
    383        -17.125301   1.000000
    384        -17.125301   1.000000
    385        -17.125269   1.000000
    386        -17.125269   1.000000
    387        -17.125238   1.000000
    388        -17.125237   1.000000
    389        -17.093916   1.000000
    390        -17.093914   1.000000
    391        -17.093881   1.000000
    392        -17.093879   1.000000
    393        -17.093814   1.000000
    394        -17.093812   1.000000
    395        -17.093778   1.000000
    396        -17.093777   1.000000
    397        -17.062519   1.000000
    398        -17.062518   1.000000
    399        -17.062517   1.000000
    400        -17.062516   1.000000
    401        -17.062497   1.000000
    402        -17.062495   1.000000
    403        -17.062494   1.000000
    404        -17.062493   1.000000
    405        -17.062455   1.000000
    406        -17.062455   1.000000
    407        -17.062454   1.000000
    408        -17.062452   1.000000
    409        -17.062433   1.000000
    410        -17.062432   1.000000
    411        -17.062431   1.000000
    412        -17.062430   1.000000
    413        -17.058063   1.000000
    414        -17.058063   1.000000
    415        -17.058041   1.000000
    416        -17.058041   1.000000
    417        -17.058018   1.000000
    418        -17.058017   1.000000
    419        -17.057993   1.000000
    420        -17.057992   1.000000
    421        -17.035458   1.000000
    422        -17.035451   1.000000
    423        -17.035449   1.000000
    424        -17.035443   1.000000
    425        -17.023900   1.000000
    426        -17.023895   1.000000
    427        -17.023894   1.000000
    428        -17.023894   1.000000
    429        -17.023887   1.000000
    430        -17.023887   1.000000
    431        -17.023885   1.000000
    432        -17.023876   1.000000
    433        -16.996474   1.000000
    434        -16.996473   1.000000
    435        -16.996460   1.000000
    436        -16.996459   1.000000
    437        -16.996438   1.000000
    438        -16.996436   1.000000
    439        -16.996423   1.000000
    440        -16.996422   1.000000
    441        -16.995193   1.000000
    442        -16.995191   1.000000
    443        -16.995190   1.000000
    444        -16.995189   1.000000
    445        -16.995187   1.000000
    446        -16.995185   1.000000
    447        -16.995184   1.000000
    448        -16.995180   1.000000
    449        -16.990012   1.000000
    450        -16.990005   1.000000
    451        -16.990003   1.000000
    452        -16.989997   1.000000
    453        -16.980862   1.000000
    454        -16.980857   1.000000
    455        -16.980856   1.000000
    456        -16.980855   1.000000
    457        -16.980849   1.000000
    458        -16.980848   1.000000
    459        -16.980847   1.000000
    460        -16.980838   1.000000
    461        -16.934094   1.000000
    462        -16.934093   1.000000
    463        -16.934092   1.000000
    464        -16.934091   1.000000
    465        -16.934028   1.000000
    466        -16.934026   1.000000
    467        -16.934025   1.000000
    468        -16.934023   1.000000
    469        -16.933964   1.000000
    470        -16.933962   1.000000
    471        -16.933961   1.000000
    472        -16.933959   1.000000
    473        -16.933906   1.000000
    474        -16.933905   1.000000
    475        -16.933903   1.000000
    476        -16.933902   1.000000
    477        -16.927716   1.000000
    478        -16.927715   1.000000
    479        -16.927714   1.000000
    480        -16.927713   1.000000
    481        -16.927685   1.000000
    482        -16.927685   1.000000
    483        -16.927684   1.000000
    484        -16.927682   1.000000
    485        -16.927627   1.000000
    486        -16.927625   1.000000
    487        -16.927624   1.000000
    488        -16.927623   1.000000
    489        -16.927595   1.000000
    490        -16.927595   1.000000
    491        -16.927594   1.000000
    492        -16.927593   1.000000
    493        -16.920330   1.000000
    494        -16.920258   1.000000
    495        -16.920189   1.000000
    496        -16.920127   1.000000
    497        -16.909926   1.000000
    498        -16.909924   1.000000
    499        -16.909893   1.000000
    500        -16.909893   1.000000
    501        -16.909861   1.000000
    502        -16.909860   1.000000
    503        -16.909829   1.000000
    504        -16.909827   1.000000
    505        -16.878215   1.000000
    506        -16.878209   1.000000
    507        -16.878207   1.000000
    508        -16.878200   1.000000
    509        -16.871300   1.000000
    510        -16.871295   1.000000
    511        -16.871293   1.000000
    512        -16.871285   1.000000
    513          4.191304   1.000000
    514          4.191383   1.000000
    515          4.191457   1.000000
    516          4.191523   1.000000
    517          5.115246   1.000000
    518          5.115255   1.000000
    519          5.115320   1.000000
    520          5.115334   1.000000
    521          5.115393   1.000000
    522          5.115407   1.000000
    523          5.115460   1.000000
    524          5.115470   1.000000
    525          5.873155   1.000000
    526          5.873157   1.000000
    527          5.873190   1.000000
    528          5.873192   1.000000
    529          5.873256   1.000000
    530          5.873259   1.000000
    531          5.873292   1.000000
    532          5.873295   1.000000
    533          6.173305   1.000000
    534          6.173311   1.000000
    535          6.173312   1.000000
    536          6.173318   1.000000
    537          6.307859   1.000000
    538          6.307861   1.000000
    539          6.307867   1.000000
    540          6.307869   1.000000
    541          6.307896   1.000000
    542          6.307897   1.000000
    543          6.307904   1.000000
    544          6.307906   1.000000
    545          6.307965   1.000000
    546          6.307968   1.000000
    547          6.307974   1.000000
    548          6.307975   1.000000
    549          6.308002   1.000000
    550          6.308004   1.000000
    551          6.308012   1.000000
    552          6.308013   1.000000
    553          6.582636   1.000000
    554          6.582636   1.000000
    555          6.582638   1.000000
    556          6.582639   1.000000
    557          6.582707   1.000000
    558          6.582709   1.000000
    559          6.582714   1.000000
    560          6.582715   1.000000
    561          6.582778   1.000000
    562          6.582779   1.000000
    563          6.582785   1.000000
    564          6.582785   1.000000
    565          6.582843   1.000000
    566          6.582844   1.000000
    567          6.582846   1.000000
    568          6.582846   1.000000
    569          6.614196   1.000000
    570          6.614204   1.000000
    571          6.614206   1.000000
    572          6.614214   1.000000
    573          6.694713   1.000000
    574          6.694789   1.000000
    575          6.694861   1.000000
    576          6.694925   1.000000
    577          6.786765   1.000000
    578          6.786840   1.000000
    579          6.786911   1.000000
    580          6.786974   1.000000
    581          6.911899   1.000000
    582          6.911899   1.000000
    583          6.911967   1.000000
    584          6.911967   1.000000
    585          6.912033   1.000000
    586          6.912033   1.000000
    587          6.912091   1.000000
    588          6.912092   1.000000
    589          7.218722   1.000000
    590          7.218725   1.000000
    591          7.218726   1.000000
    592          7.218729   1.000000
    593          7.218731   1.000000
    594          7.218736   1.000000
    595          7.218738   1.000000
    596          7.218745   1.000000
    597          7.271723   1.000000
    598          7.271724   1.000000
    599          7.271728   1.000000
    600          7.271731   1.000000
    601          7.271757   1.000000
    602          7.271760   1.000000
    603          7.271764   1.000000
    604          7.271766   1.000000
    605          7.271826   1.000000
    606          7.271828   1.000000
    607          7.271833   1.000000
    608          7.271835   1.000000
    609          7.271862   1.000000
    610          7.271864   1.000000
    611          7.271869   1.000000
    612          7.271870   1.000000
    613          7.284618   1.000000
    614          7.284627   1.000000
    615          7.284689   1.000000
    616          7.284701   1.000000
    617          7.284758   1.000000
    618          7.284771   1.000000
    619          7.284822   1.000000
    620          7.284831   1.000000
    621          7.316232   1.000000
    622          7.316233   1.000000
    623          7.316265   1.000000
    624          7.316265   1.000000
    625          7.316327   1.000000
    626          7.316328   1.000000
    627          7.316360   1.000000
    628          7.316360   1.000000
    629          7.389391   1.000000
    630          7.389398   1.000000
    631          7.389466   1.000000
    632          7.389475   1.000000
    633          7.389537   1.000000
    634          7.389547   1.000000
    635          7.389603   1.000000
    636          7.389610   1.000000
    637          7.423143   1.000000
    638          7.423147   1.000000
    639          7.423148   1.000000
    640          7.423149   1.000000
    641          7.423152   1.000000
    642          7.423155   1.000000
    643          7.423157   1.000000
    644          7.423163   1.000000
    645          7.845496   1.000000
    646          7.845498   1.000000
    647          7.845503   1.000000
    648          7.845504   1.000000
    649          7.845512   1.000000
    650          7.845514   1.000000
    651          7.845525   1.000000
    652          7.845525   1.000000
    653          7.882680   1.000000
    654          7.882681   1.000000
    655          7.882714   1.000000
    656          7.882715   1.000000
    657          7.882781   1.000000
    658          7.882783   1.000000
    659          7.882816   1.000000
    660          7.882818   1.000000
    661          8.326251   1.000003
    662          8.326255   1.000003
    663          8.326256   1.000003
    664          8.326258   1.000003
    665          8.326262   1.000003
    666          8.326264   1.000003
    667          8.326265   1.000003
    668          8.326273   1.000003
    669          8.419475   1.000051
    670          8.419475   1.000051
    671          8.419480   1.000051
    672          8.419481   1.000051
    673          8.419485   1.000051
    674          8.419486   1.000051
    675          8.419495   1.000051
    676          8.419496   1.000051
    677          8.424675   1.000060
    678          8.424676   1.000060
    679          8.424681   1.000060
    680          8.424681   1.000060
    681          8.424739   1.000060
    682          8.424740   1.000060
    683          8.424753   1.000060
    684          8.424754   1.000060
    685          8.424805   1.000060
    686          8.424805   1.000060
    687          8.424819   1.000060
    688          8.424820   1.000060
    689          8.424868   1.000060
    690          8.424868   1.000060
    691          8.424873   1.000060
    692          8.424874   1.000060
    693          8.426274   1.000062
    694          8.426275   1.000062
    695          8.426278   1.000062
    696          8.426279   1.000062
    697          8.426280   1.000062
    698          8.426281   1.000062
    699          8.426283   1.000062
    700          8.426286   1.000062
    701          8.445891   1.000108
    702          8.445892   1.000108
    703          8.445899   1.000108
    704          8.445902   1.000108
    705          8.445915   1.000108
    706          8.445918   1.000109
    707          8.445926   1.000109
    708          8.445927   1.000109
    709          8.445963   1.000109
    710          8.445965   1.000109
    711          8.445971   1.000109
    712          8.445975   1.000109
    713          8.445988   1.000109
    714          8.445990   1.000109
    715          8.445999   1.000109
    716          8.446001   1.000109
    717          8.497593   1.000421
    718          8.497593   1.000421
    719          8.497649   1.000421
    720          8.497650   1.000421
    721          8.497704   1.000422
    722          8.497704   1.000422
    723          8.497753   1.000423
    724          8.497755   1.000423
    725          8.538576   1.001108
    726          8.538582   1.001109
    727          8.538584   1.001109
    728          8.538593   1.001109
    729          8.749702   1.029640
    730          8.749704   1.029641
    731          8.749708   1.029641
    732          8.749709   1.029642
    733          8.749723   1.029645
    734          8.749724   1.029645
    735          8.749728   1.029646
    736          8.749731   1.029646
    737          8.749758   1.029652
    738          8.749760   1.029652
    739          8.749765   1.029653
    740          8.749766   1.029653
    741          8.749779   1.029656
    742          8.749780   1.029656
    743          8.749785   1.029658
    744          8.749786   1.029658
    745          8.866623   1.005755
    746          8.866624   1.005755
    747          8.866683   1.005697
    748          8.866683   1.005697
    749          8.866739   1.005642
    750          8.866739   1.005641
    751          8.866774   1.005606
    752          8.866777   1.005603
    753          8.866782   1.005599
    754          8.866784   1.005596
    755          8.866786   1.005595
    756          8.866787   1.005594
    757          8.866790   1.005591
    758          8.866795   1.005586
    759          8.866801   1.005580
    760          8.866804   1.005577
    761          8.869252   1.003096
    762          8.869260   1.003087
    763          8.869262   1.003084
    764          8.869269   1.003077
    765          9.130837   0.157656
    766          9.130841   0.157642
    767          9.130843   0.157639
    768          9.130843   0.157638
    769          9.130847   0.157626
    770          9.130849   0.157620
    771          9.130851   0.157615
    772          9.130856   0.157597
    773          9.134529   0.146809
    774          9.134529   0.146809
    775          9.134530   0.146806
    776          9.134531   0.146806
    777          9.134548   0.146756
    778          9.134549   0.146753
    779          9.134549   0.146752
    780          9.134550   0.146751
    781          9.134584   0.146652
    782          9.134584   0.146651
    783          9.134585   0.146649
    784          9.134585   0.146648
    785          9.134603   0.146597
    786          9.134604   0.146594
    787          9.134604   0.146594
    788          9.134604   0.146594
    789          9.237966  -0.023748
    790          9.237968  -0.023749
    791          9.237969  -0.023750
    792          9.237971  -0.023751
    793          9.237976  -0.023754
    794          9.237978  -0.023755
    795          9.237979  -0.023755
    796          9.237981  -0.023756
    797          9.237995  -0.023764
    798          9.237995  -0.023764
    799          9.237998  -0.023766
    800          9.238000  -0.023767
    801          9.238005  -0.023770
    802          9.238006  -0.023770
    803          9.238007  -0.023771
    804          9.238009  -0.023772
    805          9.392231  -0.016075
    806          9.392232  -0.016075
    807          9.392241  -0.016073
    808          9.392242  -0.016073
    809          9.392253  -0.016071
    810          9.392253  -0.016071
    811          9.392263  -0.016069
    812          9.392263  -0.016069
    813          9.423869  -0.010365
    814          9.423872  -0.010365
    815          9.423894  -0.010361
    816          9.423898  -0.010361
    817          9.423922  -0.010357
    818          9.423925  -0.010356
    819          9.423950  -0.010352
    820          9.423953  -0.010352
    821          9.430613  -0.009352
    822          9.430618  -0.009351
    823          9.430628  -0.009350
    824          9.430632  -0.009349
    825          9.430645  -0.009347
    826          9.430649  -0.009347
    827          9.430663  -0.009345
    828          9.430668  -0.009344
    829          9.552331  -0.000886
    830          9.552336  -0.000886
    831          9.552336  -0.000886
    832          9.552340  -0.000886
    833          9.599702  -0.000279
    834          9.599704  -0.000279
    835          9.599721  -0.000279
    836          9.599722  -0.000279
    837          9.599751  -0.000279
    838          9.599752  -0.000279
    839          9.599769  -0.000279
    840          9.599770  -0.000279
    841          9.694533  -0.000019
    842          9.694534  -0.000019
    843          9.694546  -0.000019
    844          9.694546  -0.000019
    845          9.694559  -0.000019
    846          9.694560  -0.000019
    847          9.694573  -0.000019
    848          9.694574  -0.000019
    849          9.827190  -0.000000
    850          9.827194  -0.000000
    851          9.827199  -0.000000
    852          9.827210  -0.000000
    853          9.866378  -0.000000
    854          9.866383  -0.000000
    855          9.866384  -0.000000
    856          9.866388  -0.000000
    857          9.880371  -0.000000
    858          9.880372  -0.000000
    859          9.880375  -0.000000
    860          9.880376  -0.000000
    861          9.880426  -0.000000
    862          9.880427  -0.000000
    863          9.880437  -0.000000
    864          9.880439  -0.000000
    865          9.880483  -0.000000
    866          9.880484  -0.000000
    867          9.880495  -0.000000
    868          9.880495  -0.000000
    869          9.880538  -0.000000
    870          9.880540  -0.000000
    871          9.880543  -0.000000
    872          9.880544  -0.000000
    873         10.011396  -0.000000
    874         10.011457  -0.000000
    875         10.011516  -0.000000
    876         10.011569  -0.000000
    877         10.395288  -0.000000
    878         10.395289  -0.000000
    879         10.395291  -0.000000
    880         10.395291  -0.000000
    881         10.395295  -0.000000
    882         10.395296  -0.000000
    883         10.395300  -0.000000
    884         10.395302  -0.000000
    885         10.552589  -0.000000
    886         10.552590  -0.000000
    887         10.552609  -0.000000
    888         10.552610  -0.000000
    889         10.552644  -0.000000
    890         10.552645  -0.000000
    891         10.552665  -0.000000
    892         10.552665  -0.000000
    893         10.699056  -0.000000
    894         10.699065  -0.000000
    895         10.699068  -0.000000
    896         10.699075  -0.000000
    897         11.018543  -0.000000
    898         11.018544  -0.000000
    899         11.018547  -0.000000
    900         11.018547  -0.000000
    901         11.018549  -0.000000
    902         11.018550  -0.000000
    903         11.018553  -0.000000
    904         11.018554  -0.000000
    905         11.151103  -0.000000
    906         11.151104  -0.000000
    907         11.151125  -0.000000
    908         11.151126  -0.000000
    909         11.151165  -0.000000
    910         11.151165  -0.000000
    911         11.151186  -0.000000
    912         11.151186  -0.000000
    913         11.200850  -0.000000
    914         11.200851  -0.000000
    915         11.200868  -0.000000
    916         11.200868  -0.000000
    917         11.200888  -0.000000
    918         11.200888  -0.000000
    919         11.200909  -0.000000
    920         11.200910  -0.000000
    921         11.707088  -0.000000
    922         11.707224  -0.000000
    923         11.707390  -0.000000
    924         11.716978  -0.000000
 
  0.5000000E+00  0.5000000E+00  0.5000000E+00  0.1250000E+00
      1        -39.348670   1.000000
      2        -39.348646   1.000000
      3        -39.348599   1.000000
      4        -39.348572   1.000000
      5        -39.348523   1.000000
      6        -39.348502   1.000000
      7        -39.348457   1.000000
      8        -39.348444   1.000000
      9        -39.272942   1.000000
     10        -39.272941   1.000000
     11        -39.272919   1.000000
     12        -39.272917   1.000000
     13        -39.272899   1.000000
     14        -39.272893   1.000000
     15        -39.272881   1.000000
     16        -39.272876   1.000000
     17        -39.272871   1.000000
     18        -39.272860   1.000000
     19        -39.272860   1.000000
     20        -39.272846   1.000000
     21        -39.272815   1.000000
     22        -39.272806   1.000000
     23        -39.272800   1.000000
     24        -39.272791   1.000000
     25        -39.272788   1.000000
     26        -39.272787   1.000000
     27        -39.272767   1.000000
     28        -39.272761   1.000000
     29        -39.272753   1.000000
     30        -39.272750   1.000000
     31        -39.272728   1.000000
     32        -39.272726   1.000000
     33        -39.235669   1.000000
     34        -39.235667   1.000000
     35        -39.235663   1.000000
     36        -39.235660   1.000000
     37        -39.235643   1.000000
     38        -39.235640   1.000000
     39        -39.235620   1.000000
     40        -39.235619   1.000000
     41        -39.235617   1.000000
     42        -39.235615   1.000000
     43        -39.235605   1.000000
     44        -39.235604   1.000000
     45        -39.235585   1.000000
     46        -39.235585   1.000000
     47        -39.235575   1.000000
     48        -39.235572   1.000000
     49        -39.235570   1.000000
     50        -39.235567   1.000000
     51        -39.235551   1.000000
     52        -39.235543   1.000000
     53        -39.235530   1.000000
     54        -39.235528   1.000000
     55        -39.235520   1.000000
     56        -39.235518   1.000000
     57        -39.214705   1.000000
     58        -39.214705   1.000000
     59        -39.214699   1.000000
     60        -39.214699   1.000000
     61        -39.214695   1.000000
     62        -39.214694   1.000000
     63        -39.214686   1.000000
     64        -39.214685   1.000000
     65        -39.198262   1.000000
     66        -39.198262   1.000000
     67        -39.198257   1.000000
     68        -39.198256   1.000000
     69        -39.198253   1.000000
     70        -39.198252   1.000000
     71        -39.198243   1.000000
     72        -39.198242   1.000000
     73        -39.196126   1.000000
     74        -39.196124   1.000000
     75        -39.196120   1.000000
     76        -39.196117   1.000000
     77        -39.196101   1.000000
     78        -39.196099   1.000000
     79        -39.196080   1.000000
     80        -39.196079   1.000000
     81        -39.196077   1.000000
     82        -39.196074   1.000000
     83        -39.196065   1.000000
     84        -39.196064   1.000000
     85        -39.196044   1.000000
     86        -39.196044   1.000000
     87        -39.196035   1.000000
     88        -39.196031   1.000000
     89        -39.196030   1.000000
     90        -39.196026   1.000000
     91        -39.196010   1.000000
     92        -39.196001   1.000000
     93        -39.195988   1.000000
     94        -39.195986   1.000000
     95        -39.195977   1.000000
     96        -39.195976   1.000000
     97        -39.177622   1.000000
     98        -39.177621   1.000000
     99        -39.177599   1.000000
    100        -39.177597   1.000000
    101        -39.177579   1.000000
    102        -39.177573   1.000000
    103        -39.177562   1.000000
    104        -39.177556   1.000000
    105        -39.177551   1.000000
    106        -39.177541   1.000000
    107        -39.177540   1.000000
    108        -39.177527   1.000000
    109        -39.177495   1.000000
    110        -39.177486   1.000000
    111        -39.177481   1.000000
    112        -39.177472   1.000000
    113        -39.177469   1.000000
    114        -39.177468   1.000000
    115        -39.177448   1.000000
    116        -39.177442   1.000000
    117        -39.177433   1.000000
    118        -39.177431   1.000000
    119        -39.177409   1.000000
    120        -39.177407   1.000000
    121        -39.118801   1.000000
    122        -39.118776   1.000000
    123        -39.118730   1.000000
    124        -39.118704   1.000000
    125        -39.118655   1.000000
    126        -39.118634   1.000000
    127        -39.118590   1.000000
    128        -39.118577   1.000000
    129        -17.839922   1.000000
    130        -17.839922   1.000000
    131        -17.839917   1.000000
    132        -17.839914   1.000000
    133        -17.839896   1.000000
    134        -17.839895   1.000000
    135        -17.839873   1.000000
    136        -17.839873   1.000000
    137        -17.839871   1.000000
    138        -17.839868   1.000000
    139        -17.839860   1.000000
    140        -17.839857   1.000000
    141        -17.839837   1.000000
    142        -17.839836   1.000000
    143        -17.839829   1.000000
    144        -17.839824   1.000000
    145        -17.839821   1.000000
    146        -17.839819   1.000000
    147        -17.839802   1.000000
    148        -17.839795   1.000000
    149        -17.839782   1.000000
    150        -17.839780   1.000000
    151        -17.839772   1.000000
    152        -17.839770   1.000000
    153        -17.765477   1.000000
    154        -17.765477   1.000000
    155        -17.765472   1.000000
    156        -17.765469   1.000000
    157        -17.765453   1.000000
    158        -17.765450   1.000000
    159        -17.765432   1.000000
    160        -17.765429   1.000000
    161        -17.765428   1.000000
    162        -17.765426   1.000000
    163        -17.765417   1.000000
    164        -17.765416   1.000000
    165        -17.765397   1.000000
    166        -17.765395   1.000000
    167        -17.765388   1.000000
    168        -17.765384   1.000000
    169        -17.765382   1.000000
    170        -17.765380   1.000000
    171        -17.765364   1.000000
    172        -17.765356   1.000000
    173        -17.765345   1.000000
    174        -17.765343   1.000000
    175        -17.765335   1.000000
    176        -17.765333   1.000000
    177        -17.695925   1.000000
    178        -17.695925   1.000000
    179        -17.695921   1.000000
    180        -17.695921   1.000000
    181        -17.695920   1.000000
    182        -17.695920   1.000000
    183        -17.695918   1.000000
    184        -17.695918   1.000000
    185        -17.682827   1.000000
    186        -17.682825   1.000000
    187        -17.682810   1.000000
    188        -17.682809   1.000000
    189        -17.682799   1.000000
    190        -17.682794   1.000000
    191        -17.682785   1.000000
    192        -17.682780   1.000000
    193        -17.682780   1.000000
    194        -17.682771   1.000000
    195        -17.682768   1.000000
    196        -17.682759   1.000000
    197        -17.682741   1.000000
    198        -17.682732   1.000000
    199        -17.682728   1.000000
    200        -17.682721   1.000000
    201        -17.682719   1.000000
    202        -17.682718   1.000000
    203        -17.682706   1.000000
    204        -17.682703   1.000000
    205        -17.682694   1.000000
    206        -17.682691   1.000000
    207        -17.682677   1.000000
    208        -17.682675   1.000000
    209        -17.612105   1.000000
    210        -17.612101   1.000000
    211        -17.612098   1.000000
    212        -17.612094   1.000000
    213        -17.612078   1.000000
    214        -17.612069   1.000000
    215        -17.612041   1.000000
    216        -17.612025   1.000000
    217        -17.612012   1.000000
    218        -17.612003   1.000000
    219        -17.611979   1.000000
    220        -17.611968   1.000000
    221        -17.611954   1.000000
    222        -17.611951   1.000000
    223        -17.611946   1.000000
    224        -17.611941   1.000000
    225        -17.569315   1.000000
    226        -17.569315   1.000000
    227        -17.569313   1.000000
    228        -17.569313   1.000000
    229        -17.569311   1.000000
    230        -17.569310   1.000000
    231        -17.569308   1.000000
    232        -17.569307   1.000000
    233        -17.569307   1.000000
    234        -17.569307   1.000000
    235        -17.569305   1.000000
    236        -17.569305   1.000000
    237        -17.569302   1.000000
    238        -17.569302   1.000000
    239        -17.569297   1.000000
    240        -17.569297   1.000000
    241        -17.477263   1.000000
    242        -17.477262   1.000000
    243        -17.477250   1.000000
    244        -17.477248   1.000000
    245        -17.477236   1.000000
    246        -17.477235   1.000000
    247        -17.477226   1.000000
    248        -17.477223   1.000000
    249        -17.477219   1.000000
    250        -17.477215   1.000000
    251        -17.477212   1.000000
    252        -17.477206   1.000000
    253        -17.477185   1.000000
    254        -17.477179   1.000000
    255        -17.477177   1.000000
    256        -17.477171   1.000000
    257        -17.477169   1.000000
    258        -17.477168   1.000000
    259        -17.477155   1.000000
    260        -17.477154   1.000000
    261        -17.477146   1.000000
    262        -17.477144   1.000000
    263        -17.477130   1.000000
    264        -17.477129   1.000000
    265        -17.402766   1.000000
    266        -17.402760   1.000000
    267        -17.402744   1.000000
    268        -17.402739   1.000000
    269        -17.402710   1.000000
    270        -17.402706   1.000000
    271        -17.402689   1.000000
    272        -17.402677   1.000000
    273        -17.399292   1.000000
    274        -17.399292   1.000000
    275        -17.399286   1.000000
    276        -17.399285   1.000000
    277        -17.399283   1.000000
    278        -17.399282   1.000000
    279        -17.399280   1.000000
    280        -17.399280   1.000000
    281        -17.399278   1.000000
    282        -17.399276   1.000000
    283        -17.399274   1.000000
    284        -17.399272   1.000000
    285        -17.399270   1.000000
    286        -17.399267   1.000000
    287        -17.399266   1.000000
    288        -17.399265   1.000000
    289        -17.399264   1.000000
    290        -17.399262   1.000000
    291        -17.399261   1.000000
    292        -17.399259   1.000000
    293        -17.399258   1.000000
    294        -17.399255   1.000000
    295        -17.399252   1.000000
    296        -17.399250   1.000000
    297        -17.322008   1.000000
    298        -17.322006   1.000000
    299        -17.322003   1.000000
    300        -17.322000   1.000000
    301        -17.321989   1.000000
    302        -17.321988   1.000000
    303        -17.321972   1.000000
    304        -17.321970   1.000000
    305        -17.321967   1.000000
    306        -17.321966   1.000000
    307        -17.321961   1.000000
    308        -17.321959   1.000000
    309        -17.321941   1.000000
    310        -17.321940   1.000000
    311        -17.321937   1.000000
    312        -17.321932   1.000000
    313        -17.321929   1.000000
    314        -17.321928   1.000000
    315        -17.321915   1.000000
    316        -17.321908   1.000000
    317        -17.321901   1.000000
    318        -17.321899   1.000000
    319        -17.321892   1.000000
    320        -17.321890   1.000000
    321        -17.185899   1.000000
    322        -17.185898   1.000000
    323        -17.185896   1.000000
    324        -17.185896   1.000000
    325        -17.185894   1.000000
    326        -17.185894   1.000000
    327        -17.185891   1.000000
    328        -17.185891   1.000000
    329        -17.185891   1.000000
    330        -17.185891   1.000000
    331        -17.185888   1.000000
    332        -17.185888   1.000000
    333        -17.185885   1.000000
    334        -17.185885   1.000000
    335        -17.185881   1.000000
    336        -17.185880   1.000000
    337        -17.171533   1.000000
    338        -17.171532   1.000000
    339        -17.171528   1.000000
    340        -17.171525   1.000000
    341        -17.171511   1.000000
    342        -17.171509   1.000000
    343        -17.171491   1.000000
    344        -17.171488   1.000000
    345        -17.171487   1.000000
    346        -17.171485   1.000000
    347        -17.171477   1.000000
    348        -17.171475   1.000000
    349        -17.171456   1.000000
    350        -17.171455   1.000000
    351        -17.171450   1.000000
    352        -17.171443   1.000000
    353        -17.171442   1.000000
    354        -17.171441   1.000000
    355        -17.171425   1.000000
    356        -17.171417   1.000000
    357        -17.171407   1.000000
    358        -17.171405   1.000000
    359        -17.171397   1.000000
    360        -17.171395   1.000000
    361        -17.169392   1.000000
    362        -17.169391   1.000000
    363        -17.169386   1.000000
    364        -17.169384   1.000000
    365        -17.169380   1.000000
    366        -17.169379   1.000000
    367        -17.169372   1.000000
    368        -17.169371   1.000000
    369        -17.169370   1.000000
    370        -17.169367   1.000000
    371        -17.169366   1.000000
    372        -17.169361   1.000000
    373        -17.169352   1.000000
    374        -17.169348   1.000000
    375        -17.169346   1.000000
    376        -17.169342   1.000000
    377        -17.169342   1.000000
    378        -17.169340   1.000000
    379        -17.169333   1.000000
    380        -17.169332   1.000000
    381        -17.169327   1.000000
    382        -17.169325   1.000000
    383        -17.169318   1.000000
    384        -17.169316   1.000000
    385        -17.124453   1.000000
    386        -17.124447   1.000000
    387        -17.124432   1.000000
    388        -17.124427   1.000000
    389        -17.124400   1.000000
    390        -17.124396   1.000000
    391        -17.124380   1.000000
    392        -17.124368   1.000000
    393        -17.103475   1.000000
    394        -17.103475   1.000000
    395        -17.103469   1.000000
    396        -17.103468   1.000000
    397        -17.103466   1.000000
    398        -17.103465   1.000000
    399        -17.103464   1.000000
    400        -17.103463   1.000000
    401        -17.103462   1.000000
    402        -17.103460   1.000000
    403        -17.103459   1.000000
    404        -17.103457   1.000000
    405        -17.103455   1.000000
    406        -17.103453   1.000000
    407        -17.103453   1.000000
    408        -17.103452   1.000000
    409        -17.103450   1.000000
    410        -17.103448   1.000000
    411        -17.103448   1.000000
    412        -17.103446   1.000000
    413        -17.103445   1.000000
    414        -17.103442   1.000000
    415        -17.103440   1.000000
    416        -17.103438   1.000000
    417        -17.048829   1.000000
    418        -17.048829   1.000000
    419        -17.048826   1.000000
    420        -17.048826   1.000000
    421        -17.048825   1.000000
    422        -17.048825   1.000000
    423        -17.048823   1.000000
    424        -17.048823   1.000000
    425        -16.982626   1.000000
    426        -16.982625   1.000000
    427        -16.982621   1.000000
    428        -16.982618   1.000000
    429        -16.982606   1.000000
    430        -16.982605   1.000000
    431        -16.982589   1.000000
    432        -16.982587   1.000000
    433        -16.982583   1.000000
    434        -16.982582   1.000000
    435        -16.982577   1.000000
    436        -16.982575   1.000000
    437        -16.982557   1.000000
    438        -16.982556   1.000000
    439        -16.982551   1.000000
    440        -16.982548   1.000000
    441        -16.982544   1.000000
    442        -16.982543   1.000000
    443        -16.982530   1.000000
    444        -16.982522   1.000000
    445        -16.982515   1.000000
    446        -16.982512   1.000000
    447        -16.982506   1.000000
    448        -16.982504   1.000000
    449        -16.966672   1.000000
    450        -16.966666   1.000000
    451        -16.966659   1.000000
    452        -16.966656   1.000000
    453        -16.966653   1.000000
    454        -16.966650   1.000000
    455        -16.966644   1.000000
    456        -16.966642   1.000000
    457        -16.966641   1.000000
    458        -16.966637   1.000000
    459        -16.966623   1.000000
    460        -16.966620   1.000000
    461        -16.966617   1.000000
    462        -16.966612   1.000000
    463        -16.966600   1.000000
    464        -16.966598   1.000000
    465        -16.966595   1.000000
    466        -16.966593   1.000000
    467        -16.966589   1.000000
    468        -16.966585   1.000000
    469        -16.966580   1.000000
    470        -16.966576   1.000000
    471        -16.966569   1.000000
    472        -16.966565   1.000000
    473        -16.916047   1.000000
    474        -16.916047   1.000000
    475        -16.916042   1.000000
    476        -16.916039   1.000000
    477        -16.916021   1.000000
    478        -16.916020   1.000000
    479        -16.915999   1.000000
    480        -16.915998   1.000000
    481        -16.915997   1.000000
    482        -16.915994   1.000000
    483        -16.915986   1.000000
    484        -16.915984   1.000000
    485        -16.915964   1.000000
    486        -16.915963   1.000000
    487        -16.915956   1.000000
    488        -16.915951   1.000000
    489        -16.915949   1.000000
    490        -16.915947   1.000000
    491        -16.915930   1.000000
    492        -16.915923   1.000000
    493        -16.915911   1.000000
    494        -16.915909   1.000000
    495        -16.915900   1.000000
    496        -16.915899   1.000000
    497        -16.899761   1.000000
    498        -16.899758   1.000000
    499        -16.899754   1.000000
    500        -16.899751   1.000000
    501        -16.899735   1.000000
    502        -16.899726   1.000000
    503        -16.899699   1.000000
    504        -16.899682   1.000000
    505        -16.899670   1.000000
    506        -16.899661   1.000000
    507        -16.899637   1.000000
    508        -16.899626   1.000000
    509        -16.899613   1.000000
    510        -16.899610   1.000000
    511        -16.899604   1.000000
    512        -16.899600   1.000000
    513          4.439571   1.000000
    514          4.439597   1.000000
    515          4.439647   1.000000
    516          4.439677   1.000000
    517          4.439730   1.000000
    518          4.439754   1.000000
    519          4.439800   1.000000
    520          4.439815   1.000000
    521          6.025735   1.000000
    522          6.025737   1.000000
    523          6.025759   1.000000
    524          6.025762   1.000000
    525          6.025778   1.000000
    526          6.025785   1.000000
    527          6.025798   1.000000
    528          6.025804   1.000000
    529          6.025809   1.000000
    530          6.025819   1.000000
    531          6.025824   1.000000
    532          6.025838   1.000000
    533          6.025864   1.000000
    534          6.025873   1.000000
    535          6.025883   1.000000
    536          6.025892   1.000000
    537          6.025896   1.000000
    538          6.025897   1.000000
    539          6.025917   1.000000
    540          6.025926   1.000000
    541          6.025932   1.000000
    542          6.025934   1.000000
    543          6.025956   1.000000
    544          6.025959   1.000000
    545          6.455159   1.000000
    546          6.455161   1.000000
    547          6.455164   1.000000
    548          6.455167   1.000000
    549          6.455188   1.000000
    550          6.455189   1.000000
    551          6.455210   1.000000
    552          6.455212   1.000000
    553          6.455214   1.000000
    554          6.455215   1.000000
    555          6.455225   1.000000
    556          6.455226   1.000000
    557          6.455247   1.000000
    558          6.455248   1.000000
    559          6.455258   1.000000
    560          6.455259   1.000000
    561          6.455260   1.000000
    562          6.455265   1.000000
    563          6.455282   1.000000
    564          6.455288   1.000000
    565          6.455306   1.000000
    566          6.455307   1.000000
    567          6.455315   1.000000
    568          6.455316   1.000000
    569          6.862127   1.000000
    570          6.862129   1.000000
    571          6.862134   1.000000
    572          6.862138   1.000000
    573          6.862152   1.000000
    574          6.862154   1.000000
    575          6.862175   1.000000
    576          6.862176   1.000000
    577          6.862182   1.000000
    578          6.862184   1.000000
    579          6.862191   1.000000
    580          6.862191   1.000000
    581          6.862217   1.000000
    582          6.862217   1.000000
    583          6.862221   1.000000
    584          6.862229   1.000000
    585          6.862232   1.000000
    586          6.862234   1.000000
    587          6.862251   1.000000
    588          6.862260   1.000000
    589          6.862269   1.000000
    590          6.862272   1.000000
    591          6.862281   1.000000
    592          6.862283   1.000000
    593          6.914436   1.000000
    594          6.914438   1.000000
    595          6.914461   1.000000
    596          6.914463   1.000000
    597          6.914508   1.000000
    598          6.914511   1.000000
    599          6.914536   1.000000
    600          6.914539   1.000000
    601          6.914588   1.000000
    602          6.914591   1.000000
    603          6.914610   1.000000
    604          6.914613   1.000000
    605          6.914656   1.000000
    606          6.914658   1.000000
    607          6.914670   1.000000
    608          6.914672   1.000000
    609          7.494805   1.000000
    610          7.494805   1.000000
    611          7.494828   1.000000
    612          7.494829   1.000000
    613          7.494851   1.000000
    614          7.494853   1.000000
    615          7.494863   1.000000
    616          7.494865   1.000000
    617          7.494875   1.000000
    618          7.494876   1.000000
    619          7.494886   1.000000
    620          7.494887   1.000000
    621          7.494931   1.000000
    622          7.494933   1.000000
    623          7.494942   1.000000
    624          7.494944   1.000000
    625          7.494948   1.000000
    626          7.494948   1.000000
    627          7.494966   1.000000
    628          7.494967   1.000000
    629          7.494982   1.000000
    630          7.494982   1.000000
    631          7.495005   1.000000
    632          7.495005   1.000000
    633          7.687389   1.000000
    634          7.687389   1.000000
    635          7.687392   1.000000
    636          7.687393   1.000000
    637          7.687393   1.000000
    638          7.687393   1.000000
    639          7.687394   1.000000
    640          7.687395   1.000000
    641          7.849760   1.000000
    642          7.849761   1.000000
    643          7.849782   1.000000
    644          7.849784   1.000000
    645          7.849802   1.000000
    646          7.849807   1.000000
    647          7.849817   1.000000
    648          7.849821   1.000000
    649          7.849826   1.000000
    650          7.849832   1.000000
    651          7.849837   1.000000
    652          7.849844   1.000000
    653          7.849880   1.000000
    654          7.849888   1.000000
    655          7.849892   1.000000
    656          7.849897   1.000000
    657          7.849901   1.000000
    658          7.849902   1.000000
    659          7.849918   1.000000
    660          7.849921   1.000000
    661          7.849933   1.000000
    662          7.849936   1.000000
    663          7.849956   1.000000
    664          7.849957   1.000000
    665          8.162009   1.000000
    666          8.162010   1.000000
    667          8.162012   1.000000
    668          8.162013   1.000000
    669          8.162014   1.000000
    670          8.162015   1.000000
    671          8.162016   1.000000
    672          8.162016   1.000000
    673          8.280512   1.000001
    674          8.280512   1.000001
    675          8.280514   1.000001
    676          8.280515   1.000001
    677          8.280517   1.000001
    678          8.280518   1.000001
    679          8.280520   1.000001
    680          8.280520   1.000001
    681          8.280521   1.000001
    682          8.280521   1.000001
    683          8.280523   1.000001
    684          8.280523   1.000001
    685          8.280526   1.000001
    686          8.280526   1.000001
    687          8.280530   1.000001
    688          8.280531   1.000001
    689          8.463903   1.000177
    690          8.463903   1.000177
    691          8.463908   1.000177
    692          8.463911   1.000177
    693          8.463925   1.000177
    694          8.463927   1.000177
    695          8.463945   1.000177
    696          8.463947   1.000177
    697          8.463949   1.000177
    698          8.463953   1.000177
    699          8.463959   1.000177
    700          8.463961   1.000177
    701          8.463980   1.000177
    702          8.463981   1.000177
    703          8.463986   1.000177
    704          8.463993   1.000177
    705          8.463995   1.000177
    706          8.463997   1.000177
    707          8.464012   1.000177
    708          8.464019   1.000177
    709          8.464028   1.000177
    710          8.464031   1.000177
    711          8.464039   1.000178
    712          8.464041   1.000178
    713          8.663356   1.011357
    714          8.663356   1.011357
    715          8.663360   1.011357
    716          8.663364   1.011358
    717          8.663374   1.011360
    718          8.663377   1.011360
    719          8.663390   1.011362
    720          8.663394   1.011363
    721          8.663397   1.011363
    722          8.663399   1.011364
    723          8.663405   1.011365
    724          8.663406   1.011365
    725          8.663422   1.011368
    726          8.663424   1.011368
    727          8.663428   1.011369
    728          8.663433   1.011370
    729          8.663436   1.011370
    730          8.663438   1.011370
    731          8.663450   1.011372
    732          8.663458   1.011374
    733          8.663464   1.011375
    734          8.663466   1.011375
    735          8.663474   1.011376
    736          8.663475   1.011377
    737          8.737340   1.026936
    738          8.737341   1.026936
    739          8.737342   1.026936
    740          8.737343   1.026937
    741          8.737345   1.026937
    742          8.737345   1.026937
    743          8.737347   1.026938
    744          8.737348   1.026938
    745          8.737349   1.026938
    746          8.737349   1.026938
    747          8.737351   1.026938
    748          8.737351   1.026938
    749          8.737353   1.026939
    750          8.737354   1.026939
    751          8.737356   1.026940
    752          8.737357   1.026940
    753          9.046904   0.473022
    754          9.046907   0.473013
    755          9.046918   0.472966
    756          9.046918   0.472963
    757          9.046924   0.472938
    758          9.046927   0.472924
    759          9.046936   0.472890
    760          9.046937   0.472882
    761          9.046938   0.472880
    762          9.046944   0.472853
    763          9.046950   0.472830
    764          9.046956   0.472803
    765          9.046966   0.472762
    766          9.046974   0.472728
    767          9.046978   0.472710
    768          9.046982   0.472694
    769          9.046985   0.472680
    770          9.046986   0.472676
    771          9.046994   0.472642
    772          9.046996   0.472633
    773          9.047005   0.472599
    774          9.047006   0.472591
    775          9.047016   0.472550
    776          9.047018   0.472542
    777          9.436343  -0.008548
    778          9.436349  -0.008548
    779          9.436354  -0.008547
    780          9.436357  -0.008547
    781          9.436359  -0.008546
    782          9.436363  -0.008546
    783          9.436367  -0.008545
    784          9.436368  -0.008545
    785          9.436371  -0.008545
    786          9.436374  -0.008544
    787          9.436387  -0.008543
    788          9.436388  -0.008542
    789          9.436393  -0.008542
    790          9.436395  -0.008541
    791          9.436406  -0.008540
    792          9.436409  -0.008540
    793          9.436411  -0.008539
    794          9.436413  -0.008539
    795          9.436417  -0.008538
    796          9.436419  -0.008538
    797          9.436424  -0.008538
    798          9.436428  -0.008537
    799          9.436434  -0.008536
    800          9.436438  -0.008536
    801          9.440275  -0.008027
    802          9.440275  -0.008027
    803          9.440278  -0.008027
    804          9.440281  -0.008026
    805          9.440302  -0.008023
    806          9.440304  -0.008023
    807          9.440317  -0.008021
    808          9.440319  -0.008021
    809          9.440325  -0.008020
    810          9.440328  -0.008020
    811          9.440334  -0.008019
    812          9.440335  -0.008019
    813          9.440351  -0.008017
    814          9.440352  -0.008017
    815          9.440359  -0.008016
    816          9.440362  -0.008016
    817          9.440366  -0.008015
    818          9.440371  -0.008015
    819          9.440381  -0.008013
    820          9.440386  -0.008013
    821          9.440406  -0.008010
    822          9.440407  -0.008010
    823          9.440412  -0.008009
    824          9.440413  -0.008009
    825          9.538180  -0.001220
    826          9.538180  -0.001220
    827          9.538183  -0.001220
    828          9.538185  -0.001220
    829          9.538203  -0.001219
    830          9.538204  -0.001219
    831          9.538218  -0.001219
    832          9.538220  -0.001219
    833          9.538223  -0.001219
    834          9.538225  -0.001219
    835          9.538232  -0.001219
    836          9.538233  -0.001219
    837          9.538248  -0.001218
    838          9.538249  -0.001218
    839          9.538256  -0.001218
    840          9.538258  -0.001218
    841          9.538259  -0.001218
    842          9.538264  -0.001218
    843          9.538275  -0.001217
    844          9.538280  -0.001217
    845          9.538295  -0.001217
    846          9.538297  -0.001217
    847          9.538302  -0.001217
    848          9.538303  -0.001217
    849          9.710605  -0.000012
    850          9.710608  -0.000012
    851          9.710610  -0.000012
    852          9.710615  -0.000012
    853          9.710620  -0.000012
    854          9.710627  -0.000012
    855          9.710649  -0.000012
    856          9.710668  -0.000012
    857          9.710690  -0.000011
    858          9.710704  -0.000011
    859          9.710723  -0.000011
    860          9.710731  -0.000011
    861          9.710736  -0.000011
    862          9.710739  -0.000011
    863          9.710743  -0.000011
    864          9.710747  -0.000011
    865          9.899652  -0.000000
    866          9.899652  -0.000000
    867          9.899655  -0.000000
    868          9.899657  -0.000000
    869          9.899658  -0.000000
    870          9.899659  -0.000000
    871          9.899660  -0.000000
    872          9.899660  -0.000000
    873          9.899662  -0.000000
    874          9.899663  -0.000000
    875          9.899665  -0.000000
    876          9.899667  -0.000000
    877          9.899671  -0.000000
    878          9.899672  -0.000000
    879          9.899675  -0.000000
    880          9.899677  -0.000000
    881          9.899678  -0.000000
    882          9.899679  -0.000000
    883          9.899680  -0.000000
    884          9.899681  -0.000000
    885          9.899682  -0.000000
    886          9.899684  -0.000000
    887          9.899687  -0.000000
    888          9.899689  -0.000000
    889         11.111897  -0.000000
    890         11.111903  -0.000000
    891         11.111916  -0.000000
    892         11.111920  -0.000000
    893         11.111950  -0.000000
    894         11.111955  -0.000000
    895         11.111969  -0.000000
    896         11.111980  -0.000000
    897         11.345611  -0.000000
    898         11.345612  -0.000000
    899         11.345625  -0.000000
    900         11.345626  -0.000000
    901         11.345635  -0.000000
    902         11.345637  -0.000000
    903         11.345645  -0.000000
    904         11.345647  -0.000000
    905         11.345650  -0.000000
    906         11.345653  -0.000000
    907         11.345657  -0.000000
    908         11.345661  -0.000000
    909         11.345683  -0.000000
    910         11.345687  -0.000000
    911         11.345690  -0.000000
    912         11.345694  -0.000000
    913         11.345696  -0.000000
    914         11.345697  -0.000000
    915         11.345707  -0.000000
    916         11.345708  -0.000000
    917         11.345718  -0.000000
    918         11.345719  -0.000000
    919         11.345731  -0.000000
    920         11.345732  -0.000000
    921         11.482764  -0.000000
    922         11.482767  -0.000000
    923         11.482771  -0.000000
    924         11.482773  -0.000000
