       N       E                     dE             d eps       ncg     rms          rms(c)
DAV:   1     0.151987615175E+05    0.15199E+05   -0.66079E+05  7392   0.130E+03
DAV:   2     0.628312997193E+03   -0.14570E+05   -0.14157E+05  7724   0.463E+02
DAV:   3    -0.844570124841E+03   -0.14729E+04   -0.13781E+04 11376   0.104E+02
DAV:   4    -0.104808621798E+04   -0.20352E+03   -0.19786E+03 10920   0.317E+01
DAV:   5    -0.106153079488E+04   -0.13445E+02   -0.13389E+02 10128   0.716E+00    0.186E+02
DAV:   6    -0.103905172995E+04    0.22479E+02   -0.41616E+01  8728   0.847E+00    0.842E+01
DAV:   7    -0.103629736855E+04    0.27544E+01   -0.30093E+01  9120   0.627E+00    0.891E+00
DAV:   8    -0.103691849552E+04   -0.62113E+00   -0.47148E+00  9456   0.237E+00    0.896E-01
DAV:   9    -0.103690204027E+04    0.16455E-01   -0.10576E-01  8856   0.381E-01    0.653E-01
DAV:  10    -0.103689723878E+04    0.48015E-02   -0.11217E-02 10016   0.126E-01    0.169E-01
DAV:  11    -0.103689719345E+04    0.45335E-04   -0.79418E-04  8984   0.376E-02    0.418E-02
DAV:  12    -0.103689717732E+04    0.16131E-04   -0.11857E-04  8808   0.146E-02    0.205E-02
DAV:  13    -0.103689715904E+04    0.18274E-04   -0.11532E-05  8048   0.421E-03    0.458E-03
DAV:  14    -0.103689715718E+04    0.18595E-05   -0.56980E-07  4208   0.105E-03    0.125E-03
DAV:  15    -0.103689715808E+04   -0.90040E-06   -0.24235E-07  4152   0.518E-04
   1 F= -.10368972E+04 E0= -.10369986E+04  d E =-.103690E+04
       N       E                     dE             d eps       ncg     rms          rms(c)
DAV:   1    -0.312752018347E+04   -0.20906E+04   -0.66072E+04  8192   0.359E+02    0.321E+02
DAV:   2    -0.114523718493E+04    0.19823E+04   -0.92620E+03  9348   0.113E+02    0.221E+02
DAV:   3    -0.921747273359E+03    0.22349E+03   -0.13855E+03  9304   0.314E+01    0.105E+02
DAV:   4    -0.977410185930E+03   -0.55663E+02   -0.46130E+02  9216   0.138E+01    0.514E+01
DAV:   5    -0.104648795398E+04   -0.69078E+02   -0.20341E+02  9600   0.656E+00    0.709E+00
DAV:   6    -0.104794788025E+04   -0.14599E+01   -0.40323E+00  7864   0.212E+00    0.312E+00
DAV:   7    -0.104829881932E+04   -0.35094E+00   -0.47196E-01  9608   0.522E-01    0.139E+00
DAV:   8    -0.104830586701E+04   -0.70477E-02   -0.35711E-02  9080   0.211E-01    0.799E-01
DAV:   9    -0.104830299665E+04    0.28704E-02   -0.29024E-03  8728   0.660E-02    0.158E-01
DAV:  10    -0.104830297671E+04    0.19946E-04   -0.41269E-04  9824   0.164E-02    0.167E-02
DAV:  11    -0.104830295424E+04    0.22464E-04   -0.13258E-05  6296   0.269E-03    0.576E-03
DAV:  12    -0.104830293404E+04    0.20203E-04   -0.43179E-06  5056   0.114E-03    0.279E-03
DAV:  13    -0.104830293679E+04   -0.27496E-05   -0.27234E-07  4024   0.540E-04    0.103E-03
DAV:  14    -0.104830293652E+04    0.26890E-06   -0.11729E-07  3944   0.331E-04
   2 F= -.10483029E+04 E0= -.10483327E+04  d E =-.114058E+02
       N       E                     dE             d eps       ncg     rms          rms(c)
DAV:   1    -0.159169491243E+04   -0.54339E+03   -0.16148E+04  8336   0.175E+02    0.227E+02
DAV:   2    -0.112605673349E+04    0.46564E+03   -0.10956E+03  8392   0.401E+01    0.593E+01
DAV:   3    -0.105700451621E+04    0.69052E+02   -0.36021E+02  8652   0.204E+01    0.398E+01
DAV:   4    -0.106921311363E+04   -0.12209E+02   -0.46351E+01  9328   0.316E+00    0.117E+01
DAV:   5    -0.107549121867E+04   -0.62781E+01   -0.29149E+01  9200   0.444E+00    0.773E+00
DAV:   6    -0.107546004555E+04    0.31173E-01   -0.15177E+00  8560   0.143E+00    0.104E+00
DAV:   7    -0.107545569769E+04    0.43479E-02   -0.91220E-02  9800   0.280E-01    0.118E-01
DAV:   8    -0.107545578499E+04   -0.87298E-04   -0.30621E-03  9352   0.504E-02    0.428E-02
DAV:   9    -0.107545570340E+04    0.81585E-04   -0.15692E-04  8484   0.106E-02    0.330E-02
DAV:  10    -0.107545574131E+04   -0.37912E-04   -0.11043E-05  6936   0.336E-03    0.976E-03
DAV:  11    -0.107545575504E+04   -0.13720E-04   -0.67576E-07  3944   0.107E-03    0.680E-03
DAV:  12    -0.107545576214E+04   -0.71088E-05   -0.28650E-07  3864   0.712E-04    0.279E-03
DAV:  13    -0.107545576498E+04   -0.28380E-05   -0.13459E-07  3844   0.475E-04    0.375E-04
DAV:  14    -0.107545576512E+04   -0.14046E-06   -0.54099E-08  3828   0.252E-04
   3 F= -.10754558E+04 E0= -.10754343E+04  d E =-.385586E+02
       N       E                     dE             d eps       ncg     rms          rms(c)
DAV:   1    -0.107564929192E+04   -0.19353E+00   -0.58641E+00  8552   0.344E+00    0.425E+00
DAV:   2    -0.107548828266E+04    0.16101E+00   -0.52662E-01  8780   0.839E-01    0.123E+00
DAV:   3    -0.107545967650E+04    0.28606E-01   -0.14336E-01  8452   0.401E-01    0.657E-01
DAV:   4    -0.107546494604E+04   -0.52695E-02   -0.18402E-02  9264   0.543E-02    0.266E-01
DAV:   5    -0.107546895742E+04   -0.40114E-02   -0.11997E-02  9200   0.840E-02    0.169E-01
DAV:   6    -0.107546919797E+04   -0.24054E-03   -0.63091E-04  8384   0.269E-02    0.275E-02
DAV:   7    -0.107546922077E+04   -0.22803E-04   -0.26867E-05  8880   0.496E-03    0.764E-03
DAV:   8    -0.107546922604E+04   -0.52654E-05   -0.57451E-07  3904   0.951E-04    0.479E-03
DAV:   9    -0.107546923242E+04   -0.63795E-05   -0.56051E-07  3812   0.908E-04    0.639E-04
DAV:  10    -0.107546923191E+04    0.50942E-06   -0.11043E-07  3804   0.342E-04
   4 F= -.10754692E+04 E0= -.10754451E+04  d E =-.385721E+02
       N       E                     dE             d eps       ncg     rms          rms(c)
DAV:   1    -0.107547602138E+04   -0.67890E-02   -0.21723E-01  8568   0.663E-01    0.817E-01
DAV:   2    -0.107546989392E+04    0.61275E-02   -0.19571E-02  8764   0.162E-01    0.238E-01
DAV:   3    -0.107546880502E+04    0.10889E-02   -0.53424E-03  8468   0.775E-02    0.126E-01
DAV:   4    -0.107546908543E+04   -0.28041E-03   -0.68109E-04  9132   0.105E-02    0.522E-02
DAV:   5    -0.107546934210E+04   -0.25667E-03   -0.44358E-04  9216   0.160E-02    0.306E-02
DAV:   6    -0.107546937421E+04   -0.32105E-04   -0.21990E-05  7704   0.502E-03    0.616E-03
DAV:   7    -0.107546938003E+04   -0.58186E-05   -0.80966E-07  3836   0.110E-03    0.135E-03
DAV:   8    -0.107546938177E+04   -0.17405E-05   -0.26622E-07  3748   0.575E-04    0.117E-03
DAV:   9    -0.107546938280E+04   -0.10307E-05   -0.17165E-07  3756   0.483E-04    0.349E-04
DAV:  10    -0.107546938247E+04    0.33066E-06   -0.75604E-08  3744   0.272E-04
   5 F= -.10754694E+04 E0= -.10754447E+04  d E =-.385722E+02
