Nb Ta                                   
    1.000000000000000     
    13.2506051884880094   -0.0000746939752296   -0.0003341870715446
    -0.0000747281077392   13.2519498875285997   -0.0011159600512936
    -0.0003341727155365   -0.0011155529751211   13.2515247938119121
   Nb   Ta
    80    48
Direct
  0.8752863828952903  0.6266216607533041  0.3755755560851268
 -0.0009130411626039  0.5012764104631960  0.4997936594394823
  0.7513369470846347 -0.0001567048329460  0.2502320352085770
  0.3752896824159587  0.1249157175118017  0.1241379834936408
  0.3757767062815630  0.3768979094950352  0.6245916315095863
  0.8748197750282664  0.3764797467384750  0.3762995260935798
  0.6244300308629703  0.3761491356921920  0.3745774547577498
  0.1261963674874127  0.6236572488145952  0.6243839349655107
  0.5015466473832706  0.0012177943122450  0.5001946979747979
  0.8724638962477452  0.3742647721521379  0.1240321687887639
  0.8755644700394102  0.8756488875811441  0.6250690945434271
 -0.0001473775965059  0.7484649831998321  0.7480769577136479
  0.7506267890289838  0.4990479786393754  0.5006472803451929
  0.6259373460996858  0.6246615610833959  0.8766408713002769
  0.8734115499873564  0.3768943227985075  0.8757945552648456
  0.2487125444369517  0.0010215490743111  0.4994148659095924
  0.1251358131890489  0.3761306167543804  0.3772857233754823
  0.5007280269598746  0.7504678482954092  0.5000303128718406
  0.3754759937983152  0.8751489206681813  0.1250121907808747
  0.0010395378191596  0.7513006709444544  0.5003199438880528
  0.0003465217820363  0.7504792527537005  0.0002705186408185
  0.4993517626837455  0.7496687062854009  0.2499757890947949
 -0.0001897032943943  0.7492776901332213  0.2505034573079769
  0.1250137055436815  0.3750491783365106  0.1257337279598520
  0.7491807317613866  0.7510661730750599  0.0010784504245893
  0.7493867088066661  0.7513492703982959  0.5002809837005152
  0.3750214466005942  0.1234388048161210  0.3746994046634092
  0.6247974470184418  0.6238277261917762  0.1251674091867914
  0.3766175147675220  0.3740871151367697  0.8747060901893549
  0.4994996770607927  0.7504475364000662 -0.0007454218645692
  0.6258522567587580  0.8742015643006938  0.8768779298110699
  0.2511292677043833  0.0004214472748548  0.0004423878494499
  0.3777196849864407  0.3748341706641840  0.1265931272034282
  0.8763296022249315  0.1243077719564743  0.8744366524620643
  0.4981700129320701  0.2509120438197395  0.7483796716746788
  0.3753748439966487  0.3777673453204518  0.3744963258170320
  0.2512488948360320  0.7500289076286802  0.0008639738281718
  0.6239759440604460  0.6228116453846338  0.6226296773470786
  0.1267484470843266  0.8767236629091092  0.6253983961283980
  0.2496465972218802  0.7492453203621788  0.7500305585969170
  0.5018354171704935 -0.0022568136766025  0.7515854122526178
  0.5002751012518274  0.4982320429787523  0.5011431248780100
  0.4984199811749336  0.2494861150051206  0.0004828888881138
  0.1247788121129259  0.6264761821469133  0.8760485271459814
  0.0012936545587917  0.2510912188637598 -0.0000444500445480
  0.2486948149917186  0.5001308033106796  0.2485364169912041
  0.8745498066047365  0.8753019081256233  0.1254175485456707
  0.8743955931227858  0.3736627130819648  0.6241537286425332
  0.7498969285105797  0.2487581646142653  0.0000245165056767
  0.1244562425268586  0.3739392837693785  0.8746397818659797
  0.6238655568144972  0.1238464435449510  0.3727226801165520
  0.6251731141279311  0.1267782603630256  0.6267126530117083
  0.5003882324541310  0.5005166440165094  0.2482987669018913
  0.1257315647055581  0.1253193422094583  0.3755300586049224
  0.7495744526880158  0.5001806386214607 -0.0007918160841738
  0.6230842502779567  0.1267841117857182  0.8759081170401638
  0.3741253547968197  0.1220988667606215  0.6269661289904390
  0.6230682200399963  0.8754232204525584  0.6233391841186928
  0.2487293996764799  0.7506314457685637  0.4978180301399600
  0.6233610603395117  0.6239988805501453  0.3747342602615094
  0.2498942471194979  0.0002278779172381  0.7496220922027840
  0.2497651088221678  0.4990154076738760  0.5008839762369484
  0.1238786479646419  0.8743506261363011  0.3737931016147824
  0.6258727851772039  0.3738675913334962  0.8752704917874526
  0.1237768805515654  0.8765202938571726  0.8756548664703168
  0.4994943842393447  0.2496404442332303  0.2521253847250524
  0.8762842437081735  0.6247969815944141  0.1229888935240485
 -0.0002325614646447  0.2489111195689634  0.4986511839621912
  0.7512209588700905  0.2499979104875105  0.7494392879592475
  0.4990549029190671 -0.0005645640179658  0.2488987639903084
  0.2495907869959477 -0.0006741362478120  0.2508117488519527
  0.3743313356470305  0.8750917158235768  0.8732686989444195
 -0.0011808179212066  0.0002502487969813  0.7501936499610841
  0.8751603751156856  0.1237088024217843  0.3753760429299523
  0.8756832054542146  0.6251083478105114  0.6251088467548203
  0.6259780429435361  0.8750350225579711  0.3731913757132030
  0.3759537845128137  0.8733876064960320  0.3774443726668272
  0.7517793741056769  0.5005322927258202  0.2500960698486329
  0.3740356396306602  0.6250472506812713  0.1252871598184067
  0.1260400408732035  0.6243957224528389  0.3734870801007651
  0.2533520927490631  0.2490398538904122  0.4999589199018946
  0.7500564057260772  0.0002307327385614 -0.0024752874040104
  0.8751689184768879  0.6274343152055438  0.8753157270940899
  0.2507813046719262  0.2520174685334425  0.0012459010392275
  0.7512853711075291  0.2508673379187258  0.2535643576296084
  0.0017514192687864  0.4999763504199357 -0.0000583443088183
  0.3740040685912021  0.6266436741051881  0.6241515898832442
  0.5006168274179243  0.5016972020153708  0.7518790912396096
  0.3735808017594280  0.1244212671191536  0.8743813919200485
 -0.0004011522076639  0.4992326418069657  0.7514745628268079
  0.7475501186130216  0.2477972371000404  0.4977338432549138
  0.3745603051553827  0.8733676893240268  0.6243500166834941
  0.1254222338198667  0.8749553769950266  0.1251261602158314
  0.7503921594279483  0.0012873429561039  0.5018866891982878
  0.1267541139796461  0.1243545637019225  0.8754330256107484
  0.2492091351515802  0.4988201758488592  0.7517706408966324
  0.6255649772946463  0.3744049081347251  0.6253550404560697
  0.0004626083919073  0.2524742895810036  0.7513719899014183
  0.1254169263749992  0.6269492962469188  0.1250550178642677
  0.0000058498324851  0.0008215280151796  0.2504117766681268
  0.8767291614945154  0.1258402205771271  0.6259240055590303
  0.6252550082901615  0.3729093148697479  0.1255049984964654
  0.8744359836552911  0.1262035991395757  0.1247226391975684
  0.2497111765342067  0.2521465055358366  0.7492991626905843
  0.0004782642703210  0.2512480374163001  0.2507948368526070
  0.7498590583794104  0.7483853130170645  0.2496267044407194
 -0.0021006853960355 -0.0005632654051087  0.0007913356896580
  0.3741190840492996  0.6263949743139445  0.8737688658274683
  0.4989160250309275  0.5000387315229354 -0.0013471498039270
 -0.0004386565317312 -0.0005053009349756  0.4987360069564426
  0.1243078180824230  0.1238815711282284  0.1233210481361864
  0.2512405778051415  0.7504433949276416  0.2510536264261852
  0.8754525967515711  0.8719416171946210  0.8737625312570866
  0.1241180837330784  0.3737790467464939  0.6230583421057512
  0.7506441084255523  0.5019743922032780  0.7496842404485968
  0.5010783949236407 -0.0000917794991339 -0.0004451455423806
  0.7472993406303259  0.7496908966563799  0.7478779531481452
 -0.0006329107839772  0.4990124250936041  0.2481268923956272
  0.6250557394718741  0.8765061610076600  0.1258762998910601
  0.3751081522062498  0.6243577446510631  0.3769024224021591
  0.7491117621000314 -0.0018535557788198  0.7501890357602613
  0.4990282558203445  0.2488835210824257  0.4997634687240089
  0.6264193113186620  0.1262257237344406  0.1255786062889173
  0.5024772653819549  0.7486539885728511  0.7500560000882559
  0.2487878649879886  0.2500627841400752  0.2503378039272596
  0.1234706361910658  0.1265986261651378  0.6263864751723928
  0.2501927330356242  0.4982574981303039 -0.0012046391948655
  0.8743229885050419  0.8736821642511681  0.3751733209192750
 
  0.00000000E+00  0.00000000E+00  0.00000000E+00
  0.00000000E+00  0.00000000E+00  0.00000000E+00
  0.00000000E+00  0.00000000E+00  0.00000000E+00
  0.00000000E+00  0.00000000E+00  0.00000000E+00
  0.00000000E+00  0.00000000E+00  0.00000000E+00
  0.00000000E+00  0.00000000E+00  0.00000000E+00
  0.00000000E+00  0.00000000E+00  0.00000000E+00
  0.00000000E+00  0.00000000E+00  0.00000000E+00
  0.00000000E+00  0.00000000E+00  0.00000000E+00
  0.00000000E+00  0.00000000E+00  0.00000000E+00
  0.00000000E+00  0.00000000E+00  0.00000000E+00
  0.00000000E+00  0.00000000E+00  0.00000000E+00
  0.00000000E+00  0.00000000E+00  0.00000000E+00
  0.00000000E+00  0.00000000E+00  0.00000000E+00
  0.00000000E+00  0.00000000E+00  0.00000000E+00
  0.00000000E+00  0.00000000E+00  0.00000000E+00
  0.00000000E+00  0.00000000E+00  0.00000000E+00
  0.00000000E+00  0.00000000E+00  0.00000000E+00
  0.00000000E+00  0.00000000E+00  0.00000000E+00
  0.00000000E+00  0.00000000E+00  0.00000000E+00
  0.00000000E+00  0.00000000E+00  0.00000000E+00
  0.00000000E+00  0.00000000E+00  0.00000000E+00
  0.00000000E+00  0.00000000E+00  0.00000000E+00
  0.00000000E+00  0.00000000E+00  0.00000000E+00
  0.00000000E+00  0.00000000E+00  0.00000000E+00
  0.00000000E+00  0.00000000E+00  0.00000000E+00
  0.00000000E+00  0.00000000E+00  0.00000000E+00
  0.00000000E+00  0.00000000E+00  0.00000000E+00
  0.00000000E+00  0.00000000E+00  0.00000000E+00
  0.00000000E+00  0.00000000E+00  0.00000000E+00
  0.00000000E+00  0.00000000E+00  0.00000000E+00
  0.00000000E+00  0.00000000E+00  0.00000000E+00
  0.00000000E+00  0.00000000E+00  0.00000000E+00
  0.00000000E+00  0.00000000E+00  0.00000000E+00
  0.00000000E+00  0.00000000E+00  0.00000000E+00
  0.00000000E+00  0.00000000E+00  0.00000000E+00
  0.00000000E+00  0.00000000E+00  0.00000000E+00
  0.00000000E+00  0.00000000E+00  0.00000000E+00
  0.00000000E+00  0.00000000E+00  0.00000000E+00
  0.00000000E+00  0.00000000E+00  0.00000000E+00
  0.00000000E+00  0.00000000E+00  0.00000000E+00
  0.00000000E+00  0.00000000E+00  0.00000000E+00
  0.00000000E+00  0.00000000E+00  0.00000000E+00
  0.00000000E+00  0.00000000E+00  0.00000000E+00
  0.00000000E+00  0.00000000E+00  0.00000000E+00
  0.00000000E+00  0.00000000E+00  0.00000000E+00
  0.00000000E+00  0.00000000E+00  0.00000000E+00
  0.00000000E+00  0.00000000E+00  0.00000000E+00
  0.00000000E+00  0.00000000E+00  0.00000000E+00
  0.00000000E+00  0.00000000E+00  0.00000000E+00
  0.00000000E+00  0.00000000E+00  0.00000000E+00
  0.00000000E+00  0.00000000E+00  0.00000000E+00
  0.00000000E+00  0.00000000E+00  0.00000000E+00
  0.00000000E+00  0.00000000E+00  0.00000000E+00
  0.00000000E+00  0.00000000E+00  0.00000000E+00
  0.00000000E+00  0.00000000E+00  0.00000000E+00
  0.00000000E+00  0.00000000E+00  0.00000000E+00
  0.00000000E+00  0.00000000E+00  0.00000000E+00
  0.00000000E+00  0.00000000E+00  0.00000000E+00
  0.00000000E+00  0.00000000E+00  0.00000000E+00
  0.00000000E+00  0.00000000E+00  0.00000000E+00
  0.00000000E+00  0.00000000E+00  0.00000000E+00
  0.00000000E+00  0.00000000E+00  0.00000000E+00
  0.00000000E+00  0.00000000E+00  0.00000000E+00
  0.00000000E+00  0.00000000E+00  0.00000000E+00
  0.00000000E+00  0.00000000E+00  0.00000000E+00
  0.00000000E+00  0.00000000E+00  0.00000000E+00
  0.00000000E+00  0.00000000E+00  0.00000000E+00
  0.00000000E+00  0.00000000E+00  0.00000000E+00
  0.00000000E+00  0.00000000E+00  0.00000000E+00
  0.00000000E+00  0.00000000E+00  0.00000000E+00
  0.00000000E+00  0.00000000E+00  0.00000000E+00
  0.00000000E+00  0.00000000E+00  0.00000000E+00
  0.00000000E+00  0.00000000E+00  0.00000000E+00
  0.00000000E+00  0.00000000E+00  0.00000000E+00
  0.00000000E+00  0.00000000E+00  0.00000000E+00
  0.00000000E+00  0.00000000E+00  0.00000000E+00
  0.00000000E+00  0.00000000E+00  0.00000000E+00
  0.00000000E+00  0.00000000E+00  0.00000000E+00
  0.00000000E+00  0.00000000E+00  0.00000000E+00
  0.00000000E+00  0.00000000E+00  0.00000000E+00
  0.00000000E+00  0.00000000E+00  0.00000000E+00
  0.00000000E+00  0.00000000E+00  0.00000000E+00
  0.00000000E+00  0.00000000E+00  0.00000000E+00
  0.00000000E+00  0.00000000E+00  0.00000000E+00
  0.00000000E+00  0.00000000E+00  0.00000000E+00
  0.00000000E+00  0.00000000E+00  0.00000000E+00
  0.00000000E+00  0.00000000E+00  0.00000000E+00
  0.00000000E+00  0.00000000E+00  0.00000000E+00
  0.00000000E+00  0.00000000E+00  0.00000000E+00
  0.00000000E+00  0.00000000E+00  0.00000000E+00
  0.00000000E+00  0.00000000E+00  0.00000000E+00
  0.00000000E+00  0.00000000E+00  0.00000000E+00
  0.00000000E+00  0.00000000E+00  0.00000000E+00
  0.00000000E+00  0.00000000E+00  0.00000000E+00
  0.00000000E+00  0.00000000E+00  0.00000000E+00
  0.00000000E+00  0.00000000E+00  0.00000000E+00
  0.00000000E+00  0.00000000E+00  0.00000000E+00
  0.00000000E+00  0.00000000E+00  0.00000000E+00
  0.00000000E+00  0.00000000E+00  0.00000000E+00
  0.00000000E+00  0.00000000E+00  0.00000000E+00
  0.00000000E+00  0.00000000E+00  0.00000000E+00
  0.00000000E+00  0.00000000E+00  0.00000000E+00
  0.00000000E+00  0.00000000E+00  0.00000000E+00
  0.00000000E+00  0.00000000E+00  0.00000000E+00
  0.00000000E+00  0.00000000E+00  0.00000000E+00
  0.00000000E+00  0.00000000E+00  0.00000000E+00
  0.00000000E+00  0.00000000E+00  0.00000000E+00
  0.00000000E+00  0.00000000E+00  0.00000000E+00
  0.00000000E+00  0.00000000E+00  0.00000000E+00
  0.00000000E+00  0.00000000E+00  0.00000000E+00
  0.00000000E+00  0.00000000E+00  0.00000000E+00
  0.00000000E+00  0.00000000E+00  0.00000000E+00
  0.00000000E+00  0.00000000E+00  0.00000000E+00
  0.00000000E+00  0.00000000E+00  0.00000000E+00
  0.00000000E+00  0.00000000E+00  0.00000000E+00
  0.00000000E+00  0.00000000E+00  0.00000000E+00
  0.00000000E+00  0.00000000E+00  0.00000000E+00
  0.00000000E+00  0.00000000E+00  0.00000000E+00
  0.00000000E+00  0.00000000E+00  0.00000000E+00
  0.00000000E+00  0.00000000E+00  0.00000000E+00
  0.00000000E+00  0.00000000E+00  0.00000000E+00
  0.00000000E+00  0.00000000E+00  0.00000000E+00
  0.00000000E+00  0.00000000E+00  0.00000000E+00
  0.00000000E+00  0.00000000E+00  0.00000000E+00
  0.00000000E+00  0.00000000E+00  0.00000000E+00
  0.00000000E+00  0.00000000E+00  0.00000000E+00
  0.00000000E+00  0.00000000E+00  0.00000000E+00
