Ti                                      
    1.000000000000000     
    11.7352717795379267   -0.0003993948173804   -0.0000416453360206
    -5.8679818423502352   10.1628434210559622    0.0000416612169830
    -0.0000660194705421    0.0000381713599202   18.5673410566596999
  Ti            
   128
Direct
     0.9167199741150424    0.0832796107578315    0.9374979911887220
     0.3332776674473676    0.6667216371527805    0.3125013310317183
     0.3332780344277491    0.6667219414660868    0.0625015011320011
     0.3332748459200683    0.4167210075792347    0.8125003684036252
     0.3332747788693532    0.4167208228465968    0.5625020496096392
     0.3332747645824119    0.4167210183194128    0.3125013616514022
     0.3332750126980520    0.4167211337999138    0.0625016149688855
     0.3332780298942966    0.1667220177205511    0.8125003198597993
     0.3332781777870014    0.1667223168138174    0.5625020726277143
     0.3332779609293256    0.1667223612432774    0.3125015409513968
     0.3332780120178917    0.1667222315106166    0.0625014773132608
     0.3332745940781116    0.9167208554582172    0.8125004316068963
     0.3332745530845905    0.9167210034933768    0.5625021258078592
     0.3332742482256589    0.9167204776549522    0.3125015238943044
     0.3332777001476894    0.6667217717181563    0.5625021116540894
     0.3332744456975646    0.9167205503602354    0.0625013159985273
     0.0832790737442466    0.6667253318261285    0.5625020435426767
     0.0832793329856139    0.6667253642621546    0.3125014634856836
     0.0832794816806361    0.6667256078360324    0.0625014710367424
     0.0832799386889553    0.4167203032481971    0.8125003688110398
     0.0832796571237885    0.4167201108573482    0.5625019870108956
     0.0832800668247213    0.4167204150253411    0.3125014474776860
     0.0832800769372189    0.4167204245391504    0.0625016002977497
     0.0832789191983064    0.1667250256911772    0.8125003556375721
     0.0832789304448333    0.1667252512499727    0.5625019903195515
     0.0832791273710128    0.1667253773216889    0.3125015902124271
     0.0832790545355398    0.1667251504005504    0.0625014582775441
     0.0832798969334208    0.9167202371814672    0.8125004048769859
     0.0832797327030349    0.9167201931427069    0.5625020640641913
     0.0832796002051654    0.6667258161772962    0.8125004111422468
     0.0832796538430861    0.9167200026189917    0.3125016090311191
     0.3332779883507803    0.6667221531312865    0.8125004587748880
     0.5832799101179034    0.9167201786247383    0.3125014447095626
     0.8332780138063862    0.6667221344791654    0.3125014411039786
     0.8332779382220201    0.6667222560543988    0.0625014720228383
     0.8332742633573850    0.4167204899483085    0.8125003370028138
     0.8332742321230552    0.4167205392406048    0.5625020258084948
     0.8332746090064744    0.4167208299955897    0.3125015042976723
     0.8332744622877085    0.4167207825223427    0.0625015245035108
     0.8332776431153252    0.1667217196987141    0.8125003470312820
     0.8332778678605651    0.1667221021642505    0.5625020586669209
     0.8332780592355145    0.1667221122552669    0.3125015731670133
     0.8332778332640245    0.1667218160495745    0.0625014369128531
     0.8332748389580344    0.9167211265339010    0.8125004366575219
     0.8332749577712467    0.9167211812963956    0.5625020948093061
     0.8332748806362404    0.9167209158920898    0.3125015300026554
     0.5832798423421636    0.9167200910904247    0.0625013475204996
     0.8332747259122937    0.9167207675562798    0.0625013401275456
     0.5832790920492238    0.6667250544555074    0.5625021331990923
     0.5832789261969610    0.6667250413148506    0.3125013264855899
     0.5832790290120365    0.6667251961714896    0.0625014619423812
     0.5832795869728702    0.4167198793517433    0.8125003321184816
     0.5832798326431661    0.4167199424344019    0.5625021157313689
     0.5832797263783408    0.4167201851587891    0.3125014076865218
     0.5832797082022275    0.4167202091036800    0.0625015574503309
     0.5832791535843377    0.1667253019253615    0.8125003151401379
     0.5832795070736425    0.1667258136983048    0.5625021276650931
     0.5832794616493258    0.1667257240335993    0.3125015696887103
     0.5832792720648732    0.1667254548310348    0.0625013890328138
     0.5832798647110468    0.9167204467548883    0.8125004747245164
     0.5832801473191512    0.9167206890115032    0.5625021469811281
     0.5832789603776848    0.6667253443475143    0.8125004684368513
     0.0832796899700731    0.9167200168993910    0.0625013356301579
     0.6667221458133493    0.8332781693630371    0.6874985368582294
     0.6667222796642597    0.8332780532884607    0.4374991828273592
     0.1667220794115146    0.8332780858253372    0.9374980263008350
     0.1667255007155485    0.5832793237050428    0.6874985269993564
     0.1667253629803530    0.5832791027533387    0.4374991662008826
     0.1667256488999114    0.5832793913814955    0.1874988912379288
     0.1667257641560685    0.5832795276924858    0.9374980174036422
     0.1667220769269851    0.3332779748050769    0.6874985574111646
     0.1667219992812309    0.3332779919832698    0.4374992460999451
     0.1667222874154692    0.3332783903004087    0.1874988161610827
     0.1667221103074507    0.3332779574421022    0.9374979726653067
     0.1667254339834092    0.0832790778239147    0.6874986263956391
     0.1667253507057452    0.0832790343516051    0.4374991873701641
     0.1667252629945070    0.0832790303792812    0.1874987770389549
     0.1667252130893212    0.0832787440919319    0.9374980141140860
     0.1667216932108777    0.8332776773989394    0.1874987923664706
     0.9167210733037220    0.8332747784482120    0.6874985163603894
     0.9167208839269494    0.8332745473118132    0.1874988311862170
     0.9167211894782472    0.8332749673539560    0.9374981238584613
     0.9167201832720571    0.5832798029082797    0.6874983511755933
     0.9167202022631268    0.5832797524153246    0.4374992523340192
     0.9167202958700567    0.5832801209499422    0.1874988772167581
     0.9167204596449119    0.5832801109654040    0.9374981095035678
     0.9167204643606778    0.3332742554786224    0.6874984212806431
     0.9167206589539261    0.3332743631139540    0.4374993370980449
     0.9167209354089324    0.3332746997549381    0.1874988683062987
     0.9167206937157923    0.3332742304105326    0.9374979808745776
     0.9167200163117545    0.0832799610370163    0.6874985454307792
     0.9167201330491487    0.0832800449444093    0.4374992374999723
     0.9167200243395291    0.0832798258878765    0.1874988126420567
     0.9167210884046133    0.8332746117622866    0.4374991347457742
     0.1667217429815025    0.8332776969673892    0.4374991482349194
     0.1667220205440083    0.8332779566675720    0.6874986171060978
     0.4167202755434877    0.0832797696976195    0.9374979495217383
     0.6667219180384250    0.8332777909931657    0.1874987824557013
     0.6667220654874028    0.8332781686412233    0.9374980980843253
     0.6667252198159098    0.5832787833233388    0.6874983532761129
     0.6667254354789400    0.5832788107786044    0.4374992741979951
     0.6667252091379590    0.5832790625787482    0.1874988084212786
     0.6667252245951895    0.5832790326804900    0.9374981633343004
     0.6667217509785047    0.3332776143982281    0.6874983763983697
     0.6667220706874271    0.3332779151143541    0.4374994283739385
     0.6667218880336245    0.3332781884683340    0.1874987897565643
     0.6667216806872057    0.3332775981549075    0.9374979868870507
     0.6667255092919560    0.0832795540940173    0.6874985183538305
     0.6667259013993392    0.0832796924912382    0.4374993607211112
     0.6667255175480188    0.0832792600208862    0.1874987859518765
     0.6667253231137424    0.0832790615969214    0.9374979397002703
     0.4167207815389253    0.8332746553485416    0.6874986271451857
     0.4167206533808959    0.8332742898439537    0.4374991968464689
     0.4167205257465925    0.8332740755229289    0.1874987862132031
     0.4167208430584013    0.8332745864021235    0.9374980094650669
     0.4167199863451145    0.5832797297427706    0.6874985089503848
     0.4167199176351048    0.5832796249059704    0.4374991948468729
     0.4167199373426814    0.5832798765883610    0.1874988369354291
     0.4167201582824548    0.5832800064284265    0.9374980442192334
     0.4167211051287884    0.3332745864462894    0.6874984851446991
     0.4167210897456830    0.3332746220155656    0.4374992965409177
     0.4167210419456003    0.3332750098604503    0.1874987867633001
     0.4167210473948070    0.3332746273023057    0.9374980353024203
     0.4167205528808871    0.0832801804432444    0.6874985656500203
     0.4167204554164162    0.0832802042893085    0.4374993435950194
     0.4167201748150848    0.0832800195731617    0.1874987342253899
     0.8332778978927445    0.6667219685658492    0.5625021253222012
     0.8332780465140059    0.6667223574269123    0.8125003671380279
 
  0.00000000E+00  0.00000000E+00  0.00000000E+00
  0.00000000E+00  0.00000000E+00  0.00000000E+00
  0.00000000E+00  0.00000000E+00  0.00000000E+00
  0.00000000E+00  0.00000000E+00  0.00000000E+00
  0.00000000E+00  0.00000000E+00  0.00000000E+00
  0.00000000E+00  0.00000000E+00  0.00000000E+00
  0.00000000E+00  0.00000000E+00  0.00000000E+00
  0.00000000E+00  0.00000000E+00  0.00000000E+00
  0.00000000E+00  0.00000000E+00  0.00000000E+00
  0.00000000E+00  0.00000000E+00  0.00000000E+00
  0.00000000E+00  0.00000000E+00  0.00000000E+00
  0.00000000E+00  0.00000000E+00  0.00000000E+00
  0.00000000E+00  0.00000000E+00  0.00000000E+00
  0.00000000E+00  0.00000000E+00  0.00000000E+00
  0.00000000E+00  0.00000000E+00  0.00000000E+00
  0.00000000E+00  0.00000000E+00  0.00000000E+00
  0.00000000E+00  0.00000000E+00  0.00000000E+00
  0.00000000E+00  0.00000000E+00  0.00000000E+00
  0.00000000E+00  0.00000000E+00  0.00000000E+00
  0.00000000E+00  0.00000000E+00  0.00000000E+00
  0.00000000E+00  0.00000000E+00  0.00000000E+00
  0.00000000E+00  0.00000000E+00  0.00000000E+00
  0.00000000E+00  0.00000000E+00  0.00000000E+00
  0.00000000E+00  0.00000000E+00  0.00000000E+00
  0.00000000E+00  0.00000000E+00  0.00000000E+00
  0.00000000E+00  0.00000000E+00  0.00000000E+00
  0.00000000E+00  0.00000000E+00  0.00000000E+00
  0.00000000E+00  0.00000000E+00  0.00000000E+00
  0.00000000E+00  0.00000000E+00  0.00000000E+00
  0.00000000E+00  0.00000000E+00  0.00000000E+00
  0.00000000E+00  0.00000000E+00  0.00000000E+00
  0.00000000E+00  0.00000000E+00  0.00000000E+00
  0.00000000E+00  0.00000000E+00  0.00000000E+00
  0.00000000E+00  0.00000000E+00  0.00000000E+00
  0.00000000E+00  0.00000000E+00  0.00000000E+00
  0.00000000E+00  0.00000000E+00  0.00000000E+00
  0.00000000E+00  0.00000000E+00  0.00000000E+00
  0.00000000E+00  0.00000000E+00  0.00000000E+00
  0.00000000E+00  0.00000000E+00  0.00000000E+00
  0.00000000E+00  0.00000000E+00  0.00000000E+00
  0.00000000E+00  0.00000000E+00  0.00000000E+00
  0.00000000E+00  0.00000000E+00  0.00000000E+00
  0.00000000E+00  0.00000000E+00  0.00000000E+00
  0.00000000E+00  0.00000000E+00  0.00000000E+00
  0.00000000E+00  0.00000000E+00  0.00000000E+00
  0.00000000E+00  0.00000000E+00  0.00000000E+00
  0.00000000E+00  0.00000000E+00  0.00000000E+00
  0.00000000E+00  0.00000000E+00  0.00000000E+00
  0.00000000E+00  0.00000000E+00  0.00000000E+00
  0.00000000E+00  0.00000000E+00  0.00000000E+00
  0.00000000E+00  0.00000000E+00  0.00000000E+00
  0.00000000E+00  0.00000000E+00  0.00000000E+00
  0.00000000E+00  0.00000000E+00  0.00000000E+00
  0.00000000E+00  0.00000000E+00  0.00000000E+00
  0.00000000E+00  0.00000000E+00  0.00000000E+00
  0.00000000E+00  0.00000000E+00  0.00000000E+00
  0.00000000E+00  0.00000000E+00  0.00000000E+00
  0.00000000E+00  0.00000000E+00  0.00000000E+00
  0.00000000E+00  0.00000000E+00  0.00000000E+00
  0.00000000E+00  0.00000000E+00  0.00000000E+00
  0.00000000E+00  0.00000000E+00  0.00000000E+00
  0.00000000E+00  0.00000000E+00  0.00000000E+00
  0.00000000E+00  0.00000000E+00  0.00000000E+00
  0.00000000E+00  0.00000000E+00  0.00000000E+00
  0.00000000E+00  0.00000000E+00  0.00000000E+00
  0.00000000E+00  0.00000000E+00  0.00000000E+00
  0.00000000E+00  0.00000000E+00  0.00000000E+00
  0.00000000E+00  0.00000000E+00  0.00000000E+00
  0.00000000E+00  0.00000000E+00  0.00000000E+00
  0.00000000E+00  0.00000000E+00  0.00000000E+00
  0.00000000E+00  0.00000000E+00  0.00000000E+00
  0.00000000E+00  0.00000000E+00  0.00000000E+00
  0.00000000E+00  0.00000000E+00  0.00000000E+00
  0.00000000E+00  0.00000000E+00  0.00000000E+00
  0.00000000E+00  0.00000000E+00  0.00000000E+00
  0.00000000E+00  0.00000000E+00  0.00000000E+00
  0.00000000E+00  0.00000000E+00  0.00000000E+00
  0.00000000E+00  0.00000000E+00  0.00000000E+00
  0.00000000E+00  0.00000000E+00  0.00000000E+00
  0.00000000E+00  0.00000000E+00  0.00000000E+00
  0.00000000E+00  0.00000000E+00  0.00000000E+00
  0.00000000E+00  0.00000000E+00  0.00000000E+00
  0.00000000E+00  0.00000000E+00  0.00000000E+00
  0.00000000E+00  0.00000000E+00  0.00000000E+00
  0.00000000E+00  0.00000000E+00  0.00000000E+00
  0.00000000E+00  0.00000000E+00  0.00000000E+00
  0.00000000E+00  0.00000000E+00  0.00000000E+00
  0.00000000E+00  0.00000000E+00  0.00000000E+00
  0.00000000E+00  0.00000000E+00  0.00000000E+00
  0.00000000E+00  0.00000000E+00  0.00000000E+00
  0.00000000E+00  0.00000000E+00  0.00000000E+00
  0.00000000E+00  0.00000000E+00  0.00000000E+00
  0.00000000E+00  0.00000000E+00  0.00000000E+00
  0.00000000E+00  0.00000000E+00  0.00000000E+00
  0.00000000E+00  0.00000000E+00  0.00000000E+00
  0.00000000E+00  0.00000000E+00  0.00000000E+00
  0.00000000E+00  0.00000000E+00  0.00000000E+00
  0.00000000E+00  0.00000000E+00  0.00000000E+00
  0.00000000E+00  0.00000000E+00  0.00000000E+00
  0.00000000E+00  0.00000000E+00  0.00000000E+00
  0.00000000E+00  0.00000000E+00  0.00000000E+00
  0.00000000E+00  0.00000000E+00  0.00000000E+00
  0.00000000E+00  0.00000000E+00  0.00000000E+00
  0.00000000E+00  0.00000000E+00  0.00000000E+00
  0.00000000E+00  0.00000000E+00  0.00000000E+00
  0.00000000E+00  0.00000000E+00  0.00000000E+00
  0.00000000E+00  0.00000000E+00  0.00000000E+00
  0.00000000E+00  0.00000000E+00  0.00000000E+00
  0.00000000E+00  0.00000000E+00  0.00000000E+00
  0.00000000E+00  0.00000000E+00  0.00000000E+00
  0.00000000E+00  0.00000000E+00  0.00000000E+00
  0.00000000E+00  0.00000000E+00  0.00000000E+00
  0.00000000E+00  0.00000000E+00  0.00000000E+00
  0.00000000E+00  0.00000000E+00  0.00000000E+00
  0.00000000E+00  0.00000000E+00  0.00000000E+00
  0.00000000E+00  0.00000000E+00  0.00000000E+00
  0.00000000E+00  0.00000000E+00  0.00000000E+00
  0.00000000E+00  0.00000000E+00  0.00000000E+00
  0.00000000E+00  0.00000000E+00  0.00000000E+00
  0.00000000E+00  0.00000000E+00  0.00000000E+00
  0.00000000E+00  0.00000000E+00  0.00000000E+00
  0.00000000E+00  0.00000000E+00  0.00000000E+00
  0.00000000E+00  0.00000000E+00  0.00000000E+00
  0.00000000E+00  0.00000000E+00  0.00000000E+00
  0.00000000E+00  0.00000000E+00  0.00000000E+00
  0.00000000E+00  0.00000000E+00  0.00000000E+00
  0.00000000E+00  0.00000000E+00  0.00000000E+00
  0.00000000E+00  0.00000000E+00  0.00000000E+00
