Nb  V                                   
    1.000000000000000     
    12.9845897648551141    0.0118232412606115    0.0090640440294307
     0.0118171643506707   12.9875441960423021   -0.0111468404740049
     0.0090592580058530   -0.0111442869310591   12.9993476953989688
   Nb   V 
   100    28
Direct
  0.8717367597305712  0.6337360374892210  0.1238417141465909
  0.3760881753927854  0.3831968464522824  0.8785353461002212
  0.5060751063102983  0.7455247934220234 -0.0066210070300225
  0.6253125277154137  0.1232132093028239  0.8731401071190263
  0.6252928342111667  0.8720669236747142  0.6290709731589721
  0.2462773700670080  0.4971221608832185  0.5022536600759391
  0.3761608006514920  0.6229896362095336  0.3745270998225007
  0.8734810395753351  0.8673703434663929  0.8787021246263095
  0.2430290416975980 -0.0009520996844429  0.2494425064624807
  0.7512862683461974 -0.0038239181295107  0.0029057563135534
  0.7500304128489323  0.5063350822692381 -0.0038030536488046
  0.8727374564137247  0.8737556927168710  0.3705220290324805
  0.2527569517069905  0.7477161790111292  0.7535123959332138
  0.5033182909133019  0.4989403766372091  0.2466110758748456
  0.6303874661256400  0.6252229260382732  0.1230563889990236
  0.1237679365420592  0.1245322713420303  0.8751665908128250
  0.5008721755975641  0.2507267265752269  0.7508952532533889
  0.2487052064000425  0.4994325632622207  0.2467298447312808
  0.3772097301713617  0.1265024326631910  0.1256424511438307
  0.2489970676261567  0.7499985173253854  0.5008417778241426
  0.2509931807409660 -0.0005952963896150  0.7498563700480289
  0.6277148001783739  0.1210136388668979  0.3720593651559517
  0.1204202477989318  0.8710749355534917  0.8780616258964407
  0.7499624783563444  0.7459290045346174  0.7553666836003112
  0.1205315977896664  0.1213672706254964  0.1295479736680503
  0.6268508568639649  0.3753079476279444  0.6272811376460568
 -0.0037156865612669  0.5044531353685401 -0.0038625807721316
  0.3744796040503209  0.1247973962480924  0.3733383202154930
 -0.0032290006068299  0.4987150236674449  0.5022308011994756
 -0.0034182190695189  0.2546091674065735  0.7490551343509420
  0.6297545492068007  0.1240927406174501  0.1276499789906307
  0.7533288105703172  0.2482621791096530  0.2499048234535809
  0.4999987496148324  0.2485483738947108  0.4978601098242955
  0.1208790286101599  0.6254248629137745  0.6278879980556822
  0.5055124097724006 -0.0021474762735011  0.2505046386860539
  0.3782706154496160  0.6273911840339643  0.6307986594853273
 -0.0026736864006154  0.2452985617827287  0.2506920381796228
  0.1223592123023096  0.6281141690233604  0.8773055003686949
  0.1262222608698386  0.3779434892637101  0.1226351523196627
  0.8728757625627871  0.1270233673724896  0.8756623796046061
  0.7549810808383286  0.5027694979471976  0.4997571856137135
  0.1156556284094454  0.8787164068050808  0.3710591868752586
  0.2478829613799435  0.2471182271330952  0.2512791011587113
  0.1212235211049136  0.3722489444836227  0.3751841232248171
 -0.0017555454212576 -0.0020583128346837  0.0064595996049674
  0.3757768234204498  0.1222709141239487  0.6260709327440921
  0.5017577295974117  0.5006738321221795  0.5010782091489441
  0.1217233611533248  0.8742939962235042  0.6242113472733019
  0.2494219982221268  0.5015857108545063  0.7524486411399859
  0.3774921180082300  0.1246641076554225  0.8738481557576309
  0.8728256847762844  0.3784027960000692  0.1263738557953425
  0.5050831957071199  0.7506294217501412  0.2487209840836829
  0.3816904555491130  0.8710987081451046  0.8725194998372977
  0.8784169941016128  0.1185488256107469  0.3711565478635732
  0.6291733193693854  0.3748466619100081  0.3712308342171051
 -0.0047985080616712  0.7494210247855434  0.5016183956706579
 -0.0053795335977865  0.5014280214873659  0.2505101188179933
  0.5023328041499878 -0.0029061290071041  0.5001655115774560
  0.7505478988546720 -0.0055660857860920  0.4965471533196671
  0.3762821200757330  0.6210436881295098  0.1169854844861791
  0.2493319645570991  0.7487018252654420 -0.0001185920110999
  0.1203416696343846  0.6280325201909447  0.3732331861434268
  0.3765453156382469  0.8746887144882898  0.3751420698357678
  0.3789804503123574  0.8744044661921091  0.6292365620702582
 -0.0038641689340712  0.2510629895828931  0.0017316594111781
  0.5039403579269840 -0.0039387593020690 -0.0026972079252173
  0.3770763370410102  0.3773483897085310  0.1217505493446751
 -0.0022798555572562 -0.0029561874431484  0.7484132370762836
  0.5025798368736821  0.5085876123549476  0.7565299650276054
  0.7468592398929428 -0.0032738702184617  0.7525246597196862
  0.3729807771963715  0.3756673727644427  0.6259919479662895
  0.6258544191351141  0.1233651208710788  0.6274404308290592
  0.7545290475667406  0.5042099491970637  0.7544228629661656
  0.8773618678538925  0.8725572960815431  0.1298816348168917
  0.1209005030669270  0.1242465208160227  0.6196618836045209
  0.1201102220037765  0.6302784885682747  0.1220155183469535
  0.2469966468419694  0.2531605080173371  0.7467491250139205
 -0.0056863882201146  0.5044842028371603  0.7500906347200622
  0.8716338429946188  0.6293179781842763  0.3719988896274293
  0.6318174671913926  0.6287464514568603  0.3725294481489687
  0.2492852759548307  0.2523993682520585 -0.0002579644946008
  0.2452694923463505  0.7519071840467700  0.2472381937625050
  0.8746052457995112  0.8702352811628549  0.6233989518307347
  0.6268911780576201  0.3793340288251060  0.8761039283409848
  0.8733826148514413  0.1236607897780242  0.6235707316153949
  0.8742293674651441  0.3754622280622507  0.6267093663640501
  0.5066090234526689  0.7512407711892458  0.5009263767620826
  0.3753663271633896  0.8737276501012359  0.1235022642991401
  0.1240047211089105  0.3796673481699473  0.8743030622057429
  0.3768753351573539  0.3725363991293030  0.3717376623786857
 -0.0012208307635257  0.2496590292698758  0.4974538930354208
  0.7535920701988984  0.2515175823848507 -0.0004253622083992
  0.2482755379603553 -0.0028836240771746  0.0029930200948660
  0.5022768706265385  0.2526702227874099  0.0009693668461526
  0.2455728943227340  0.0008257886924893  0.4969745300204384
  0.2443110434050090  0.2486498538877623  0.4989846186752559
  0.7523985215440295  0.2504188152141963  0.4988174595916992
  0.6245063147884267  0.3775226555477617  0.1253721318630157
  0.6335317387645565  0.8710376482690650  0.1263892568891987
  0.6298643573617956  0.6286263653606060  0.6274979611685281
  0.7524821606840059  0.4997482902792760  0.2507114721987845
  0.8711931338816615  0.3765867223457511  0.3734053227592853
 -0.0040052781280089  0.7506368167083526  0.0007475455275573
  0.5033794240655630 -0.0070136163095283  0.7520610307942122
 -0.0059654331312450  0.7445138292014162  0.7531834118148499
  0.2542819144571861  0.5054346959730592 -0.0040140012823506
  0.4997489108786089  0.5065766247915653 -0.0045921741632941
  0.5065870763842141  0.7505902714147329  0.7576246125997895
  0.8748123829232145  0.6302703659553128  0.8778137455083957
  0.7511908075004315  0.7494643736581471  0.5000399187207722
  0.6250507410215356  0.8690982446963754  0.8734644117989161
  0.5022714461652511  0.2482482176154813  0.2491153704603389
  0.6356172482125397  0.8716752846922126  0.3733676272604344
 -0.0020743177979421  0.7560760250498222  0.2462529887693173
  0.7548435354715486 -0.0024500697378550  0.2499273731270510
  0.7507990963088690  0.7533098520501837  0.2533013760595360
  0.8714141004986383  0.3788376580047866  0.8738163908636878
 -0.0017318781752563 -0.0008857727464278  0.2495765702698793
  0.1218915633609277  0.3747727099193888  0.6242920339732133
  0.1140799023258494  0.8730891369229135  0.1277993928697436
  0.7519184504501486  0.2547079951151132  0.7523754582862553
  0.6258352352137043  0.6309919845324020  0.8773474051178491
  0.0009486532194739  0.0011739583548315  0.4930311067834621
  0.7501421691497242  0.7483829126058570 -0.0054432658021351
  0.3807813456377992  0.6246086589539438  0.8773798214281908
  0.1182233936952694  0.1185902497096425  0.3737632955373311
  0.8751713302830377  0.1174457367363487  0.1308416313415750
  0.8745019350807388  0.6291512341256927  0.6279882006646773
 
  0.00000000E+00  0.00000000E+00  0.00000000E+00
  0.00000000E+00  0.00000000E+00  0.00000000E+00
  0.00000000E+00  0.00000000E+00  0.00000000E+00
  0.00000000E+00  0.00000000E+00  0.00000000E+00
  0.00000000E+00  0.00000000E+00  0.00000000E+00
  0.00000000E+00  0.00000000E+00  0.00000000E+00
  0.00000000E+00  0.00000000E+00  0.00000000E+00
  0.00000000E+00  0.00000000E+00  0.00000000E+00
  0.00000000E+00  0.00000000E+00  0.00000000E+00
  0.00000000E+00  0.00000000E+00  0.00000000E+00
  0.00000000E+00  0.00000000E+00  0.00000000E+00
  0.00000000E+00  0.00000000E+00  0.00000000E+00
  0.00000000E+00  0.00000000E+00  0.00000000E+00
  0.00000000E+00  0.00000000E+00  0.00000000E+00
  0.00000000E+00  0.00000000E+00  0.00000000E+00
  0.00000000E+00  0.00000000E+00  0.00000000E+00
  0.00000000E+00  0.00000000E+00  0.00000000E+00
  0.00000000E+00  0.00000000E+00  0.00000000E+00
  0.00000000E+00  0.00000000E+00  0.00000000E+00
  0.00000000E+00  0.00000000E+00  0.00000000E+00
  0.00000000E+00  0.00000000E+00  0.00000000E+00
  0.00000000E+00  0.00000000E+00  0.00000000E+00
  0.00000000E+00  0.00000000E+00  0.00000000E+00
  0.00000000E+00  0.00000000E+00  0.00000000E+00
  0.00000000E+00  0.00000000E+00  0.00000000E+00
  0.00000000E+00  0.00000000E+00  0.00000000E+00
  0.00000000E+00  0.00000000E+00  0.00000000E+00
  0.00000000E+00  0.00000000E+00  0.00000000E+00
  0.00000000E+00  0.00000000E+00  0.00000000E+00
  0.00000000E+00  0.00000000E+00  0.00000000E+00
  0.00000000E+00  0.00000000E+00  0.00000000E+00
  0.00000000E+00  0.00000000E+00  0.00000000E+00
  0.00000000E+00  0.00000000E+00  0.00000000E+00
  0.00000000E+00  0.00000000E+00  0.00000000E+00
  0.00000000E+00  0.00000000E+00  0.00000000E+00
  0.00000000E+00  0.00000000E+00  0.00000000E+00
  0.00000000E+00  0.00000000E+00  0.00000000E+00
  0.00000000E+00  0.00000000E+00  0.00000000E+00
  0.00000000E+00  0.00000000E+00  0.00000000E+00
  0.00000000E+00  0.00000000E+00  0.00000000E+00
  0.00000000E+00  0.00000000E+00  0.00000000E+00
  0.00000000E+00  0.00000000E+00  0.00000000E+00
  0.00000000E+00  0.00000000E+00  0.00000000E+00
  0.00000000E+00  0.00000000E+00  0.00000000E+00
  0.00000000E+00  0.00000000E+00  0.00000000E+00
  0.00000000E+00  0.00000000E+00  0.00000000E+00
  0.00000000E+00  0.00000000E+00  0.00000000E+00
  0.00000000E+00  0.00000000E+00  0.00000000E+00
  0.00000000E+00  0.00000000E+00  0.00000000E+00
  0.00000000E+00  0.00000000E+00  0.00000000E+00
  0.00000000E+00  0.00000000E+00  0.00000000E+00
  0.00000000E+00  0.00000000E+00  0.00000000E+00
  0.00000000E+00  0.00000000E+00  0.00000000E+00
  0.00000000E+00  0.00000000E+00  0.00000000E+00
  0.00000000E+00  0.00000000E+00  0.00000000E+00
  0.00000000E+00  0.00000000E+00  0.00000000E+00
  0.00000000E+00  0.00000000E+00  0.00000000E+00
  0.00000000E+00  0.00000000E+00  0.00000000E+00
  0.00000000E+00  0.00000000E+00  0.00000000E+00
  0.00000000E+00  0.00000000E+00  0.00000000E+00
  0.00000000E+00  0.00000000E+00  0.00000000E+00
  0.00000000E+00  0.00000000E+00  0.00000000E+00
  0.00000000E+00  0.00000000E+00  0.00000000E+00
  0.00000000E+00  0.00000000E+00  0.00000000E+00
  0.00000000E+00  0.00000000E+00  0.00000000E+00
  0.00000000E+00  0.00000000E+00  0.00000000E+00
  0.00000000E+00  0.00000000E+00  0.00000000E+00
  0.00000000E+00  0.00000000E+00  0.00000000E+00
  0.00000000E+00  0.00000000E+00  0.00000000E+00
  0.00000000E+00  0.00000000E+00  0.00000000E+00
  0.00000000E+00  0.00000000E+00  0.00000000E+00
  0.00000000E+00  0.00000000E+00  0.00000000E+00
  0.00000000E+00  0.00000000E+00  0.00000000E+00
  0.00000000E+00  0.00000000E+00  0.00000000E+00
  0.00000000E+00  0.00000000E+00  0.00000000E+00
  0.00000000E+00  0.00000000E+00  0.00000000E+00
  0.00000000E+00  0.00000000E+00  0.00000000E+00
  0.00000000E+00  0.00000000E+00  0.00000000E+00
  0.00000000E+00  0.00000000E+00  0.00000000E+00
  0.00000000E+00  0.00000000E+00  0.00000000E+00
  0.00000000E+00  0.00000000E+00  0.00000000E+00
  0.00000000E+00  0.00000000E+00  0.00000000E+00
  0.00000000E+00  0.00000000E+00  0.00000000E+00
  0.00000000E+00  0.00000000E+00  0.00000000E+00
  0.00000000E+00  0.00000000E+00  0.00000000E+00
  0.00000000E+00  0.00000000E+00  0.00000000E+00
  0.00000000E+00  0.00000000E+00  0.00000000E+00
  0.00000000E+00  0.00000000E+00  0.00000000E+00
  0.00000000E+00  0.00000000E+00  0.00000000E+00
  0.00000000E+00  0.00000000E+00  0.00000000E+00
  0.00000000E+00  0.00000000E+00  0.00000000E+00
  0.00000000E+00  0.00000000E+00  0.00000000E+00
  0.00000000E+00  0.00000000E+00  0.00000000E+00
  0.00000000E+00  0.00000000E+00  0.00000000E+00
  0.00000000E+00  0.00000000E+00  0.00000000E+00
  0.00000000E+00  0.00000000E+00  0.00000000E+00
  0.00000000E+00  0.00000000E+00  0.00000000E+00
  0.00000000E+00  0.00000000E+00  0.00000000E+00
  0.00000000E+00  0.00000000E+00  0.00000000E+00
  0.00000000E+00  0.00000000E+00  0.00000000E+00
  0.00000000E+00  0.00000000E+00  0.00000000E+00
  0.00000000E+00  0.00000000E+00  0.00000000E+00
  0.00000000E+00  0.00000000E+00  0.00000000E+00
  0.00000000E+00  0.00000000E+00  0.00000000E+00
  0.00000000E+00  0.00000000E+00  0.00000000E+00
  0.00000000E+00  0.00000000E+00  0.00000000E+00
  0.00000000E+00  0.00000000E+00  0.00000000E+00
  0.00000000E+00  0.00000000E+00  0.00000000E+00
  0.00000000E+00  0.00000000E+00  0.00000000E+00
  0.00000000E+00  0.00000000E+00  0.00000000E+00
  0.00000000E+00  0.00000000E+00  0.00000000E+00
  0.00000000E+00  0.00000000E+00  0.00000000E+00
  0.00000000E+00  0.00000000E+00  0.00000000E+00
  0.00000000E+00  0.00000000E+00  0.00000000E+00
  0.00000000E+00  0.00000000E+00  0.00000000E+00
  0.00000000E+00  0.00000000E+00  0.00000000E+00
  0.00000000E+00  0.00000000E+00  0.00000000E+00
  0.00000000E+00  0.00000000E+00  0.00000000E+00
  0.00000000E+00  0.00000000E+00  0.00000000E+00
  0.00000000E+00  0.00000000E+00  0.00000000E+00
  0.00000000E+00  0.00000000E+00  0.00000000E+00
  0.00000000E+00  0.00000000E+00  0.00000000E+00
  0.00000000E+00  0.00000000E+00  0.00000000E+00
  0.00000000E+00  0.00000000E+00  0.00000000E+00
  0.00000000E+00  0.00000000E+00  0.00000000E+00
  0.00000000E+00  0.00000000E+00  0.00000000E+00
  0.00000000E+00  0.00000000E+00  0.00000000E+00
  0.00000000E+00  0.00000000E+00  0.00000000E+00
