Nb  V                                   
    1.000000000000000     
    13.1255878664237429    0.0003449622888750   -0.0046376249412020
     0.0003447381260629   13.1305601684511366    0.0021516008645717
    -0.0046377341616550    0.0021516749020060   13.1276022346970791
   Nb   V 
   116    12
Direct
  0.1253134795064562  0.6240964678183101  0.3718254753490163
  0.3751942323465359  0.1277131976001669  0.3706862686825526
  0.1254563662971938  0.6236894275215361  0.1266136342684332
  0.7504922732338565  0.4992240025690657  0.7508722863052802
  0.8768361598418551  0.3732345513280161  0.1230092867103256
  0.0019899978861452  0.7481819284202817 -0.0001850134441798
  0.3743661847083862  0.3773985488946020  0.6235370303113414
  0.6249868270840527  0.6250639739158226  0.8750268869728558
  0.4998029214893097  0.2485377847639168  0.2477795255006630
  0.8791076603834139  0.3699911689525281  0.8755684908240875
  0.8769439395458144  0.1266066301730700  0.1245075084733137
  0.8775438136873949  0.6266312492228232  0.3730010443251719
  0.8745284412783720  0.1248234647722889  0.6272594850649525
  0.8761693156381377  0.8758206502682132  0.3738993826717597
  0.2492098021891402  0.5025165087381059  0.7505070601162608
  0.5020561473507938 -0.0005104829799743  0.7497117391459469
  0.8776031921465730  0.6243510923383871  0.8755933553316620
  0.8755793875973491  0.6253971126158373  0.6248109854264651
  0.3742506425440724  0.8767110181475368  0.1253542183391155
  0.4991838249537033  0.4967991636606355  0.2486713326906853
  0.7503124632007323  0.0041193844335476  0.4975885365567961
  0.1270814994289798  0.3736986660650830  0.1263997396950504
  0.3727870300523530  0.6242947937870732  0.8741177904946578
  0.3744587374581784  0.1254666375189472  0.8778623287176806
  0.3752650915591703  0.8749160049647606  0.8749188829713994
  0.2498513175626722  0.2493820393285112  0.0042475632243610
  0.1273230082184695  0.6243010120532784  0.6260284267977206
  0.0023242645636968  0.7485602641715604  0.7519330753006637
  0.3725829056002692  0.6222435469145924  0.3748180315856954
  0.5021374656766713  0.2487461360819258  0.4964618286780216
  0.6258928183009899  0.3742592629410393  0.6244039784294027
  0.2495252344371186  0.7462057822021404  0.7498972705487765
 -0.0015652819454769  0.0008841264195784  0.2516063912776423
  0.0012127131959735  0.4992697352918948  0.5001744068693156
 -0.0023357083932839  0.0013664158115875  0.7501079166665979
  0.7511354010019747  0.7499011196559773 -0.0000796780201603
  0.1233295800660062  0.8736250862877253  0.1268147864573120
 -0.0002407367947356  0.2487843747583072  0.2494000561444822
  0.5000821625838791  0.4969850774247510  0.0021099904645813
  0.2514166537694373  0.7476163385723096  0.5016583090194799
  0.6266425507368827  0.8771723195907185  0.8730608809346714
  0.3751794728700900  0.1248828941800565  0.6238692650405994
  0.8768734785879795  0.1272038794680807  0.8735848403938159
  0.7495698536206564  0.4984352979217361  0.4993567785988455
  0.7493983600917266  0.4974071315644494  0.0019850832855545
  0.1246627155374877  0.1273924757583214  0.3726167113426797
  0.4976800733140113  0.5017598202989497  0.7487260846302997
  0.1271604016134092  0.1292992198311261  0.1250352558453389
  0.6244045053845679  0.6225064568691263  0.1250888957314356
  0.7498424631779251  0.7518293333355947  0.4996751974127193
  0.1226549933919633  0.1272598913907990  0.6269142196225268
  0.6282113941815953  0.1235952587243497  0.8738855769051059
  0.2480644316298413  0.7482349350825424  0.2498378462538953
  0.8768029522130359  0.8744031024867175  0.1262983663356889
  0.8761818914612698  0.3726011415243396  0.3742966404224928
  0.6260815315372628  0.3740546331407854  0.8772835743317330
  0.7497421370464424  0.2512245523616101  0.0029373998539130
  0.7504794111203398  0.2457271025690675  0.4953885696155701
  0.1233428018035434  0.8731607801080130  0.3724183269135502
  0.4991814413978181  0.7497207135664975 -0.0004622158912016
 -0.0030692144576951  0.0025104558270083  0.4979400454378268
  0.6269135209431759  0.8774855130062028  0.6260115199154691
  0.0004458951987859  0.0019095998976375  0.0005324539443044
  0.7523519434592905  0.2476368084445962  0.7496940698403339
  0.0007590159044539  0.7503177239184713  0.4986681534931270
  0.2513807467552030  0.5017583268815142  0.5007743976279988
  0.7482771606568709  0.2479162458192105  0.2517423451786510
  0.2496218664124176 -0.0004458225954397  0.7508881058105554
  0.6233086599964802  0.3724714235796767  0.3723597516016267
  0.3733144051150068  0.3749087401680494  0.8769659802886219
  0.5022484663832009  0.0019765471177791  0.4974759736367539
  0.2474365409385967  0.2512225414622655  0.7509498946911956
  0.2514884633678936  0.0045446575925772  0.2481921426431499
  0.4986076790369267  0.0033245632476154  0.0027439067144613
  0.8777854705381739  0.6258733543167320  0.1268409000537493
  0.7483654345208903  0.4959962830565162  0.2481764716689243
  0.4980236260931451  0.5008554636028556  0.5005479007976764
  0.6250403287872055  0.6246240753158202  0.3749497008968214
  0.2483579634121691  0.5002591139723165  0.0004928494531765
  0.2477841361303519  0.7481163683114221 -0.0015720778788706
  0.2498533989274098  0.2504862063284235  0.4971358759048576
  0.3714079684183321  0.3746209447029595  0.3707128914759039
  0.8767501616325939  0.3719325856770483  0.6275387509203689
  0.7498851850804886  0.0050446970001894  0.2537859769339121
  0.6236454877750586  0.1273368953568504  0.1264636716944580
  0.3743741407889273  0.8756269878762875  0.3746718934666107
  0.4975158453721066  0.7482204251398660  0.7481192404641217
  0.4996815266091235  0.2502463376485321  0.0047071285689782
  0.8730103987975036  0.8779075227948685  0.6256789425488799
  0.0018700938896209  0.5003361864986009  0.2491661090857028
  0.3719233858443163  0.3726152051184826  0.1289332802559482
  0.8739392719619310  0.8779793898803276  0.8737139116276551
  0.1216431457259915  0.3726672377287913  0.8768492245170268
  0.6273334685228644  0.1233437533775631  0.6243437929168314
  0.1240486674115830  0.8742356371997029  0.8755804837739248
  0.7522771982700014  0.7510480293739475  0.2502419436770756
  0.1201754761486456  0.1291478578805473  0.8763157653334441
  0.1232674167175728  0.3736114767096360  0.6262905529968350
  0.3723495401579145  0.6221194008156899  0.1268635123289171
  0.6258227002738074  0.8779205924209548  0.3754474710542908
  0.7506318094122373  0.7520655676141490  0.7500178162684840
  0.1239108705036304  0.8750937834597967  0.6247100884671769
  0.6258682140051478  0.8762008781020791  0.1247835525960207
  0.5001408247754257  0.2505153539028089  0.7504070466654948
  0.5005172575592824  0.0046136689350952  0.2499464945278559
 -0.0022699305150758  0.2480901588413741  0.4994609054607074
  0.0027408620869632  0.4997226560822562  0.7520779445840911
  0.0021880892571269  0.4995047216977298 -0.0011700743990128
  0.2510059246449802  0.0019068393632735  0.0022480702018265
  0.6226865373028548  0.6253392571935726  0.6250630464895766
  0.7499011636147067  0.0013091974549380 -0.0005304396560140
  0.4982160571783972  0.7488056695589196  0.5017988481337345
  0.2500449271070605 -0.0000356303822091  0.4988135106925770
  0.1291550951123732  0.3748526868924845  0.3702254288873729
  0.4994113220211836  0.7503624233974432  0.2502527771787523
  0.3760099306222919  0.8731615000385757  0.6249500926648800
  0.0005703059424353  0.2508250278973526 -0.0011440304618831
  0.2528760979090206  0.2493655643050983  0.2472118525875244
  0.8735223761125104  0.1245221964748340  0.3754970799236376
  0.6263679716675152  0.1251428827584841  0.3747581802042929
  0.3723499654759185  0.1290509825074176  0.1282123660601648
  0.2505002551714071  0.4974932798539236  0.2491277520818076
  0.6234804389524813  0.3740150197659629  0.1254934304942162
  0.3741991540751077  0.6247144707399681  0.6246591947059010
  0.0007180392925397  0.7500904672185152  0.2493061571363355
  0.7504455229582914  0.0009085004539044  0.7483328848112283
 -0.0004047202567442  0.2501837676982504  0.7525168098263000
  0.1246509605231149  0.6236955525032642  0.8757213959812352
 
  0.00000000E+00  0.00000000E+00  0.00000000E+00
  0.00000000E+00  0.00000000E+00  0.00000000E+00
  0.00000000E+00  0.00000000E+00  0.00000000E+00
  0.00000000E+00  0.00000000E+00  0.00000000E+00
  0.00000000E+00  0.00000000E+00  0.00000000E+00
  0.00000000E+00  0.00000000E+00  0.00000000E+00
  0.00000000E+00  0.00000000E+00  0.00000000E+00
  0.00000000E+00  0.00000000E+00  0.00000000E+00
  0.00000000E+00  0.00000000E+00  0.00000000E+00
  0.00000000E+00  0.00000000E+00  0.00000000E+00
  0.00000000E+00  0.00000000E+00  0.00000000E+00
  0.00000000E+00  0.00000000E+00  0.00000000E+00
  0.00000000E+00  0.00000000E+00  0.00000000E+00
  0.00000000E+00  0.00000000E+00  0.00000000E+00
  0.00000000E+00  0.00000000E+00  0.00000000E+00
  0.00000000E+00  0.00000000E+00  0.00000000E+00
  0.00000000E+00  0.00000000E+00  0.00000000E+00
  0.00000000E+00  0.00000000E+00  0.00000000E+00
  0.00000000E+00  0.00000000E+00  0.00000000E+00
  0.00000000E+00  0.00000000E+00  0.00000000E+00
  0.00000000E+00  0.00000000E+00  0.00000000E+00
  0.00000000E+00  0.00000000E+00  0.00000000E+00
  0.00000000E+00  0.00000000E+00  0.00000000E+00
  0.00000000E+00  0.00000000E+00  0.00000000E+00
  0.00000000E+00  0.00000000E+00  0.00000000E+00
  0.00000000E+00  0.00000000E+00  0.00000000E+00
  0.00000000E+00  0.00000000E+00  0.00000000E+00
  0.00000000E+00  0.00000000E+00  0.00000000E+00
  0.00000000E+00  0.00000000E+00  0.00000000E+00
  0.00000000E+00  0.00000000E+00  0.00000000E+00
  0.00000000E+00  0.00000000E+00  0.00000000E+00
  0.00000000E+00  0.00000000E+00  0.00000000E+00
  0.00000000E+00  0.00000000E+00  0.00000000E+00
  0.00000000E+00  0.00000000E+00  0.00000000E+00
  0.00000000E+00  0.00000000E+00  0.00000000E+00
  0.00000000E+00  0.00000000E+00  0.00000000E+00
  0.00000000E+00  0.00000000E+00  0.00000000E+00
  0.00000000E+00  0.00000000E+00  0.00000000E+00
  0.00000000E+00  0.00000000E+00  0.00000000E+00
  0.00000000E+00  0.00000000E+00  0.00000000E+00
  0.00000000E+00  0.00000000E+00  0.00000000E+00
  0.00000000E+00  0.00000000E+00  0.00000000E+00
  0.00000000E+00  0.00000000E+00  0.00000000E+00
  0.00000000E+00  0.00000000E+00  0.00000000E+00
  0.00000000E+00  0.00000000E+00  0.00000000E+00
  0.00000000E+00  0.00000000E+00  0.00000000E+00
  0.00000000E+00  0.00000000E+00  0.00000000E+00
  0.00000000E+00  0.00000000E+00  0.00000000E+00
  0.00000000E+00  0.00000000E+00  0.00000000E+00
  0.00000000E+00  0.00000000E+00  0.00000000E+00
  0.00000000E+00  0.00000000E+00  0.00000000E+00
  0.00000000E+00  0.00000000E+00  0.00000000E+00
  0.00000000E+00  0.00000000E+00  0.00000000E+00
  0.00000000E+00  0.00000000E+00  0.00000000E+00
  0.00000000E+00  0.00000000E+00  0.00000000E+00
  0.00000000E+00  0.00000000E+00  0.00000000E+00
  0.00000000E+00  0.00000000E+00  0.00000000E+00
  0.00000000E+00  0.00000000E+00  0.00000000E+00
  0.00000000E+00  0.00000000E+00  0.00000000E+00
  0.00000000E+00  0.00000000E+00  0.00000000E+00
  0.00000000E+00  0.00000000E+00  0.00000000E+00
  0.00000000E+00  0.00000000E+00  0.00000000E+00
  0.00000000E+00  0.00000000E+00  0.00000000E+00
  0.00000000E+00  0.00000000E+00  0.00000000E+00
  0.00000000E+00  0.00000000E+00  0.00000000E+00
  0.00000000E+00  0.00000000E+00  0.00000000E+00
  0.00000000E+00  0.00000000E+00  0.00000000E+00
  0.00000000E+00  0.00000000E+00  0.00000000E+00
  0.00000000E+00  0.00000000E+00  0.00000000E+00
  0.00000000E+00  0.00000000E+00  0.00000000E+00
  0.00000000E+00  0.00000000E+00  0.00000000E+00
  0.00000000E+00  0.00000000E+00  0.00000000E+00
  0.00000000E+00  0.00000000E+00  0.00000000E+00
  0.00000000E+00  0.00000000E+00  0.00000000E+00
  0.00000000E+00  0.00000000E+00  0.00000000E+00
  0.00000000E+00  0.00000000E+00  0.00000000E+00
  0.00000000E+00  0.00000000E+00  0.00000000E+00
  0.00000000E+00  0.00000000E+00  0.00000000E+00
  0.00000000E+00  0.00000000E+00  0.00000000E+00
  0.00000000E+00  0.00000000E+00  0.00000000E+00
  0.00000000E+00  0.00000000E+00  0.00000000E+00
  0.00000000E+00  0.00000000E+00  0.00000000E+00
  0.00000000E+00  0.00000000E+00  0.00000000E+00
  0.00000000E+00  0.00000000E+00  0.00000000E+00
  0.00000000E+00  0.00000000E+00  0.00000000E+00
  0.00000000E+00  0.00000000E+00  0.00000000E+00
  0.00000000E+00  0.00000000E+00  0.00000000E+00
  0.00000000E+00  0.00000000E+00  0.00000000E+00
  0.00000000E+00  0.00000000E+00  0.00000000E+00
  0.00000000E+00  0.00000000E+00  0.00000000E+00
  0.00000000E+00  0.00000000E+00  0.00000000E+00
  0.00000000E+00  0.00000000E+00  0.00000000E+00
  0.00000000E+00  0.00000000E+00  0.00000000E+00
  0.00000000E+00  0.00000000E+00  0.00000000E+00
  0.00000000E+00  0.00000000E+00  0.00000000E+00
  0.00000000E+00  0.00000000E+00  0.00000000E+00
  0.00000000E+00  0.00000000E+00  0.00000000E+00
  0.00000000E+00  0.00000000E+00  0.00000000E+00
  0.00000000E+00  0.00000000E+00  0.00000000E+00
  0.00000000E+00  0.00000000E+00  0.00000000E+00
  0.00000000E+00  0.00000000E+00  0.00000000E+00
  0.00000000E+00  0.00000000E+00  0.00000000E+00
  0.00000000E+00  0.00000000E+00  0.00000000E+00
  0.00000000E+00  0.00000000E+00  0.00000000E+00
  0.00000000E+00  0.00000000E+00  0.00000000E+00
  0.00000000E+00  0.00000000E+00  0.00000000E+00
  0.00000000E+00  0.00000000E+00  0.00000000E+00
  0.00000000E+00  0.00000000E+00  0.00000000E+00
  0.00000000E+00  0.00000000E+00  0.00000000E+00
  0.00000000E+00  0.00000000E+00  0.00000000E+00
  0.00000000E+00  0.00000000E+00  0.00000000E+00
  0.00000000E+00  0.00000000E+00  0.00000000E+00
  0.00000000E+00  0.00000000E+00  0.00000000E+00
  0.00000000E+00  0.00000000E+00  0.00000000E+00
  0.00000000E+00  0.00000000E+00  0.00000000E+00
  0.00000000E+00  0.00000000E+00  0.00000000E+00
  0.00000000E+00  0.00000000E+00  0.00000000E+00
  0.00000000E+00  0.00000000E+00  0.00000000E+00
  0.00000000E+00  0.00000000E+00  0.00000000E+00
  0.00000000E+00  0.00000000E+00  0.00000000E+00
  0.00000000E+00  0.00000000E+00  0.00000000E+00
  0.00000000E+00  0.00000000E+00  0.00000000E+00
  0.00000000E+00  0.00000000E+00  0.00000000E+00
  0.00000000E+00  0.00000000E+00  0.00000000E+00
  0.00000000E+00  0.00000000E+00  0.00000000E+00
  0.00000000E+00  0.00000000E+00  0.00000000E+00
  0.00000000E+00  0.00000000E+00  0.00000000E+00
  0.00000000E+00  0.00000000E+00  0.00000000E+00
