Hf                                      
    1.000000000000000     
    12.8084872898869264   -0.0000076854819092   -0.0000001196592256
    -6.4042503158691213   11.0924714879969493    0.0000001566985326
    -0.0000001515018241    0.0000001351415999   20.2296006280727099
  Hf           
             128
Direct
  0.6666664826207047  0.0833336802391117  0.4374996753884008
  0.5833335822798918  0.6666665885602865  0.8124986371391970
  0.0833335725746000  0.6666665805811388  0.3124988735032713
  0.1666664819626295  0.5833336854499849  0.9374997554892260
  0.6666664400643610  0.0833334347059689  0.1875014117325364
  0.4166664813351386  0.8333336794151858  0.9374997557251482
  0.3333335254330376  0.1666663239500686  0.0625004676625839
  0.5833335821076087  0.9166665767306016  0.8124986377008925
  0.4166664863680962  0.8333336814276165  0.4374996763356519
  0.0833335665069639  0.1666665699555997  0.3124988733386599
  0.3333335682837730  0.1666665725651711  0.3124988739257018
  0.3333335169242866  0.1666663208789389  0.5625001048784477
  0.0833335771004075  0.4166665745252000  0.8124986353499376
  0.1666664277867070  0.3333334239169800  0.1875014107499835
  0.5833335881336849  0.9166665813741290  0.3124988736439173
  0.9166664321463800  0.3333334336289915  0.1875014106103526
  0.4166664366790174  0.8333334287683963  0.6875010755637265
  0.3333335747934912  0.9166665778767533  0.3124988741146379
  0.9166664338888267  0.8333334343404124  0.1875014111556445
  0.8333335402653690  0.6666663474984297  0.5625001049380758
  0.9166664866965255  0.8333336909779402  0.9374997577086428
  0.0833335289267362  0.4166663280569162  0.0625004659147793
  0.1666664693669907  0.0833336755431279  0.4374996749237094
  0.9166664877816353  0.5833336955669651  0.9374997572157465
  0.0833335728027269  0.1666665719445337  0.8124986344865568
  0.8333335358632795  0.1666663197456801  0.5625001044663331
  0.3333335765848776  0.4166665773182553  0.3124988733246274
  0.5833335722527438  0.1666665753009541  0.8124986368086482
  0.8333335744248990  0.4166665837369243  0.3124988744472422
  0.3333335588685126  0.1666665683211217  0.8124986354211218
  0.1666664715310553  0.0833336760393200  0.9374997568856488
  0.6666664487953555  0.8333334377054669  0.1875014105349371
  0.9166664865043956  0.3333336869410026  0.9374997578372537
  0.1666664248933352  0.0833334252507239  0.6875010747491084
  0.3333335679289394  0.4166665735712375  0.8124986361442684
  0.6666664800698860  0.3333336861846735  0.9374997558877389
  0.9166664435172933  0.5833334462610347  0.6875010750857663
  0.9166664415568371  0.3333334319172994  0.6875010744009126
  0.8333335313682044  0.1666663240828239  0.0625004663856347
  0.0833335742970713  0.9166665813302155  0.8124986343835694
  0.5833335372414171  0.9166663291634116  0.0625004665694955
  0.1666664815282553  0.5833336850394851  0.4374996758048993
  0.0833335809967773  0.6666665866656950  0.8124986353917369
  0.4166664725589792  0.0833336772509121  0.9374997557546514
  0.0833335249338588  0.1666663227193513  0.0625004662695864
  0.6666664466059106  0.8333334385820865  0.6875010746137606
  0.9166664311766116  0.0833334273853104  0.1875014106030141
  0.5833335274644715  0.1666663255762019  0.5625001043355734
  0.5833335369521645  0.6666663363213510  0.5625001041546183
  0.4166664729621504  0.3333336820352659  0.9374997549867874
  0.8333335287923147  0.4166663351149988  0.0625004661187337
  0.5833335330693047  0.1666663313587914  0.0625004665000963
  0.9166664827983806  0.8333336920218204  0.4374996744500773
  0.4166664228450725  0.0833334230733879  0.6875010763459535
  0.0833335244419934  0.9166663224504460  0.0625004669329599
  0.0833335283288656  0.1666663222224209  0.5625001064863648
  0.4166664415194280  0.8333334312631764  0.1875014113849679
  0.0833335688956202  0.4166665720418934  0.3124988737460266
  0.1666664295775398  0.8333334331320976  0.1875014101868557
  0.9166664426311140  0.8333334450985090  0.6875010745544446
  0.0833335274722790  0.9166663299467025  0.5625001059590263
  0.6666664960846574  0.8333336920048261  0.4374996764640230
  0.0833335687483447  0.9166665751318054  0.3124988730549758
  0.6666664417060136  0.5833334458029618  0.6875010753890809
  0.0833335351880352  0.4166663244045055  0.5625001057925937
  0.9166664398197403  0.0833334281046515  0.6875010746541362
  0.6666664905319304  0.5833336947875356  0.9374997565192191
  0.8333335774562055  0.1666665738009671  0.3124988743232925
  0.8333335873825346  0.6666665987390010  0.8124986360119867
  0.8333335868129924  0.9166665829198033  0.8124986360025169
  0.6666664404699622  0.3333334395476227  0.1875014126287995
  0.8333335845938933  0.1666665744335105  0.8124986364477387
  0.1666664250091276  0.0833334235449210  0.1875014108273398
  0.8333335824987335  0.4166665873237816  0.8124986365245220
  0.1666664351413681  0.8333334405768028  0.6875010746845770
  0.4166664387805502  0.3333334362578724  0.1875014122486207
  0.8333335369854734  0.9166663275799881  0.0625004664496410
  0.9166664834893948  0.5833336946914311  0.4374996745266240
  0.0833335346769118  0.6666663348774988  0.5625001060077707
  0.5833335811379278  0.1666665820442696  0.3124988746255004
  0.3333335246355922  0.4166663216478938  0.5625001056377631
  0.4166664383810271  0.5833334327604853  0.6875010759129814
  0.3333335782696604  0.6666665791314631  0.8124986372221676
  0.6666664371740708  0.0833334263019861  0.6875010753517766
  0.8333335798347034  0.9166665786410312  0.3124988732505121
  0.3333335281749682  0.9166663249000164  0.0625004667444286
  0.4166664736045188  0.3333336826818681  0.4374996741888516
  0.4166664750758894  0.0833336806586132  0.4374996750332115
  0.9166664848321372  0.0833336801705698  0.9374997571869266
  0.9166664817620649  0.0833336764638794  0.4374996754135990
  0.1666664765339210  0.3333336771354015  0.9374997556096657
  0.3333335687156998  0.9166665745550510  0.8124986365129825
  0.9166664830349578  0.3333336828984740  0.4374996755169385
  0.1666664777371326  0.8333336853988085  0.9374997563515642
  0.1666664763310909  0.3333336732733279  0.4374996752173372
  0.1666664412002607  0.5833334355430582  0.6875010752724168
  0.3333335287830118  0.4166663256233675  0.0625004664915122
  0.4166664245083891  0.3333334298824925  0.6875010769188983
  0.3333335836946902  0.6666665813724859  0.3124988733507221
  0.3333335331184036  0.6666663289413430  0.0625004660737941
  0.6666664329500569  0.3333334347279044  0.6875010771560491
  0.4166664465836614  0.5833334360396814  0.1875014113396757
  0.1666664315171367  0.3333334218152353  0.6875010759965995
  0.4166664855873562  0.5833336821127398  0.4374996768171910
  0.1666664335749667  0.5833334332543447  0.1875014110862253
  0.6666664923825950  0.8333336893521481  0.9374997561467773
  0.6666664461841773  0.5833334420497367  0.1875014121737496
  0.6666664825975043  0.0833336803293288  0.9374997563895373
  0.3333335346028993  0.6666663281694108  0.5625001044852211
  0.5833335376917600  0.9166663268438978  0.5625001042690742
  0.5833335339615392  0.4166663343490203  0.0625004667309433
  0.5833335388154822  0.6666663348207256  0.0625004658143627
  0.8333335371370879  0.6666663388151878  0.0625004677062420
  0.6666664911105671  0.5833336958948395  0.4374996751305371
  0.4166664359203751  0.0833334307060501  0.1875014121478907
  0.8333335420323652  0.9166663318047228  0.5625001062538527
  0.9166664336692175  0.5833334375818475  0.1875014113218421
  0.8333335315084444  0.4166663346826694  0.5625001045554131
  0.3333335263959367  0.9166663263402142  0.5625001039985514
  0.5833335258531719  0.4166663332516378  0.5625001036526762
  0.6666664793856557  0.3333336857122593  0.4374996749942976
  0.1666664760108458  0.8333336881049979  0.4374996758612953
  0.0833335286816904  0.6666663282179280  0.0625004668694816
  0.8333335805021975  0.6666665913278571  0.3124988734936002
  0.4166664823729301  0.5833336820951764  0.9374997551342744
  0.5833335825177666  0.4166665888233693  0.3124988750598210
  0.5833335887093782  0.6666665889042380  0.3124988750552985
  0.5833335737486062  0.4166665866691041  0.8124986368106517
 
  0.00000000E+00  0.00000000E+00  0.00000000E+00
  0.00000000E+00  0.00000000E+00  0.00000000E+00
  0.00000000E+00  0.00000000E+00  0.00000000E+00
  0.00000000E+00  0.00000000E+00  0.00000000E+00
  0.00000000E+00  0.00000000E+00  0.00000000E+00
  0.00000000E+00  0.00000000E+00  0.00000000E+00
  0.00000000E+00  0.00000000E+00  0.00000000E+00
  0.00000000E+00  0.00000000E+00  0.00000000E+00
  0.00000000E+00  0.00000000E+00  0.00000000E+00
  0.00000000E+00  0.00000000E+00  0.00000000E+00
  0.00000000E+00  0.00000000E+00  0.00000000E+00
  0.00000000E+00  0.00000000E+00  0.00000000E+00
  0.00000000E+00  0.00000000E+00  0.00000000E+00
  0.00000000E+00  0.00000000E+00  0.00000000E+00
  0.00000000E+00  0.00000000E+00  0.00000000E+00
  0.00000000E+00  0.00000000E+00  0.00000000E+00
  0.00000000E+00  0.00000000E+00  0.00000000E+00
  0.00000000E+00  0.00000000E+00  0.00000000E+00
  0.00000000E+00  0.00000000E+00  0.00000000E+00
  0.00000000E+00  0.00000000E+00  0.00000000E+00
  0.00000000E+00  0.00000000E+00  0.00000000E+00
  0.00000000E+00  0.00000000E+00  0.00000000E+00
  0.00000000E+00  0.00000000E+00  0.00000000E+00
  0.00000000E+00  0.00000000E+00  0.00000000E+00
  0.00000000E+00  0.00000000E+00  0.00000000E+00
  0.00000000E+00  0.00000000E+00  0.00000000E+00
  0.00000000E+00  0.00000000E+00  0.00000000E+00
  0.00000000E+00  0.00000000E+00  0.00000000E+00
  0.00000000E+00  0.00000000E+00  0.00000000E+00
  0.00000000E+00  0.00000000E+00  0.00000000E+00
  0.00000000E+00  0.00000000E+00  0.00000000E+00
  0.00000000E+00  0.00000000E+00  0.00000000E+00
  0.00000000E+00  0.00000000E+00  0.00000000E+00
  0.00000000E+00  0.00000000E+00  0.00000000E+00
  0.00000000E+00  0.00000000E+00  0.00000000E+00
  0.00000000E+00  0.00000000E+00  0.00000000E+00
  0.00000000E+00  0.00000000E+00  0.00000000E+00
  0.00000000E+00  0.00000000E+00  0.00000000E+00
  0.00000000E+00  0.00000000E+00  0.00000000E+00
  0.00000000E+00  0.00000000E+00  0.00000000E+00
  0.00000000E+00  0.00000000E+00  0.00000000E+00
  0.00000000E+00  0.00000000E+00  0.00000000E+00
  0.00000000E+00  0.00000000E+00  0.00000000E+00
  0.00000000E+00  0.00000000E+00  0.00000000E+00
  0.00000000E+00  0.00000000E+00  0.00000000E+00
  0.00000000E+00  0.00000000E+00  0.00000000E+00
  0.00000000E+00  0.00000000E+00  0.00000000E+00
  0.00000000E+00  0.00000000E+00  0.00000000E+00
  0.00000000E+00  0.00000000E+00  0.00000000E+00
  0.00000000E+00  0.00000000E+00  0.00000000E+00
  0.00000000E+00  0.00000000E+00  0.00000000E+00
  0.00000000E+00  0.00000000E+00  0.00000000E+00
  0.00000000E+00  0.00000000E+00  0.00000000E+00
  0.00000000E+00  0.00000000E+00  0.00000000E+00
  0.00000000E+00  0.00000000E+00  0.00000000E+00
  0.00000000E+00  0.00000000E+00  0.00000000E+00
  0.00000000E+00  0.00000000E+00  0.00000000E+00
  0.00000000E+00  0.00000000E+00  0.00000000E+00
  0.00000000E+00  0.00000000E+00  0.00000000E+00
  0.00000000E+00  0.00000000E+00  0.00000000E+00
  0.00000000E+00  0.00000000E+00  0.00000000E+00
  0.00000000E+00  0.00000000E+00  0.00000000E+00
  0.00000000E+00  0.00000000E+00  0.00000000E+00
  0.00000000E+00  0.00000000E+00  0.00000000E+00
  0.00000000E+00  0.00000000E+00  0.00000000E+00
  0.00000000E+00  0.00000000E+00  0.00000000E+00
  0.00000000E+00  0.00000000E+00  0.00000000E+00
  0.00000000E+00  0.00000000E+00  0.00000000E+00
  0.00000000E+00  0.00000000E+00  0.00000000E+00
  0.00000000E+00  0.00000000E+00  0.00000000E+00
  0.00000000E+00  0.00000000E+00  0.00000000E+00
  0.00000000E+00  0.00000000E+00  0.00000000E+00
  0.00000000E+00  0.00000000E+00  0.00000000E+00
  0.00000000E+00  0.00000000E+00  0.00000000E+00
  0.00000000E+00  0.00000000E+00  0.00000000E+00
  0.00000000E+00  0.00000000E+00  0.00000000E+00
  0.00000000E+00  0.00000000E+00  0.00000000E+00
  0.00000000E+00  0.00000000E+00  0.00000000E+00
  0.00000000E+00  0.00000000E+00  0.00000000E+00
  0.00000000E+00  0.00000000E+00  0.00000000E+00
  0.00000000E+00  0.00000000E+00  0.00000000E+00
  0.00000000E+00  0.00000000E+00  0.00000000E+00
  0.00000000E+00  0.00000000E+00  0.00000000E+00
  0.00000000E+00  0.00000000E+00  0.00000000E+00
  0.00000000E+00  0.00000000E+00  0.00000000E+00
  0.00000000E+00  0.00000000E+00  0.00000000E+00
  0.00000000E+00  0.00000000E+00  0.00000000E+00
  0.00000000E+00  0.00000000E+00  0.00000000E+00
  0.00000000E+00  0.00000000E+00  0.00000000E+00
  0.00000000E+00  0.00000000E+00  0.00000000E+00
  0.00000000E+00  0.00000000E+00  0.00000000E+00
  0.00000000E+00  0.00000000E+00  0.00000000E+00
  0.00000000E+00  0.00000000E+00  0.00000000E+00
  0.00000000E+00  0.00000000E+00  0.00000000E+00
  0.00000000E+00  0.00000000E+00  0.00000000E+00
  0.00000000E+00  0.00000000E+00  0.00000000E+00
  0.00000000E+00  0.00000000E+00  0.00000000E+00
  0.00000000E+00  0.00000000E+00  0.00000000E+00
  0.00000000E+00  0.00000000E+00  0.00000000E+00
  0.00000000E+00  0.00000000E+00  0.00000000E+00
  0.00000000E+00  0.00000000E+00  0.00000000E+00
  0.00000000E+00  0.00000000E+00  0.00000000E+00
  0.00000000E+00  0.00000000E+00  0.00000000E+00
  0.00000000E+00  0.00000000E+00  0.00000000E+00
  0.00000000E+00  0.00000000E+00  0.00000000E+00
  0.00000000E+00  0.00000000E+00  0.00000000E+00
  0.00000000E+00  0.00000000E+00  0.00000000E+00
  0.00000000E+00  0.00000000E+00  0.00000000E+00
  0.00000000E+00  0.00000000E+00  0.00000000E+00
  0.00000000E+00  0.00000000E+00  0.00000000E+00
  0.00000000E+00  0.00000000E+00  0.00000000E+00
  0.00000000E+00  0.00000000E+00  0.00000000E+00
  0.00000000E+00  0.00000000E+00  0.00000000E+00
  0.00000000E+00  0.00000000E+00  0.00000000E+00
  0.00000000E+00  0.00000000E+00  0.00000000E+00
  0.00000000E+00  0.00000000E+00  0.00000000E+00
  0.00000000E+00  0.00000000E+00  0.00000000E+00
  0.00000000E+00  0.00000000E+00  0.00000000E+00
  0.00000000E+00  0.00000000E+00  0.00000000E+00
  0.00000000E+00  0.00000000E+00  0.00000000E+00
  0.00000000E+00  0.00000000E+00  0.00000000E+00
  0.00000000E+00  0.00000000E+00  0.00000000E+00
  0.00000000E+00  0.00000000E+00  0.00000000E+00
  0.00000000E+00  0.00000000E+00  0.00000000E+00
  0.00000000E+00  0.00000000E+00  0.00000000E+00
  0.00000000E+00  0.00000000E+00  0.00000000E+00
  0.00000000E+00  0.00000000E+00  0.00000000E+00
  0.00000000E+00  0.00000000E+00  0.00000000E+00
