Hf Nb                                   
    1.000000000000000     
    11.9635853671847059   -1.1372898932242090    0.0383887595666834
    -6.9786505039762092   12.0997386143836660   -0.0020382904124623
     0.0558696446585407    0.0431425708280068   19.6200719684507412
  Hf             Nb           
              88              40
Direct
  0.8360086683470598  0.1505232883420838  0.0622585250741015
  0.6558539378429112  0.9485428504550130  0.3123535206918934
  0.8755335903284794  0.0656568315187142  0.4385899052222196
  0.1251967800450255  0.1842011658826773  0.0612756735514618
  0.8776877397661582  0.7032894080483338  0.3242727564806066
  0.6332752696597769  0.4314291122943884  0.5601832396871621
  0.6237972744476979  0.0557305071071861  0.9415594096832036
  0.1299074157408532  0.3191752556400620  0.6909181185884243
  0.3812170064159053  0.1918501369713567  0.3180984783841424
  0.6166507479171546  0.8053461875731597  0.1846213093928761
  0.3763003060650370  0.4351441432489277  0.0643261557604852
  0.1321847050752972  0.5543928089942898  0.9442241900681223
  0.6064008191594058  0.8159521642494630  0.6879406978830880
  0.1558300102536042  0.3423054869477772  0.9394357092704995
  0.3725432251439563  0.9205112255135457  0.5570992296756753
  0.1304769201835705  0.9418659000392409  0.0634556745543007
  0.8677284924112511  0.5620491873275197  0.1920362865303336
  0.6168333596451810  0.3019270490454822  0.4271526934717438
  0.3461532013642277  0.6660505305177656  0.0695227338240113
  0.0940279746848620  0.4015390324603684  0.0714853303410997
  0.8690159769112472  0.4232214016424178  0.3166621010959116
  0.3678138439173655  0.4395463757101813  0.8220472447349935
  0.1178323222140573  0.7031829604119322  0.0610798449657379
  0.8989216738222764  0.5898241175586669  0.9359028014261823
  0.6219002665833121  0.6903590750472526  0.0497959106440215
  0.6412679994482302  0.4538476627886723  0.3069932858625405
  0.8854571045286271  0.0711867366989255  0.1977261346844904
  0.1076829883893252  0.6699166512438156  0.5621145758024960
  0.3837879891992348  0.9392977705664556  0.3237184113937279
  0.3608511688649493  0.8102916165549042  0.9350265457916497
  0.8708618384011079  0.6990061876377587  0.5540538812031574
  0.1310906365491995  0.4502019074528084  0.5538116774104264
  0.1269227869177283  0.8176330659632168  0.4400626526245736
  0.8762175644621568  0.4490444938254292  0.0584908867522524
  0.1324102653552445  0.6935159438166765  0.8156188128188467
  0.6048265959051062  0.1791333432267468  0.5582540646472754
  0.6102232506967707  0.8972808608536217  0.0466023516357918
  0.1182819488964757  0.6913816085381747  0.3096365888622469
  0.6219766075684997  0.2032338737976240  0.0697324690196685
  0.3800261233086066  0.7041107545531157  0.3080468178236339
  0.1160508432669593  0.1819853268293946  0.8241685154145140
  0.3815982655895326  0.4424633299539538  0.5567493033708772
  0.1365606362303057  0.0690363867886423  0.4356766047786717
  0.8833317678407624  0.0623698889762638  0.9323254134202084
  0.8777235950082597  0.9392063387770944  0.0730724363472603
  0.6542416193124176  0.9553381544016218  0.5611424060200551
  0.8971807468958890  0.7114286766635448  0.8064917502008619
  0.6293173450581003  0.0615268417619432  0.6924419302173292
  0.6161317169174477  0.0422414236534655  0.1810697920168624
  0.3559816674452316  0.5589406652189782  0.4320499439340471
  0.8829199753608546  0.2102702891765543  0.5707456174498580
  0.1298182747858614  0.9411076720367780  0.3045215156984677
  0.8804489244009879  0.0580211469037044  0.6838784572091255
  0.6316454925664787  0.6862290823510085  0.8073482350928903
  0.3664899132645308  0.4127052413283901  0.3127606577432770
  0.1240208379116567  0.4270943685988755  0.3144457019973297
  0.8777945462142840  0.3051147422749105  0.9313312872844550
  0.6105938811788799  0.5583755686958418  0.1783920335220665
  0.4009608373292484  0.9469634859981610  0.0606952559505766
  0.6136267779074156  0.5417013871301616  0.9369386891017889
  0.1433190966174405  0.5635882544931083  0.6922825634608387
  0.3765751235183005  0.6863032029196168  0.8099439365369334
  0.8869934883574401  0.5700596219097573  0.6845829621647408
  0.6177590517042315  0.8056769087567850  0.4409894286262380
  0.1321690269543334  0.9493476460377352  0.5686593320932407
  0.6107958120653805  0.6745179197477991  0.3095747766691228
  0.3844792584661669  0.0716927782831211  0.9343806619634257
  0.8720868918623981  0.5482319950940553  0.4451961115693896
  0.4047362509809159  0.5580763770266315  0.6874235738679809
  0.1407636836841991  0.0763972226291700  0.7001918279843489
  0.8633718319246201  0.8072076827407327  0.9385505965855016
  0.3837113406306214  0.6988768336514724  0.5678826596456876
  0.6456204994064989  0.3367080293098062  0.9415233592752225
  0.8692279724094006  0.3013432503779422  0.1859993805426545
  0.6119373445690059  0.0566992167222037  0.4324015091537758
  0.3337835417428136  0.8111510724154606  0.1884974139367135
  0.6230871242158299  0.1907911626618050  0.8176836152983065
  0.8808877793578915  0.8238067820751541  0.6820759845683769
  0.3688322051829584  0.0617466589342649  0.1871305370881608
  0.6299766844849510  0.4419581164879843  0.8024463435533338
  0.1258126168349117  0.5553067239746414  0.1854435097009070
  0.1016876675419512  0.1747770932191377  0.3094137383280208
  0.1174129785256292  0.1806508767765873  0.5623708182808413
  0.3994169276640719  0.3276742187655106  0.6862729497093931
  0.6268009662650483  0.5707551306396593  0.4414373599700454
  0.6529856565041435  0.3134035513298734  0.6872903503412685
  0.3788236759885181  0.0617757517894957  0.6849769956103606
  0.3601248886183279  0.2830904941120724  0.9364029925186697
  0.1489989075495991  0.3219411598911117  0.1905149802272971
  0.6155528003028891  0.3163426016064939  0.1905685539084470
  0.3694130988412476  0.1944294000360979  0.5546962327831949
  0.8792192432980029  0.4353243433083056  0.8085130408348012
  0.8881901404341057  0.3163096564181287  0.6993904218327097
  0.8720107588336288  0.9247941786658792  0.5537950711291121
  0.0918973640909195  0.8099446072339018  0.1848416381339378
  0.8750251094866607  0.8127496097091418  0.1910744677009996
  0.6221799788900250  0.1832233995890770  0.3025133411364261
  0.3655367855803097  0.2973359795290264  0.1847790061154413
  0.8703304675081740  0.4156534161283110  0.5686872302483279
  0.3837121454725225  0.9391650474251011  0.8084267199551725
  0.1163074273456208  0.0565290425084688  0.1825745725070952
  0.8584677614186208  0.1959907388941687  0.3198113461829698
  0.6254910886795981  0.8235249404955723  0.9163412238817731
  0.8728723151764022  0.1871636554198561  0.8078150190011881
  0.3573097231880146  0.8226706517514464  0.6939863665822928
  0.3686033902443813  0.5540128771872886  0.1975340443698146
  0.1093049131576188  0.5548211091064211  0.4311999643632716
  0.3716158495812082  0.3130743460634658  0.4439403645144911
  0.6295890231183473  0.6965619426049086  0.5694730911313253
  0.3513888416053493  0.7833982454137162  0.4382056591481384
  0.6347476674208171  0.9435586218341239  0.8123311570355938
  0.3776431528419433  0.0684295486225602  0.4488386312642291
  0.1200957035189492  0.0390091312999326  0.9348425314772720
  0.1319460966640003  0.3089158569756456  0.4378015505364231
  0.3774728032817636  0.1981721805549452  0.0682469932371653
  0.1258328302007789  0.8171471847499229  0.6950811204037995
  0.1270041334541386  0.8365051827191013  0.9321908688862677
  0.8771648865054645  0.8308026823389748  0.4367859780944376
  0.8837329129911194  0.3145931524580901  0.4398893064509865
  0.6506260988679560  0.5763183901985005  0.6746714893354043
  0.8740816157906977  0.9221594979808758  0.3156925725938353
  0.8842796429092252  0.9355152142681780  0.8092839837107585
  0.3659316151617837  0.1847696911630350  0.8045232605001414
  0.1387627386979843  0.9455868967732513  0.8121389553735331
  0.6234895211266903  0.4317687366662172  0.0687817997695662
  0.4077434850913771  0.5938257241162288  0.9397803560063454
  0.1046992100063081  0.4294988025118929  0.8176476558397667
  0.8611361526658364  0.6820301333161524  0.0693319006471495
 
  0.00000000E+00  0.00000000E+00  0.00000000E+00
  0.00000000E+00  0.00000000E+00  0.00000000E+00
  0.00000000E+00  0.00000000E+00  0.00000000E+00
  0.00000000E+00  0.00000000E+00  0.00000000E+00
  0.00000000E+00  0.00000000E+00  0.00000000E+00
  0.00000000E+00  0.00000000E+00  0.00000000E+00
  0.00000000E+00  0.00000000E+00  0.00000000E+00
  0.00000000E+00  0.00000000E+00  0.00000000E+00
  0.00000000E+00  0.00000000E+00  0.00000000E+00
  0.00000000E+00  0.00000000E+00  0.00000000E+00
  0.00000000E+00  0.00000000E+00  0.00000000E+00
  0.00000000E+00  0.00000000E+00  0.00000000E+00
  0.00000000E+00  0.00000000E+00  0.00000000E+00
  0.00000000E+00  0.00000000E+00  0.00000000E+00
  0.00000000E+00  0.00000000E+00  0.00000000E+00
  0.00000000E+00  0.00000000E+00  0.00000000E+00
  0.00000000E+00  0.00000000E+00  0.00000000E+00
  0.00000000E+00  0.00000000E+00  0.00000000E+00
  0.00000000E+00  0.00000000E+00  0.00000000E+00
  0.00000000E+00  0.00000000E+00  0.00000000E+00
  0.00000000E+00  0.00000000E+00  0.00000000E+00
  0.00000000E+00  0.00000000E+00  0.00000000E+00
  0.00000000E+00  0.00000000E+00  0.00000000E+00
  0.00000000E+00  0.00000000E+00  0.00000000E+00
  0.00000000E+00  0.00000000E+00  0.00000000E+00
  0.00000000E+00  0.00000000E+00  0.00000000E+00
  0.00000000E+00  0.00000000E+00  0.00000000E+00
  0.00000000E+00  0.00000000E+00  0.00000000E+00
  0.00000000E+00  0.00000000E+00  0.00000000E+00
  0.00000000E+00  0.00000000E+00  0.00000000E+00
  0.00000000E+00  0.00000000E+00  0.00000000E+00
  0.00000000E+00  0.00000000E+00  0.00000000E+00
  0.00000000E+00  0.00000000E+00  0.00000000E+00
  0.00000000E+00  0.00000000E+00  0.00000000E+00
  0.00000000E+00  0.00000000E+00  0.00000000E+00
  0.00000000E+00  0.00000000E+00  0.00000000E+00
  0.00000000E+00  0.00000000E+00  0.00000000E+00
  0.00000000E+00  0.00000000E+00  0.00000000E+00
  0.00000000E+00  0.00000000E+00  0.00000000E+00
  0.00000000E+00  0.00000000E+00  0.00000000E+00
  0.00000000E+00  0.00000000E+00  0.00000000E+00
  0.00000000E+00  0.00000000E+00  0.00000000E+00
  0.00000000E+00  0.00000000E+00  0.00000000E+00
  0.00000000E+00  0.00000000E+00  0.00000000E+00
  0.00000000E+00  0.00000000E+00  0.00000000E+00
  0.00000000E+00  0.00000000E+00  0.00000000E+00
  0.00000000E+00  0.00000000E+00  0.00000000E+00
  0.00000000E+00  0.00000000E+00  0.00000000E+00
  0.00000000E+00  0.00000000E+00  0.00000000E+00
  0.00000000E+00  0.00000000E+00  0.00000000E+00
  0.00000000E+00  0.00000000E+00  0.00000000E+00
  0.00000000E+00  0.00000000E+00  0.00000000E+00
  0.00000000E+00  0.00000000E+00  0.00000000E+00
  0.00000000E+00  0.00000000E+00  0.00000000E+00
  0.00000000E+00  0.00000000E+00  0.00000000E+00
  0.00000000E+00  0.00000000E+00  0.00000000E+00
  0.00000000E+00  0.00000000E+00  0.00000000E+00
  0.00000000E+00  0.00000000E+00  0.00000000E+00
  0.00000000E+00  0.00000000E+00  0.00000000E+00
  0.00000000E+00  0.00000000E+00  0.00000000E+00
  0.00000000E+00  0.00000000E+00  0.00000000E+00
  0.00000000E+00  0.00000000E+00  0.00000000E+00
  0.00000000E+00  0.00000000E+00  0.00000000E+00
  0.00000000E+00  0.00000000E+00  0.00000000E+00
  0.00000000E+00  0.00000000E+00  0.00000000E+00
  0.00000000E+00  0.00000000E+00  0.00000000E+00
  0.00000000E+00  0.00000000E+00  0.00000000E+00
  0.00000000E+00  0.00000000E+00  0.00000000E+00
  0.00000000E+00  0.00000000E+00  0.00000000E+00
  0.00000000E+00  0.00000000E+00  0.00000000E+00
  0.00000000E+00  0.00000000E+00  0.00000000E+00
  0.00000000E+00  0.00000000E+00  0.00000000E+00
  0.00000000E+00  0.00000000E+00  0.00000000E+00
  0.00000000E+00  0.00000000E+00  0.00000000E+00
  0.00000000E+00  0.00000000E+00  0.00000000E+00
  0.00000000E+00  0.00000000E+00  0.00000000E+00
  0.00000000E+00  0.00000000E+00  0.00000000E+00
  0.00000000E+00  0.00000000E+00  0.00000000E+00
  0.00000000E+00  0.00000000E+00  0.00000000E+00
  0.00000000E+00  0.00000000E+00  0.00000000E+00
  0.00000000E+00  0.00000000E+00  0.00000000E+00
  0.00000000E+00  0.00000000E+00  0.00000000E+00
  0.00000000E+00  0.00000000E+00  0.00000000E+00
  0.00000000E+00  0.00000000E+00  0.00000000E+00
  0.00000000E+00  0.00000000E+00  0.00000000E+00
  0.00000000E+00  0.00000000E+00  0.00000000E+00
  0.00000000E+00  0.00000000E+00  0.00000000E+00
  0.00000000E+00  0.00000000E+00  0.00000000E+00
  0.00000000E+00  0.00000000E+00  0.00000000E+00
  0.00000000E+00  0.00000000E+00  0.00000000E+00
  0.00000000E+00  0.00000000E+00  0.00000000E+00
  0.00000000E+00  0.00000000E+00  0.00000000E+00
  0.00000000E+00  0.00000000E+00  0.00000000E+00
  0.00000000E+00  0.00000000E+00  0.00000000E+00
  0.00000000E+00  0.00000000E+00  0.00000000E+00
  0.00000000E+00  0.00000000E+00  0.00000000E+00
  0.00000000E+00  0.00000000E+00  0.00000000E+00
  0.00000000E+00  0.00000000E+00  0.00000000E+00
  0.00000000E+00  0.00000000E+00  0.00000000E+00
  0.00000000E+00  0.00000000E+00  0.00000000E+00
  0.00000000E+00  0.00000000E+00  0.00000000E+00
  0.00000000E+00  0.00000000E+00  0.00000000E+00
  0.00000000E+00  0.00000000E+00  0.00000000E+00
  0.00000000E+00  0.00000000E+00  0.00000000E+00
  0.00000000E+00  0.00000000E+00  0.00000000E+00
  0.00000000E+00  0.00000000E+00  0.00000000E+00
  0.00000000E+00  0.00000000E+00  0.00000000E+00
  0.00000000E+00  0.00000000E+00  0.00000000E+00
  0.00000000E+00  0.00000000E+00  0.00000000E+00
  0.00000000E+00  0.00000000E+00  0.00000000E+00
  0.00000000E+00  0.00000000E+00  0.00000000E+00
  0.00000000E+00  0.00000000E+00  0.00000000E+00
  0.00000000E+00  0.00000000E+00  0.00000000E+00
  0.00000000E+00  0.00000000E+00  0.00000000E+00
  0.00000000E+00  0.00000000E+00  0.00000000E+00
  0.00000000E+00  0.00000000E+00  0.00000000E+00
  0.00000000E+00  0.00000000E+00  0.00000000E+00
  0.00000000E+00  0.00000000E+00  0.00000000E+00
  0.00000000E+00  0.00000000E+00  0.00000000E+00
  0.00000000E+00  0.00000000E+00  0.00000000E+00
  0.00000000E+00  0.00000000E+00  0.00000000E+00
  0.00000000E+00  0.00000000E+00  0.00000000E+00
  0.00000000E+00  0.00000000E+00  0.00000000E+00
  0.00000000E+00  0.00000000E+00  0.00000000E+00
  0.00000000E+00  0.00000000E+00  0.00000000E+00
  0.00000000E+00  0.00000000E+00  0.00000000E+00
  0.00000000E+00  0.00000000E+00  0.00000000E+00
  0.00000000E+00  0.00000000E+00  0.00000000E+00
