Hf Nb                                   
    1.000000000000000     
    11.9172517122083956   -1.0936643974711031    0.0025021599400152
    -6.8427062231105404   11.8567067600554275    0.0104132361831557
    -0.0151837180200015    0.0413414266987519   19.4804831703047086
  Hf             Nb           
              72              56
Direct
  0.1256300369901098  0.0523616961837034  0.4406211832512490
  0.1282945465250785  0.5654748053810509  0.4319924636682120
  0.6170957630482083  0.9278871892881650  0.0554689986209569
  0.1298186506450773  0.1875882023327224  0.3111572533020910
  0.6269722301656042  0.4542995568928275  0.0647156655049651
  0.6149513628575256  0.5531908009334864  0.4410905310042272
  0.6269279464492826  0.4283597786500881  0.5651929697916985
  0.1300696897461423  0.6913789796473530  0.0611747192932493
  0.6238679827602106  0.4298901965389278  0.8141331343755115
  0.1323404891615488  0.0585832010925686  0.6880931683342862
  0.3894617163535667  0.3169041433241112  0.1942586148113428
  0.1251973590850629  0.4340190907554819  0.8135965057409712
  0.8949681278202203  0.0880979125525677  0.4374510037943944
  0.3827063460671844  0.1949554687547942  0.0615335870388557
  0.8819863343257937  0.3052404996505192  0.4381297802693160
  0.6500426099746882  0.8396150759912068  0.6877890301665139
  0.8640508524457829  0.4260699268639561  0.0581404898448348
  0.8823730214147345  0.6987085830410117  0.5674253133800368
  0.1264349660083368  0.1910297265144481  0.8137151169161007
  0.3562078610400490  0.9252299727780324  0.8105655381999241
  0.6282286772422502  0.1926171036785291  0.3104951283172108
  0.3864770035800678  0.5685106393474837  0.1868456192737849
  0.1311086340799683  0.3131636145273647  0.9468738881102996
  0.8715999514723932  0.3091348020171413  0.1878830938231615
  0.3768017744998335  0.8076215462567492  0.6802709296818581
  0.8657844660828907  0.5625873504893267  0.4371360484414148
  0.6446945200043541  0.8274251152609791  0.1908974775165539
  0.1299254169633320  0.7046129991922192  0.3003568646617888
  0.8658910529529296  0.5620256627418053  0.9340357107809266
  0.8764071258831899  0.9375162900015370  0.0699210217304332
  0.8790488967054125  0.9320528142288177  0.5597491738633095
  0.1456868676316058  0.7039717936100182  0.5632775339757826
  0.6209580444155605  0.0537796598224766  0.1860443030381412
  0.6189287338045977  0.6899778827450314  0.8151876438996337
  0.3581805608104788  0.4286883177307853  0.0558701851267420
  0.6183521624333330  0.1873138274627710  0.8139743881451451
  0.6081308045127378  0.6719857217258204  0.3132583875692828
  0.6583994749049595  0.5951394246419641  0.1874992966982650
  0.8803783300820799  0.7005001446395804  0.0724537132107206
  0.3775353479141413  0.5636915346951737  0.4412650556918224
  0.6349499741838321  0.8222208993389230  0.4365199922910676
  0.3681115762392136  0.5609012134167408  0.6878935876777551
  0.6209549341870577  0.0562718562425307  0.4399996754277262
  0.3731411400105639  0.6966692721907869  0.3153652342179473
  0.9082773040643161  0.4456056915007846  0.3183858056084384
  0.1314568281973379  0.8229443333016311  0.4378211672066404
  0.3667885993339342  0.0600002986589282  0.1926999778131816
  0.6151317224649963  0.9308052388613678  0.8225248782195812
  0.1200689266864272  0.8123944507805019  0.6935135299318320
  0.8673881949919549  0.1763979258000376  0.7969895618686496
  0.1315075929371015  0.3157392433229301  0.1806300362316897
  0.3591814493514691  0.8020087922006960  0.1816537720180681
  0.6122427676188077  0.6850845868605964  0.0549817022501297
  0.8645398378782787  0.8058580245303041  0.9351031139229052
  0.8757700651663622  0.5523256254903245  0.1909596576441067
  0.1079774811089645  0.5621151547167581  0.6920042281297357
  0.6284793645691755  0.4331243649934985  0.3100995380214315
  0.8642761713984641  0.0571935846476726  0.9355689024075866
  0.1423730426790977  0.4413234104049967  0.5623877437565877
  0.6194966213687479  0.3045079499705247  0.9474443206475665
  0.1358914870624834  0.9453004212908921  0.3066894931947446
  0.6051596426014352  0.6826026415676422  0.5659440895462490
  0.6242743806408801  0.5616130875394267  0.6901059871708465
  0.8808922106504357  0.4333114085982098  0.5692286233622732
  0.6285396851288806  0.0651900408170307  0.6852557255064112
  0.1253657946271288  0.1951860640893219  0.5615399719974591
  0.3584502961066283  0.0535507261409351  0.9357918373950230
  0.8827314060046852  0.6938290119804015  0.8040750940090095
  0.8717802317673130  0.3015504032841518  0.9313032565197410
  0.8683636491988151  0.9347068327701580  0.3162539735908871
  0.1352472207326539  0.9416672387961476  0.0567437808911750
  0.8562918903226752  0.1840669798893882  0.5715935818141624
  0.3701900580491616  0.1824144959135772  0.5658823796002745
  0.3673575923838204  0.8089241485337060  0.9396277490389362
  0.1202393611120197  0.4454495395437564  0.0626651519356556
  0.1202706455986755  0.0700120317216874  0.1802430693394868
  0.3664288405820664  0.1823516040121537  0.8063433404676731
  0.8511016596234290  0.5417414642421587  0.6893833646702979
  0.1434454022959650  0.3257988692879837  0.4327615482364966
  0.6083063469476676  0.0608549112978829  0.9424206389043247
  0.1254708617962402  0.5494253287776840  0.1890659354041385
  0.6304903281963391  0.9500215589906444  0.3126643786701134
  0.6004665623318005  0.7963815455412795  0.9359717816334548
  0.5940801824708427  0.5459818576518423  0.9346968703845436
  0.1469730462622525  0.9389024764167755  0.5659530179415245
  0.8745094635734079  0.3192496547600532  0.6949410955920676
  0.6121269281401500  0.1943545452377228  0.5634613908158030
  0.3737613569163065  0.3118300939649790  0.6895097176876279
  0.3706440651495175  0.4296989313345963  0.3180515811095060
  0.1153183206413502  0.1739243935334492  0.0605254953725026
  0.3870341430343472  0.9442580603874944  0.0626629066022098
  0.3595754877444312  0.6899949180604904  0.8161580449832744
  0.1207388124770413  0.9468409110221216  0.8226468073875873
  0.6176726210496530  0.3060049906864502  0.6882726078695628
  0.1150201439960317  0.6728663590225796  0.8224127441378506
  0.3841241821950592  0.4286419414544271  0.5637053086725898
  0.8785125043610966  0.4392148604191881  0.8087021403195677
  0.3882432763182010  0.9525967261876092  0.5594382660616829
  0.8777005493761187  0.9371131748306029  0.8041869468742037
  0.6262949031197923  0.1732552801158071  0.0614111969618881
  0.6106544933697590  0.9254824900104762  0.5623703602391955
  0.1208169725497533  0.8048577087569034  0.9281670592602691
  0.8708268913233650  0.8177427719148387  0.6901474859246970
  0.8731211922716702  0.7916964342284510  0.4318177012453006
  0.9055067927004244  0.0749643893483661  0.6816508970744408
  0.3855823110944041  0.0723751721145606  0.6870135316871493
  0.3915177428015901  0.9384116892438982  0.3205297552229980
  0.8744809065164133  0.6936731253464279  0.3111447159022651
  0.3718418349910909  0.5649653695251575  0.9316670762679761
  0.3809672381162042  0.6998248111609009  0.5544618817267287
  0.8796386690361888  0.1895480052217755  0.3083460898549902
  0.3828401926422155  0.0687817239353962  0.4382178870269356
  0.3761618179250042  0.8148290257255757  0.4416091854889395
  0.8861959180023629  0.0779678072055953  0.1904316411624171
  0.3725362640353367  0.3077182922988323  0.9277070460835475
  0.9051222711124443  0.8327314039275531  0.1967445344464225
  0.1125889990892914  0.8112018809215943  0.1788243827910612
  0.3793591613142664  0.4359892625402436  0.8111468952780048
  0.3799351305103543  0.1917627570292477  0.3288158191192078
  0.1206266962895507  0.3114080930429824  0.6889832734160817
  0.6195407337497962  0.2972871025604078  0.1719529795068620
  0.1239393048357154  0.0709464367463813  0.9395637867426914
  0.3718057109679450  0.3090770132445540  0.4426918855583643
  0.1361219700106273  0.4304240469394447  0.3120672090519383
  0.1256866736633236  0.5610289796002519  0.9394559587984689
  0.8826462388645530  0.1884855393749955  0.0629087527374393
  0.3611896177777738  0.6760281226986423  0.0534249037557118
  0.6156342285554911  0.3054188944111391  0.4377594567994211
 
  0.00000000E+00  0.00000000E+00  0.00000000E+00
  0.00000000E+00  0.00000000E+00  0.00000000E+00
  0.00000000E+00  0.00000000E+00  0.00000000E+00
  0.00000000E+00  0.00000000E+00  0.00000000E+00
  0.00000000E+00  0.00000000E+00  0.00000000E+00
  0.00000000E+00  0.00000000E+00  0.00000000E+00
  0.00000000E+00  0.00000000E+00  0.00000000E+00
  0.00000000E+00  0.00000000E+00  0.00000000E+00
  0.00000000E+00  0.00000000E+00  0.00000000E+00
  0.00000000E+00  0.00000000E+00  0.00000000E+00
  0.00000000E+00  0.00000000E+00  0.00000000E+00
  0.00000000E+00  0.00000000E+00  0.00000000E+00
  0.00000000E+00  0.00000000E+00  0.00000000E+00
  0.00000000E+00  0.00000000E+00  0.00000000E+00
  0.00000000E+00  0.00000000E+00  0.00000000E+00
  0.00000000E+00  0.00000000E+00  0.00000000E+00
  0.00000000E+00  0.00000000E+00  0.00000000E+00
  0.00000000E+00  0.00000000E+00  0.00000000E+00
  0.00000000E+00  0.00000000E+00  0.00000000E+00
  0.00000000E+00  0.00000000E+00  0.00000000E+00
  0.00000000E+00  0.00000000E+00  0.00000000E+00
  0.00000000E+00  0.00000000E+00  0.00000000E+00
  0.00000000E+00  0.00000000E+00  0.00000000E+00
  0.00000000E+00  0.00000000E+00  0.00000000E+00
  0.00000000E+00  0.00000000E+00  0.00000000E+00
  0.00000000E+00  0.00000000E+00  0.00000000E+00
  0.00000000E+00  0.00000000E+00  0.00000000E+00
  0.00000000E+00  0.00000000E+00  0.00000000E+00
  0.00000000E+00  0.00000000E+00  0.00000000E+00
  0.00000000E+00  0.00000000E+00  0.00000000E+00
  0.00000000E+00  0.00000000E+00  0.00000000E+00
  0.00000000E+00  0.00000000E+00  0.00000000E+00
  0.00000000E+00  0.00000000E+00  0.00000000E+00
  0.00000000E+00  0.00000000E+00  0.00000000E+00
  0.00000000E+00  0.00000000E+00  0.00000000E+00
  0.00000000E+00  0.00000000E+00  0.00000000E+00
  0.00000000E+00  0.00000000E+00  0.00000000E+00
  0.00000000E+00  0.00000000E+00  0.00000000E+00
  0.00000000E+00  0.00000000E+00  0.00000000E+00
  0.00000000E+00  0.00000000E+00  0.00000000E+00
  0.00000000E+00  0.00000000E+00  0.00000000E+00
  0.00000000E+00  0.00000000E+00  0.00000000E+00
  0.00000000E+00  0.00000000E+00  0.00000000E+00
  0.00000000E+00  0.00000000E+00  0.00000000E+00
  0.00000000E+00  0.00000000E+00  0.00000000E+00
  0.00000000E+00  0.00000000E+00  0.00000000E+00
  0.00000000E+00  0.00000000E+00  0.00000000E+00
  0.00000000E+00  0.00000000E+00  0.00000000E+00
  0.00000000E+00  0.00000000E+00  0.00000000E+00
  0.00000000E+00  0.00000000E+00  0.00000000E+00
  0.00000000E+00  0.00000000E+00  0.00000000E+00
  0.00000000E+00  0.00000000E+00  0.00000000E+00
  0.00000000E+00  0.00000000E+00  0.00000000E+00
  0.00000000E+00  0.00000000E+00  0.00000000E+00
  0.00000000E+00  0.00000000E+00  0.00000000E+00
  0.00000000E+00  0.00000000E+00  0.00000000E+00
  0.00000000E+00  0.00000000E+00  0.00000000E+00
  0.00000000E+00  0.00000000E+00  0.00000000E+00
  0.00000000E+00  0.00000000E+00  0.00000000E+00
  0.00000000E+00  0.00000000E+00  0.00000000E+00
  0.00000000E+00  0.00000000E+00  0.00000000E+00
  0.00000000E+00  0.00000000E+00  0.00000000E+00
  0.00000000E+00  0.00000000E+00  0.00000000E+00
  0.00000000E+00  0.00000000E+00  0.00000000E+00
  0.00000000E+00  0.00000000E+00  0.00000000E+00
  0.00000000E+00  0.00000000E+00  0.00000000E+00
  0.00000000E+00  0.00000000E+00  0.00000000E+00
  0.00000000E+00  0.00000000E+00  0.00000000E+00
  0.00000000E+00  0.00000000E+00  0.00000000E+00
  0.00000000E+00  0.00000000E+00  0.00000000E+00
  0.00000000E+00  0.00000000E+00  0.00000000E+00
  0.00000000E+00  0.00000000E+00  0.00000000E+00
  0.00000000E+00  0.00000000E+00  0.00000000E+00
  0.00000000E+00  0.00000000E+00  0.00000000E+00
  0.00000000E+00  0.00000000E+00  0.00000000E+00
  0.00000000E+00  0.00000000E+00  0.00000000E+00
  0.00000000E+00  0.00000000E+00  0.00000000E+00
  0.00000000E+00  0.00000000E+00  0.00000000E+00
  0.00000000E+00  0.00000000E+00  0.00000000E+00
  0.00000000E+00  0.00000000E+00  0.00000000E+00
  0.00000000E+00  0.00000000E+00  0.00000000E+00
  0.00000000E+00  0.00000000E+00  0.00000000E+00
  0.00000000E+00  0.00000000E+00  0.00000000E+00
  0.00000000E+00  0.00000000E+00  0.00000000E+00
  0.00000000E+00  0.00000000E+00  0.00000000E+00
  0.00000000E+00  0.00000000E+00  0.00000000E+00
  0.00000000E+00  0.00000000E+00  0.00000000E+00
  0.00000000E+00  0.00000000E+00  0.00000000E+00
  0.00000000E+00  0.00000000E+00  0.00000000E+00
  0.00000000E+00  0.00000000E+00  0.00000000E+00
  0.00000000E+00  0.00000000E+00  0.00000000E+00
  0.00000000E+00  0.00000000E+00  0.00000000E+00
  0.00000000E+00  0.00000000E+00  0.00000000E+00
  0.00000000E+00  0.00000000E+00  0.00000000E+00
  0.00000000E+00  0.00000000E+00  0.00000000E+00
  0.00000000E+00  0.00000000E+00  0.00000000E+00
  0.00000000E+00  0.00000000E+00  0.00000000E+00
  0.00000000E+00  0.00000000E+00  0.00000000E+00
  0.00000000E+00  0.00000000E+00  0.00000000E+00
  0.00000000E+00  0.00000000E+00  0.00000000E+00
  0.00000000E+00  0.00000000E+00  0.00000000E+00
  0.00000000E+00  0.00000000E+00  0.00000000E+00
  0.00000000E+00  0.00000000E+00  0.00000000E+00
  0.00000000E+00  0.00000000E+00  0.00000000E+00
  0.00000000E+00  0.00000000E+00  0.00000000E+00
  0.00000000E+00  0.00000000E+00  0.00000000E+00
  0.00000000E+00  0.00000000E+00  0.00000000E+00
  0.00000000E+00  0.00000000E+00  0.00000000E+00
  0.00000000E+00  0.00000000E+00  0.00000000E+00
  0.00000000E+00  0.00000000E+00  0.00000000E+00
  0.00000000E+00  0.00000000E+00  0.00000000E+00
  0.00000000E+00  0.00000000E+00  0.00000000E+00
  0.00000000E+00  0.00000000E+00  0.00000000E+00
  0.00000000E+00  0.00000000E+00  0.00000000E+00
  0.00000000E+00  0.00000000E+00  0.00000000E+00
  0.00000000E+00  0.00000000E+00  0.00000000E+00
  0.00000000E+00  0.00000000E+00  0.00000000E+00
  0.00000000E+00  0.00000000E+00  0.00000000E+00
  0.00000000E+00  0.00000000E+00  0.00000000E+00
  0.00000000E+00  0.00000000E+00  0.00000000E+00
  0.00000000E+00  0.00000000E+00  0.00000000E+00
  0.00000000E+00  0.00000000E+00  0.00000000E+00
  0.00000000E+00  0.00000000E+00  0.00000000E+00
  0.00000000E+00  0.00000000E+00  0.00000000E+00
  0.00000000E+00  0.00000000E+00  0.00000000E+00
  0.00000000E+00  0.00000000E+00  0.00000000E+00
  0.00000000E+00  0.00000000E+00  0.00000000E+00
  0.00000000E+00  0.00000000E+00  0.00000000E+00
