Hf Ta                                   
    1.000000000000000     
    13.7856541851999683   -0.0700130357907092    0.0122512976944156
    -6.9609909260204512    9.7496386968575646    0.0072940535075311
     0.0171681289426390    0.0359558032177346   19.3666932518285506
  Hf             Ta           
              64              64
Direct
  0.6921551066796487  0.6314364161263137  0.4380884564677083
  0.6883511350497631  0.3643232371536308  0.9390209348171058
  0.6860698492012616  0.3755790136966056  0.4418727771457016
  0.3243617116557945  0.1306875202857871  0.5585033184970529
  0.0528234466363435  0.8715208002968113  0.8213111254215031
  0.0627204898159691  0.1232740784934045  0.8104105433573620
  0.1959669111931659  0.1320949814900571  0.1815193044973892
  0.3254993743486853  0.3725215400898427  0.0654983270415366
  0.9293798301795780  0.6214186995158173  0.6866827460730442
  0.9368224177890370  0.3825047273933579  0.4433791132808694
  0.0586059621144852  0.3518871731097588  0.5641929049926392
  0.5574442064870735  0.3873970271825645  0.0632172869597064
  0.3169671166111852  0.1248694144173816  0.3120029790643845
  0.4374933282422077  0.6334430813146331  0.9458385122359586
  0.0444206885739367  0.6182175777597640  0.0570540905330112
  0.5561571546746565  0.8715009099146264  0.0647969789046730
  0.9538778546202580  0.1321132551888846  0.4453346910636483
  0.1848895162272873  0.8592168166720549  0.9367341621643015
  0.6938888324738403  0.8857899179216386  0.4400074304628791
  0.3102117032911335  0.6156462794279370  0.8111815287570043
  0.0571671865628538  0.0969599213331932  0.5751651367687949
  0.1862010264461613  0.3927565978393202  0.6934699160780784
  0.5617100109099765  0.1171044960754322  0.8141246400593494
  0.6866398382501502  0.3690004110166299  0.1842566521012710
  0.1882655850918690  0.4084621557737315  0.4319885363198318
  0.4467813055951370  0.3561103793604072  0.4364867752773394
  0.0575177552763386  0.3791959403232663  0.3003709703991560
  0.3165521234024288  0.3790820721269911  0.5596487153797468
  0.4461829876221076  0.6223512486713302  0.4363510058450296
  0.3043354544607270  0.6250543148894221  0.5638685936761068
  0.4473773580637730  0.6318219614647725  0.1929003351671080
  0.1980308430617493  0.3610257150738159  0.9278677395930168
  0.6953715136836540  0.6307417377516156  0.1871597750060845
  0.2190701728653724  0.1599398132280649  0.6916674596267287
  0.9448597418413317  0.1408448136202019  0.1820632604040651
  0.0379616755818183  0.3516111269125894  0.8184742090756653
  0.1827962702621687  0.1366332397872595  0.4395373521668135
  0.0573527683841477  0.6204188482415104  0.8174028150580864
  0.9390646400148236  0.8830022681786727  0.6875441986787637
  0.0560791020455239  0.1137955349792877  0.0518453839714586
  0.3133787660837021  0.3819954926738548  0.3097179369855535
  0.8127518168118124  0.3774161331263694  0.3119404318089398
  0.3057291064406342  0.8726669354845249  0.5621625957140139
  0.9251320792808111  0.1288033887056412  0.9343268035603020
  0.1828078808749761  0.6297138862409313  0.1914526162781416
  0.8104694900034837  0.1051831239296681  0.3118226756452888
  0.5674903109245686  0.3716839867803929  0.8070492279049083
  0.5611914920229072  0.1259405083675244  0.0616253650954953
  0.0641833941924020  0.8753454838562750  0.0693063321882198
  0.9238830529383172  0.3877295179789346  0.9364516604276234
  0.0522063587199628  0.3676972366032388  0.0614564097976218
  0.5514826677275467  0.8608912610418866  0.3113057456217528
  0.6931314387231725  0.6272855811101016  0.9427275219505415
  0.6677124679312082  0.1172131247016605  0.4248165240324142
  0.1889685486403349  0.8937927956776417  0.6879550236637315
  0.9348548638408175  0.3786135534286753  0.6885023951488642
  0.0485544378202336  0.1015074713066429  0.3094775484001973
  0.4513734188018341  0.6419611968886830  0.6842801693872225
  0.4245842573880816  0.3588378736125979  0.9295364739960869
  0.5696157153264058  0.1307653283279736  0.5636148560316125
  0.8005685593615246  0.1202516857229396  0.5623979355124127
  0.5683320074215445  0.6279950797322549  0.8121619860986282
  0.2034243089458091  0.6184848278869046  0.9479755349788404
  0.3105905804234942  0.8638134433732250  0.0659222203611918
  0.9193512122848132  0.6383010609496916  0.9363130729650362
  0.8198227340803524  0.3971455484644649  0.5668008226744136
  0.3118165238095791  0.8657386784151324  0.8057138188722491
  0.6859899688139117  0.1071376122626697  0.9392834775048922
  0.9261186478852915  0.1288086661472530  0.6921138898142898
  0.2990534820297697  0.6237936114296931  0.3222557378720809
  0.1876507011819239  0.8761835890331062  0.1953698039165510
  0.8109338106285033  0.8759332204005343  0.0666077654682088
  0.3183957894346501  0.1190842114478030  0.0542220702239880
  0.5507607751766608  0.1189608551462461  0.3012064618954717
  0.3056381063893456  0.6009151385825697  0.0767546284260972
  0.4487905758693237  0.3697543059985529  0.1980842947570398
  0.8019387345375866  0.1196556004129000  0.0644062298490310
  0.6852252901179378  0.1184510274493388  0.6897671866494262
  0.4452195058745357  0.1328171874391163  0.6872750068375811
  0.9413330173800335  0.8764317738230882  0.4367813823033677
  0.8108552132379920  0.8777696300384195  0.8141784056984089
  0.8039072845751197  0.6323598956490130  0.8109059669644113
  0.9427690781141980  0.8812165995127250  0.1952349744735944
  0.6927223006931673  0.6299494299839303  0.6844807955774312
  0.4256142766115079  0.1166547437155700  0.1837141683850737
  0.8157722416032863  0.6311563055515247  0.5612465501200764
  0.5795796213607720  0.6510227576594693  0.0633529560864594
  0.5742666302562019  0.3911979884477507  0.5673539212427761
  0.5687905349259387  0.6124540177384405  0.3103848762005638
  0.4280909321614796  0.8584286410777831  0.4403514285688389
  0.8122568137118603  0.3690028128775469  0.0646911429831385
  0.3214533261388093  0.3630087322049516  0.7990869447910627
  0.3082135145488059  0.8695611630696227  0.3132231279449774
  0.9399296001007686  0.6355508820040450  0.4389368049355790
  0.6866469671584899  0.1161802058583494  0.1863689166779450
  0.0599496858877320  0.6359302391170720  0.3153773732525824
  0.4284684968295948  0.1131673623718843  0.9348143002901450
  0.4400425376934915  0.8931802607576701  0.1924496889698548
  0.4599184827439355  0.3911817322818396  0.6822919575511641
  0.7948673707511323  0.1129148880363631  0.8100173531741304
  0.2008349613934352  0.3969838343383431  0.1781673822428995
  0.6988213074981087  0.8856388742664082  0.1891026876572194
  0.8019523944938584  0.3843078078658864  0.8056813000953078
  0.9377344141810303  0.8876460588385771  0.9432960543516451
  0.1854602884244920  0.1025145004049053  0.9332017719930077
  0.6852280564291966  0.8706072050943718  0.9376080626908827
  0.0607313512112406  0.8675249618392983  0.3136116517550032
  0.1849623396744788  0.6456288662078213  0.4388231501929851
  0.8090611464125960  0.8672150101545176  0.5602465398801867
  0.8177086421937377  0.6192570079925522  0.0657435481577436
  0.8200967626014867  0.6289017999004685  0.3132841515103780
  0.8046950383919741  0.8526057323915106  0.3107991458728734
  0.1987040345868827  0.6563338795591177  0.6910279033432712
  0.4425094903514831  0.8856645185322992  0.9290759844629044
  0.9401253175140510  0.6322402550281280  0.1905242568109576
  0.9211468437490909  0.3765908621359290  0.1821850822016226
  0.0632394673670193  0.8612297935258643  0.5545287075394306
  0.3159097773483975  0.1119898014019245  0.8124368004708584
  0.5751104344285799  0.3797444190153103  0.3108471121321201
  0.0589179902910428  0.6245940541680588  0.5610730699839210
  0.1877451003999888  0.8774343036252356  0.4335719495861874
  0.4431018898961408  0.1006104369666111  0.4320736547895450
  0.6869149780037179  0.3690215545684872  0.6823674596142129
  0.5656963233845765  0.8738280139789188  0.8112349984069315
  0.5753782250640571  0.6354289286077435  0.5653925585330017
  0.6953865707654453  0.8804327348858358  0.6879066462339339
  0.4441194434430752  0.8852238801277498  0.6881459450550579
  0.5567134579694678  0.8628573965651793  0.5697984475384099
 
  0.00000000E+00  0.00000000E+00  0.00000000E+00
  0.00000000E+00  0.00000000E+00  0.00000000E+00
  0.00000000E+00  0.00000000E+00  0.00000000E+00
  0.00000000E+00  0.00000000E+00  0.00000000E+00
  0.00000000E+00  0.00000000E+00  0.00000000E+00
  0.00000000E+00  0.00000000E+00  0.00000000E+00
  0.00000000E+00  0.00000000E+00  0.00000000E+00
  0.00000000E+00  0.00000000E+00  0.00000000E+00
  0.00000000E+00  0.00000000E+00  0.00000000E+00
  0.00000000E+00  0.00000000E+00  0.00000000E+00
  0.00000000E+00  0.00000000E+00  0.00000000E+00
  0.00000000E+00  0.00000000E+00  0.00000000E+00
  0.00000000E+00  0.00000000E+00  0.00000000E+00
  0.00000000E+00  0.00000000E+00  0.00000000E+00
  0.00000000E+00  0.00000000E+00  0.00000000E+00
  0.00000000E+00  0.00000000E+00  0.00000000E+00
  0.00000000E+00  0.00000000E+00  0.00000000E+00
  0.00000000E+00  0.00000000E+00  0.00000000E+00
  0.00000000E+00  0.00000000E+00  0.00000000E+00
  0.00000000E+00  0.00000000E+00  0.00000000E+00
  0.00000000E+00  0.00000000E+00  0.00000000E+00
  0.00000000E+00  0.00000000E+00  0.00000000E+00
  0.00000000E+00  0.00000000E+00  0.00000000E+00
  0.00000000E+00  0.00000000E+00  0.00000000E+00
  0.00000000E+00  0.00000000E+00  0.00000000E+00
  0.00000000E+00  0.00000000E+00  0.00000000E+00
  0.00000000E+00  0.00000000E+00  0.00000000E+00
  0.00000000E+00  0.00000000E+00  0.00000000E+00
  0.00000000E+00  0.00000000E+00  0.00000000E+00
  0.00000000E+00  0.00000000E+00  0.00000000E+00
  0.00000000E+00  0.00000000E+00  0.00000000E+00
  0.00000000E+00  0.00000000E+00  0.00000000E+00
  0.00000000E+00  0.00000000E+00  0.00000000E+00
  0.00000000E+00  0.00000000E+00  0.00000000E+00
  0.00000000E+00  0.00000000E+00  0.00000000E+00
  0.00000000E+00  0.00000000E+00  0.00000000E+00
  0.00000000E+00  0.00000000E+00  0.00000000E+00
  0.00000000E+00  0.00000000E+00  0.00000000E+00
  0.00000000E+00  0.00000000E+00  0.00000000E+00
  0.00000000E+00  0.00000000E+00  0.00000000E+00
  0.00000000E+00  0.00000000E+00  0.00000000E+00
  0.00000000E+00  0.00000000E+00  0.00000000E+00
  0.00000000E+00  0.00000000E+00  0.00000000E+00
  0.00000000E+00  0.00000000E+00  0.00000000E+00
  0.00000000E+00  0.00000000E+00  0.00000000E+00
  0.00000000E+00  0.00000000E+00  0.00000000E+00
  0.00000000E+00  0.00000000E+00  0.00000000E+00
  0.00000000E+00  0.00000000E+00  0.00000000E+00
  0.00000000E+00  0.00000000E+00  0.00000000E+00
  0.00000000E+00  0.00000000E+00  0.00000000E+00
  0.00000000E+00  0.00000000E+00  0.00000000E+00
  0.00000000E+00  0.00000000E+00  0.00000000E+00
  0.00000000E+00  0.00000000E+00  0.00000000E+00
  0.00000000E+00  0.00000000E+00  0.00000000E+00
  0.00000000E+00  0.00000000E+00  0.00000000E+00
  0.00000000E+00  0.00000000E+00  0.00000000E+00
  0.00000000E+00  0.00000000E+00  0.00000000E+00
  0.00000000E+00  0.00000000E+00  0.00000000E+00
  0.00000000E+00  0.00000000E+00  0.00000000E+00
  0.00000000E+00  0.00000000E+00  0.00000000E+00
  0.00000000E+00  0.00000000E+00  0.00000000E+00
  0.00000000E+00  0.00000000E+00  0.00000000E+00
  0.00000000E+00  0.00000000E+00  0.00000000E+00
  0.00000000E+00  0.00000000E+00  0.00000000E+00
  0.00000000E+00  0.00000000E+00  0.00000000E+00
  0.00000000E+00  0.00000000E+00  0.00000000E+00
  0.00000000E+00  0.00000000E+00  0.00000000E+00
  0.00000000E+00  0.00000000E+00  0.00000000E+00
  0.00000000E+00  0.00000000E+00  0.00000000E+00
  0.00000000E+00  0.00000000E+00  0.00000000E+00
  0.00000000E+00  0.00000000E+00  0.00000000E+00
  0.00000000E+00  0.00000000E+00  0.00000000E+00
  0.00000000E+00  0.00000000E+00  0.00000000E+00
  0.00000000E+00  0.00000000E+00  0.00000000E+00
  0.00000000E+00  0.00000000E+00  0.00000000E+00
  0.00000000E+00  0.00000000E+00  0.00000000E+00
  0.00000000E+00  0.00000000E+00  0.00000000E+00
  0.00000000E+00  0.00000000E+00  0.00000000E+00
  0.00000000E+00  0.00000000E+00  0.00000000E+00
  0.00000000E+00  0.00000000E+00  0.00000000E+00
  0.00000000E+00  0.00000000E+00  0.00000000E+00
  0.00000000E+00  0.00000000E+00  0.00000000E+00
  0.00000000E+00  0.00000000E+00  0.00000000E+00
  0.00000000E+00  0.00000000E+00  0.00000000E+00
  0.00000000E+00  0.00000000E+00  0.00000000E+00
  0.00000000E+00  0.00000000E+00  0.00000000E+00
  0.00000000E+00  0.00000000E+00  0.00000000E+00
  0.00000000E+00  0.00000000E+00  0.00000000E+00
  0.00000000E+00  0.00000000E+00  0.00000000E+00
  0.00000000E+00  0.00000000E+00  0.00000000E+00
  0.00000000E+00  0.00000000E+00  0.00000000E+00
  0.00000000E+00  0.00000000E+00  0.00000000E+00
  0.00000000E+00  0.00000000E+00  0.00000000E+00
  0.00000000E+00  0.00000000E+00  0.00000000E+00
  0.00000000E+00  0.00000000E+00  0.00000000E+00
  0.00000000E+00  0.00000000E+00  0.00000000E+00
  0.00000000E+00  0.00000000E+00  0.00000000E+00
  0.00000000E+00  0.00000000E+00  0.00000000E+00
  0.00000000E+00  0.00000000E+00  0.00000000E+00
  0.00000000E+00  0.00000000E+00  0.00000000E+00
  0.00000000E+00  0.00000000E+00  0.00000000E+00
  0.00000000E+00  0.00000000E+00  0.00000000E+00
  0.00000000E+00  0.00000000E+00  0.00000000E+00
  0.00000000E+00  0.00000000E+00  0.00000000E+00
  0.00000000E+00  0.00000000E+00  0.00000000E+00
  0.00000000E+00  0.00000000E+00  0.00000000E+00
  0.00000000E+00  0.00000000E+00  0.00000000E+00
  0.00000000E+00  0.00000000E+00  0.00000000E+00
  0.00000000E+00  0.00000000E+00  0.00000000E+00
  0.00000000E+00  0.00000000E+00  0.00000000E+00
  0.00000000E+00  0.00000000E+00  0.00000000E+00
  0.00000000E+00  0.00000000E+00  0.00000000E+00
  0.00000000E+00  0.00000000E+00  0.00000000E+00
  0.00000000E+00  0.00000000E+00  0.00000000E+00
  0.00000000E+00  0.00000000E+00  0.00000000E+00
  0.00000000E+00  0.00000000E+00  0.00000000E+00
  0.00000000E+00  0.00000000E+00  0.00000000E+00
  0.00000000E+00  0.00000000E+00  0.00000000E+00
  0.00000000E+00  0.00000000E+00  0.00000000E+00
  0.00000000E+00  0.00000000E+00  0.00000000E+00
  0.00000000E+00  0.00000000E+00  0.00000000E+00
  0.00000000E+00  0.00000000E+00  0.00000000E+00
  0.00000000E+00  0.00000000E+00  0.00000000E+00
  0.00000000E+00  0.00000000E+00  0.00000000E+00
  0.00000000E+00  0.00000000E+00  0.00000000E+00
  0.00000000E+00  0.00000000E+00  0.00000000E+00
  0.00000000E+00  0.00000000E+00  0.00000000E+00
  0.00000000E+00  0.00000000E+00  0.00000000E+00
