Nb Ta                                   
    1.000000000000000     
    13.2636893345018692    0.0008566831088641    0.0002035293718691
     0.0008566888671116   13.2647404280105725    0.0010553676791665
     0.0002036419913772    0.0010553516122802   13.2634087735958435
   Nb   Ta
    44    84
Direct
  0.2496256316106005  0.0011463921943280  0.4992260968529691
  0.3775954773039928  0.6240045693915672  0.1262488996146556
  0.3762545767368315  0.3757869891981594  0.3734269791346680
  0.8741725639661779  0.1255581120137976  0.3763548511867317
  0.8753861487526490  0.8740387070674283  0.1239541852279997
  0.3743148310443159  0.1248596322321316  0.1240078562439000
  0.1262944335037957  0.1263044361087952  0.8762197531812811
  0.3754780779240454  0.3752978574336909  0.6244980455922396
  0.2498810808538339  0.7485371932365942  0.4988203644860930
  0.1261574284857830  0.1249216694678317  0.3763719552275809
  0.3754874082715083  0.8769686320175439  0.8752624309435065
  0.6248692671473168  0.1264289387722185  0.3735817127385146
  0.6251023363811707  0.1234775645563118  0.6265581276372366
  0.1242520852546082  0.8738167428381916  0.8761002739395142
  0.6256489307626758  0.8746296108838427  0.3744391597157457
  0.6261826480123104  0.6241833764306751  0.8759617116388968
  0.1230664289157307  0.6250863399347626  0.1251373855786145
  0.4996596340787230  0.5007073805988466 -0.0016036340874254
  0.8764308998833997  0.8736596791872147  0.3751135937810733
  0.8751555689196504  0.6236247055904668  0.6254620101488466
  0.1226644521188171  0.3748973095148647  0.6249132661697098
  0.0005873931264306  0.4991929001731116  0.2500762235202382
  0.4997113981639570  0.4996032011509034  0.2490644650124752
  0.3727483249727075  0.8750794288167548  0.3757281033591083
  0.3747703717265783  0.3733627839554479  0.8773647779240255
  0.6241358930837803  0.8749596414985331  0.6258127973198750
  0.2501798384199676 -0.0010861026696751 -0.0007940970299270
 -0.0001123056740129  0.5000772320119476  0.7489266796172432
  0.4994156730779064  0.4985417800807307  0.5013759689248647
  0.1245739454012515  0.6257493440343768  0.3759442072209917
  0.0002324303151690  0.7513307010286885  0.2496221869789159
  0.6254762302524133  0.3767455391600342  0.6242926924522740
  0.7504163894917629 -0.0004719480064391  0.7498695663909144
  0.7500924700018895  0.2503676168242824  0.2512288617556347
  0.7495806548736187  0.7499847652648033 -0.0004542062971876
  0.6240682372792116  0.3753921123429939  0.1256447206407660
  0.8748036899718116  0.8774229465549759  0.6259136885798828
  0.6265293328296681  0.8762076814049556  0.8754384321403175
  0.4995513009264120 -0.0007275078640813  0.7498829287667422
  0.7500951538616869  0.0002495066150386  0.4982029552839924
  0.2506625913090269  0.2508139588233052 -0.0005278763299436
  0.8753748842005659  0.3754749760482733  0.3749691578717506
  0.3743951690261100  0.6245349960719568  0.8741431855249442
 -0.0001715066854157  0.2497556083950841  0.4991438963453864
  0.2516196461613155  0.7479494664865546  0.2483575376833179
  0.7499912474805278  0.5001257513556896  0.2496463230978185
  0.1253480679906044  0.8739765552112697  0.3749307546871200
  0.1250352590637160  0.1246807222580881  0.1242173199822599
  0.4989414327094092  0.4998704068580406  0.7506327230832934
  0.0002758060168660  0.5002455229039532  0.0010598060311178
  0.4998139556638230  0.0001703848000428  0.2506504589021452
  0.3770345311607518  0.6244415609751848  0.3770841552418516
  0.5011270974196108  0.0002353509802260  0.0010378896595582
  0.2494851111570161  0.5011461190248137  0.2498996491291852
  0.3733828930402487  0.3752196651947095  0.1245136199719798
  0.8760588457107260  0.3732955867134553  0.6262032082635636
  0.1244572089335383  0.3766042197227199  0.8760374409343112
  0.1266225223123912  0.8764275917896615  0.1266150723358088
  0.1270816188114970  0.6268253362303511  0.6266899280109376
  0.3768201809831984  0.1250760305514426  0.8729786340368719
  0.7495277027353915  0.7480895750716640  0.7476656327391923
  0.1274994795272048  0.8745862571523333  0.6224772660730044
  0.3749918731946864  0.6273210130645556  0.6225987223151974
  0.6252738618612625  0.3742699869661525  0.8752696851222547
  0.4998186817911386  0.2519414503797334  0.7484914636756355
  0.7501263712234720  0.0003338711092063  0.0015360271607131
  0.2502030220827975  0.7471663217234075 -0.0000152675177228
  0.8737252355211671  0.6249109520780118  0.1256251855469572
  0.3731996847480085  0.8752094327600185  0.6249406523587161
 -0.0011013803863555 -0.0012199784322556  0.4992698699480577
  0.2509471937016890  0.7506615532045036  0.7529851911906683
  0.3745289874953341  0.8753477991462985  0.1245596067342841
  0.8741494245065861  0.1264886541871087  0.1244824457416450
  0.7480715236954827  0.2510003600488254  0.5011218784007447
  0.7506006747040995  0.7493007417167459  0.5005222360794364
 -0.0005322634218511  0.7525189509201863  0.7489527899265683
  0.7506349656101317  0.4988034911202755  0.0004952942910933
  0.7495800197459607  0.2510027918505983 -0.0006879938519465
  0.8727382828818879  0.1239716288496334  0.8739040764085251
  0.1241106893132725  0.3750276331516586  0.3734126656870810
  0.5019168530399866  0.7533058491258549  0.4994091391244495
  0.7523170748304137  0.4996350203856516  0.4999883140518274
  0.6242719131045675  0.6228164722505215  0.3753738971849832
  0.8763208002712840  0.3743738300076307  0.1251815445109352
  0.3740070111899802  0.1225292505838256  0.6253344303442439
  0.2499857443067149  0.2512618790723414  0.7481210282780165
  0.5015582656964542 -0.0003445034579732  0.4985793606044425
  0.8760466070716103  0.6256108758166714  0.8758905306354184
  0.6242748202894391  0.3764829990935017  0.3744167633404017
  0.7511917545509177 -0.0019521548075767  0.2498287512392117
  0.0010068036122262  0.2475861035682474  0.2501722979242365
  0.1256926529512085  0.3731912196801967  0.1252329203808450
  0.2488320357631637  0.5024171526558777  0.0005252730874341
  0.6255804917496541  0.6268683866534626  0.1256128017878679
  0.5007285597713470  0.2485128147084679  0.5009926501715877
  0.2527182793857011  0.4989022194576676  0.7496523654488086
  0.7487459299207595  0.2512123607013358  0.7490196785893362
 -0.0008073977180648  0.0016161369198023  0.2508304777504766
  0.3749392980707015  0.1248439375098285  0.3772668630842909
 -0.0011994317290950 -0.0005272726787290 -0.0001718704808759
  0.0022885128311275 -0.0003385467447234  0.7505502948078329
  0.2505442637882764  0.2494444064258320  0.2517709115268630
  0.2505060271903790  0.0009295457743535  0.2502351281578667
  0.8752384213343812  0.3756018826355466  0.8738159605469282
  0.6246097741319285  0.1255775698315148  0.8747065990778231
  0.2482189038517747  0.4978360748639603  0.4999647159102326
  0.4982925647682080  0.7508495161812850 -0.0015898674617355
  0.5001710043687329  0.7490340902078682  0.7515893854846338
  0.2514367871111277  0.2529681884173188  0.5003158171439158
 -0.0010278740306144  0.2494244417924379 -0.0007893652006320
 -0.0025662914640723  0.7498285366142508  0.5018872601515729
  0.6237535868677113  0.8741915794096893  0.1245522301765429
  0.5010628766151392  0.2487846438416570  0.0010776260900242
  0.8736610236913350  0.8746365347505610  0.8746447413758507
 -0.0000486982554104  0.5019190749732391  0.4998350413725471
  0.0013440855809834  0.2478320769951783  0.7517880784750871
  0.1251598446951440  0.1239760795775834  0.6235853252649712
  0.7487090296821654  0.7512673999592282  0.2518031360192405
  0.1230537899256712  0.6231359903467916  0.8721624921962103
  0.8743177485779445  0.6252640611465895  0.3727759951037165
  0.7482603702941365  0.5008630498716707  0.7495373695608208
  0.4995957843186696  0.7519386677004513  0.2509975452189785
  0.0017640169054562  0.7506598838168592 -0.0004301224230554
  0.6227464835207555  0.6246457822030134  0.6227406359171759
  0.6267901310350585  0.1240554040090079  0.1253318157995621
  0.4984794667420676  0.2483580142797496  0.2494165903636391
  0.2476361374858944 -0.0004275622539672  0.7514986562831200
  0.8758872372800184  0.1258812786163165  0.6258824959954492
 
  0.00000000E+00  0.00000000E+00  0.00000000E+00
  0.00000000E+00  0.00000000E+00  0.00000000E+00
  0.00000000E+00  0.00000000E+00  0.00000000E+00
  0.00000000E+00  0.00000000E+00  0.00000000E+00
  0.00000000E+00  0.00000000E+00  0.00000000E+00
  0.00000000E+00  0.00000000E+00  0.00000000E+00
  0.00000000E+00  0.00000000E+00  0.00000000E+00
  0.00000000E+00  0.00000000E+00  0.00000000E+00
  0.00000000E+00  0.00000000E+00  0.00000000E+00
  0.00000000E+00  0.00000000E+00  0.00000000E+00
  0.00000000E+00  0.00000000E+00  0.00000000E+00
  0.00000000E+00  0.00000000E+00  0.00000000E+00
  0.00000000E+00  0.00000000E+00  0.00000000E+00
  0.00000000E+00  0.00000000E+00  0.00000000E+00
  0.00000000E+00  0.00000000E+00  0.00000000E+00
  0.00000000E+00  0.00000000E+00  0.00000000E+00
  0.00000000E+00  0.00000000E+00  0.00000000E+00
  0.00000000E+00  0.00000000E+00  0.00000000E+00
  0.00000000E+00  0.00000000E+00  0.00000000E+00
  0.00000000E+00  0.00000000E+00  0.00000000E+00
  0.00000000E+00  0.00000000E+00  0.00000000E+00
  0.00000000E+00  0.00000000E+00  0.00000000E+00
  0.00000000E+00  0.00000000E+00  0.00000000E+00
  0.00000000E+00  0.00000000E+00  0.00000000E+00
  0.00000000E+00  0.00000000E+00  0.00000000E+00
  0.00000000E+00  0.00000000E+00  0.00000000E+00
  0.00000000E+00  0.00000000E+00  0.00000000E+00
  0.00000000E+00  0.00000000E+00  0.00000000E+00
  0.00000000E+00  0.00000000E+00  0.00000000E+00
  0.00000000E+00  0.00000000E+00  0.00000000E+00
  0.00000000E+00  0.00000000E+00  0.00000000E+00
  0.00000000E+00  0.00000000E+00  0.00000000E+00
  0.00000000E+00  0.00000000E+00  0.00000000E+00
  0.00000000E+00  0.00000000E+00  0.00000000E+00
  0.00000000E+00  0.00000000E+00  0.00000000E+00
  0.00000000E+00  0.00000000E+00  0.00000000E+00
  0.00000000E+00  0.00000000E+00  0.00000000E+00
  0.00000000E+00  0.00000000E+00  0.00000000E+00
  0.00000000E+00  0.00000000E+00  0.00000000E+00
  0.00000000E+00  0.00000000E+00  0.00000000E+00
  0.00000000E+00  0.00000000E+00  0.00000000E+00
  0.00000000E+00  0.00000000E+00  0.00000000E+00
  0.00000000E+00  0.00000000E+00  0.00000000E+00
  0.00000000E+00  0.00000000E+00  0.00000000E+00
  0.00000000E+00  0.00000000E+00  0.00000000E+00
  0.00000000E+00  0.00000000E+00  0.00000000E+00
  0.00000000E+00  0.00000000E+00  0.00000000E+00
  0.00000000E+00  0.00000000E+00  0.00000000E+00
  0.00000000E+00  0.00000000E+00  0.00000000E+00
  0.00000000E+00  0.00000000E+00  0.00000000E+00
  0.00000000E+00  0.00000000E+00  0.00000000E+00
  0.00000000E+00  0.00000000E+00  0.00000000E+00
  0.00000000E+00  0.00000000E+00  0.00000000E+00
  0.00000000E+00  0.00000000E+00  0.00000000E+00
  0.00000000E+00  0.00000000E+00  0.00000000E+00
  0.00000000E+00  0.00000000E+00  0.00000000E+00
  0.00000000E+00  0.00000000E+00  0.00000000E+00
  0.00000000E+00  0.00000000E+00  0.00000000E+00
  0.00000000E+00  0.00000000E+00  0.00000000E+00
  0.00000000E+00  0.00000000E+00  0.00000000E+00
  0.00000000E+00  0.00000000E+00  0.00000000E+00
  0.00000000E+00  0.00000000E+00  0.00000000E+00
  0.00000000E+00  0.00000000E+00  0.00000000E+00
  0.00000000E+00  0.00000000E+00  0.00000000E+00
  0.00000000E+00  0.00000000E+00  0.00000000E+00
  0.00000000E+00  0.00000000E+00  0.00000000E+00
  0.00000000E+00  0.00000000E+00  0.00000000E+00
  0.00000000E+00  0.00000000E+00  0.00000000E+00
  0.00000000E+00  0.00000000E+00  0.00000000E+00
  0.00000000E+00  0.00000000E+00  0.00000000E+00
  0.00000000E+00  0.00000000E+00  0.00000000E+00
  0.00000000E+00  0.00000000E+00  0.00000000E+00
  0.00000000E+00  0.00000000E+00  0.00000000E+00
  0.00000000E+00  0.00000000E+00  0.00000000E+00
  0.00000000E+00  0.00000000E+00  0.00000000E+00
  0.00000000E+00  0.00000000E+00  0.00000000E+00
  0.00000000E+00  0.00000000E+00  0.00000000E+00
  0.00000000E+00  0.00000000E+00  0.00000000E+00
  0.00000000E+00  0.00000000E+00  0.00000000E+00
  0.00000000E+00  0.00000000E+00  0.00000000E+00
  0.00000000E+00  0.00000000E+00  0.00000000E+00
  0.00000000E+00  0.00000000E+00  0.00000000E+00
  0.00000000E+00  0.00000000E+00  0.00000000E+00
  0.00000000E+00  0.00000000E+00  0.00000000E+00
  0.00000000E+00  0.00000000E+00  0.00000000E+00
  0.00000000E+00  0.00000000E+00  0.00000000E+00
  0.00000000E+00  0.00000000E+00  0.00000000E+00
  0.00000000E+00  0.00000000E+00  0.00000000E+00
  0.00000000E+00  0.00000000E+00  0.00000000E+00
  0.00000000E+00  0.00000000E+00  0.00000000E+00
  0.00000000E+00  0.00000000E+00  0.00000000E+00
  0.00000000E+00  0.00000000E+00  0.00000000E+00
  0.00000000E+00  0.00000000E+00  0.00000000E+00
  0.00000000E+00  0.00000000E+00  0.00000000E+00
  0.00000000E+00  0.00000000E+00  0.00000000E+00
  0.00000000E+00  0.00000000E+00  0.00000000E+00
  0.00000000E+00  0.00000000E+00  0.00000000E+00
  0.00000000E+00  0.00000000E+00  0.00000000E+00
  0.00000000E+00  0.00000000E+00  0.00000000E+00
  0.00000000E+00  0.00000000E+00  0.00000000E+00
  0.00000000E+00  0.00000000E+00  0.00000000E+00
  0.00000000E+00  0.00000000E+00  0.00000000E+00
  0.00000000E+00  0.00000000E+00  0.00000000E+00
  0.00000000E+00  0.00000000E+00  0.00000000E+00
  0.00000000E+00  0.00000000E+00  0.00000000E+00
  0.00000000E+00  0.00000000E+00  0.00000000E+00
  0.00000000E+00  0.00000000E+00  0.00000000E+00
  0.00000000E+00  0.00000000E+00  0.00000000E+00
  0.00000000E+00  0.00000000E+00  0.00000000E+00
  0.00000000E+00  0.00000000E+00  0.00000000E+00
  0.00000000E+00  0.00000000E+00  0.00000000E+00
  0.00000000E+00  0.00000000E+00  0.00000000E+00
  0.00000000E+00  0.00000000E+00  0.00000000E+00
  0.00000000E+00  0.00000000E+00  0.00000000E+00
  0.00000000E+00  0.00000000E+00  0.00000000E+00
  0.00000000E+00  0.00000000E+00  0.00000000E+00
  0.00000000E+00  0.00000000E+00  0.00000000E+00
  0.00000000E+00  0.00000000E+00  0.00000000E+00
  0.00000000E+00  0.00000000E+00  0.00000000E+00
  0.00000000E+00  0.00000000E+00  0.00000000E+00
  0.00000000E+00  0.00000000E+00  0.00000000E+00
  0.00000000E+00  0.00000000E+00  0.00000000E+00
  0.00000000E+00  0.00000000E+00  0.00000000E+00
  0.00000000E+00  0.00000000E+00  0.00000000E+00
  0.00000000E+00  0.00000000E+00  0.00000000E+00
  0.00000000E+00  0.00000000E+00  0.00000000E+00
  0.00000000E+00  0.00000000E+00  0.00000000E+00
  0.00000000E+00  0.00000000E+00  0.00000000E+00
