Hf Ti                                   
    1.000000000000000     
    12.5743068314946083    0.0008685885420716    0.0018760069377537
    -6.2863992063862408   10.8892430319208167   -0.0009358764580747
     0.0029887207182088    0.0000242451050207   19.8363149485927366
  Hf              Ti            
    96    32
Direct
     0.4137405399502334    0.0824011914871483    0.4349731676582009
     0.1698114343540225    0.0868164277672935    0.1886333083697725
     0.4188075990218225    0.3338208019872443    0.9388271959270151
     0.8296986816757064    0.1648070670641994    0.5606971678140126
     0.5846778953855135    0.4189585086484091    0.5623086668445130
     0.1688642787355437    0.0843297120714627    0.4353447661083129
     0.9126110250845034    0.5827794944955110    0.1883659759080229
     0.1702431685810125    0.8348193238013534    0.1880917136327052
     0.8358116395250095    0.6657045569659656    0.8116091438993394
     0.1671949110105248    0.5830697283803443    0.9397537055973608
     0.4136146961375521    0.5828639608942496    0.4350286194351845
     0.0791613289972240    0.6653164630676626    0.8118657352979618
     0.3314130213270923    0.9115136757223462    0.5588919490740353
     0.3341956580612603    0.9150325847809898    0.3135848938916467
     0.8345998108255734    0.1687500769165090    0.8135154382211804
     0.5866679629126108    0.6705534805145947    0.5635664705194594
     0.0828024467862425    0.9122523479818757    0.5604705943146451
     0.3333166586212889    0.6682528808634323    0.8135031796495524
     0.4193097435573448    0.5858514055081565    0.6882315438217149
     0.3363435614903836    0.6719275219837824    0.5592745372298669
     0.0827653031236670    0.1694431043679634    0.0629890545996291
     0.0813068040248084    0.6661752014212307    0.3135814592135882
     0.9200080152919772    0.3343602515484465    0.4334314762860004
     0.5821453441650851    0.1674315071766009    0.3093205253289547
     0.9146728493209044    0.0810219042900881    0.9377372458376685
     0.6656884620043578    0.0798814768800975    0.6890671881230596
     0.9128445732397634    0.5821887740170200    0.9395282718747340
     0.4129300278564717    0.3323879967843675    0.4340173277826475
     0.8296835067232722    0.9117047077023354    0.8123371870587098
     0.1677313994656789    0.3314394673122695    0.9378353785097774
     0.5847126127458773    0.4168821566886796    0.3109143555537158
     0.9170371997919571    0.0831389379785154    0.6890062636645208
     0.3400642061493276    0.4188071868120073    0.8140140280326432
     0.8283738281555393    0.9143738863035366    0.0631165143494724
     0.9166380444166803    0.3318640084846894    0.9412194293080869
     0.5807417274893441    0.6696295406835457    0.3099638586428504
     0.0814694356129091    0.9168483216981128    0.0623314939259117
     0.4193190567646111    0.3346059480506772    0.6887231823339547
     0.9155130705358276    0.8274784027785925    0.4366383309835372
     0.1634111229386288    0.0805999484179803    0.6896624837521980
     0.8298809227932603    0.9146617968718166    0.5627440608139018
     0.3315008656930578    0.1639901682486724    0.0627920072681441
     0.5890656330994611    0.4183312696365141    0.0624609916068805
     0.3370315411326356    0.9183033209203786    0.8132253660127116
     0.3375668012629961    0.9176120782524656    0.0636103361785502
     0.0839720487572840    0.9158458890194086    0.3131358250745867
     0.8335535766108650    0.4184450624910919    0.3123078436313584
     0.0842369504791676    0.1745885051943064    0.3118109185544388
     0.9146397315543139    0.0844823858201881    0.1875043146992148
     0.6689847680157855    0.5845674486573460    0.6894220533673958
     0.8281845944207231    0.9164642010267849    0.3115416987017438
     0.1661300623747471    0.3312087652540448    0.6893857256768893
     0.3316919955472808    0.4166773649149415    0.5609181553326280
     0.0843512327067127    0.4170200911601242    0.5595340618141711
     0.9171391633967843    0.0850429624179587    0.4354701775693545
     0.6679252837288697    0.3337804611687552    0.4368882661004017
     0.5822192581152446    0.9120379590865765    0.8150178085730374
     0.4182297558216943    0.3304692358346120    0.1883824645018005
     0.9186539444560171    0.3305511849108829    0.1888964930819770
     0.6677535295913287    0.5846737016048872    0.9352955700996378
     0.4178034116039813    0.0833707551901675    0.6884268823717110
     0.1686170889749607    0.8371189514354835    0.9367425657439399
     0.3298995185712973    0.1647334570642307    0.8151486229084086
     0.4208680992800981    0.0838767917114607    0.9378570415731505
     0.8305465758929886    0.4133229169845568    0.0642491371865060
     0.5857117153950230    0.6688529492858651    0.0639742989430477
     0.0828571908934194    0.1673520130602932    0.5611630979692274
     0.4229177987033132    0.5904213118846514    0.9376585247230967
     0.1642569821403851    0.5848396207199665    0.6848210611760471
     0.0826842772021014    0.4156590172668260    0.8137619826434310
     0.3338181147470494    0.1661631420692278    0.5618518409749794
     0.9125567999591014    0.8297544716870281    0.1882576421601476
     0.4204001892290556    0.8336505900370432    0.6859520572048513
     0.4223218981650457    0.8329577049714464    0.1903518532436833
     0.1633204235203549    0.8314012870583271    0.6874752226515142
     0.1671308908053971    0.5877759744519029    0.4353622472556724
     0.9167441383330871    0.8331402120286139    0.9374777228777283
     0.6674785034089586    0.3349359516120065    0.6890637029262950
     0.9160985073341578    0.8292586441613767    0.6867459732202631
     0.6720121601048800    0.5854236969695626    0.4367313202332820
     0.6691068108898501    0.0815976148438043    0.1885544652657927
     0.3318481322903152    0.4198831021126428    0.0664756648647826
     0.5859797662147218    0.9157116178860252    0.0609532963630431
     0.1695219214256472    0.5767513284553696    0.1902904563594856
     0.5834531020229474    0.1635323343287675    0.5625606815985802
     0.6607590523739725    0.8337885232202736    0.4371290372759959
     0.9163445525516454    0.3359459795103267    0.6866917658806312
     0.8394957471615999    0.4262518279083551    0.5606799897746411
     0.6677369447966099    0.0867233636836429    0.9379395283490902
     0.5857384672422412    0.1702898969442806    0.0646182877361502
     0.6618721636550935    0.0781039760891228    0.4339987193335946
     0.6683186373271849    0.5846895507946656    0.1878576298080024
     0.8279244262946108    0.4154406930402700    0.8141007560077751
     0.3344103623716308    0.6665692262959559    0.0646998546115530
     0.3268161469094354    0.4193580025485343    0.3086780255074482
     0.0813725628672928    0.6640396229390464    0.0640622194682597
     0.9174972658533673    0.5846211025105719    0.6845344760233255
     0.4184061392990863    0.8322730911966628    0.4343724045483580
     0.5822235490016318    0.9138317897700785    0.3121969286181929
     0.8372543883038019    0.6644345062165403    0.5615984882376364
     0.6650351513924524    0.8327002483987079    0.6887238504560570
     0.1639325059466463    0.3359162504753023    0.1872550730659001
     0.5812236735201740    0.4111798444878588    0.8146255030005002
     0.8332260386901134    0.6674933268773241    0.0633795880929513
     0.0861601005457426    0.4147399520737666    0.3122410676257916
     0.6655797044237906    0.8297403473932732    0.9362719683873886
     0.3337604436003904    0.1650709403490394    0.3104509092920449
     0.0836624606254536    0.1606272370904840    0.8149486441445457
     0.0833651140815095    0.9223095105748010    0.8142222658399622
     0.8355090060177225    0.1676612813407620    0.0638589617125140
     0.4161146827584613    0.0852612083363481    0.1890124227613129
     0.5823487695710937    0.9160602646328985    0.5615336218111253
     0.6633268134581241    0.8341864266212808    0.1879870377406743
     0.0773585810200867    0.6682564119786681    0.5603247110142348
     0.1671710227653766    0.3370259334540426    0.4350088764387364
     0.4177073768235424    0.5866562449585397    0.1887534500094468
     0.1628896019757363    0.0809962999854703    0.9366550111295198
     0.0822835183708028    0.4130101538241455    0.0650627375042144
     0.4159965557367608    0.8325504923566215    0.9384586123861436
     0.8337951979118310    0.6660423720028172    0.3131065736362974
     0.6661349496631408    0.3322557053458061    0.1877082038178973
     0.8323501770319873    0.1651645899023432    0.3119023795459239
     0.1646800906675744    0.8273461295141589    0.4373960480150581
     0.6636697908011495    0.3308878748626918    0.9367749859333517
     0.5854515554231357    0.6695516687535005    0.8124340936705974
     0.5832023623664029    0.1715820240534954    0.8142796597521227
     0.3369473910866305    0.6693025878578560    0.3123834220996571
     0.9203394771915859    0.5897411177620698    0.4378578804617393
 
  0.00000000E+00  0.00000000E+00  0.00000000E+00
  0.00000000E+00  0.00000000E+00  0.00000000E+00
  0.00000000E+00  0.00000000E+00  0.00000000E+00
  0.00000000E+00  0.00000000E+00  0.00000000E+00
  0.00000000E+00  0.00000000E+00  0.00000000E+00
  0.00000000E+00  0.00000000E+00  0.00000000E+00
  0.00000000E+00  0.00000000E+00  0.00000000E+00
  0.00000000E+00  0.00000000E+00  0.00000000E+00
  0.00000000E+00  0.00000000E+00  0.00000000E+00
  0.00000000E+00  0.00000000E+00  0.00000000E+00
  0.00000000E+00  0.00000000E+00  0.00000000E+00
  0.00000000E+00  0.00000000E+00  0.00000000E+00
  0.00000000E+00  0.00000000E+00  0.00000000E+00
  0.00000000E+00  0.00000000E+00  0.00000000E+00
  0.00000000E+00  0.00000000E+00  0.00000000E+00
  0.00000000E+00  0.00000000E+00  0.00000000E+00
  0.00000000E+00  0.00000000E+00  0.00000000E+00
  0.00000000E+00  0.00000000E+00  0.00000000E+00
  0.00000000E+00  0.00000000E+00  0.00000000E+00
  0.00000000E+00  0.00000000E+00  0.00000000E+00
  0.00000000E+00  0.00000000E+00  0.00000000E+00
  0.00000000E+00  0.00000000E+00  0.00000000E+00
  0.00000000E+00  0.00000000E+00  0.00000000E+00
  0.00000000E+00  0.00000000E+00  0.00000000E+00
  0.00000000E+00  0.00000000E+00  0.00000000E+00
  0.00000000E+00  0.00000000E+00  0.00000000E+00
  0.00000000E+00  0.00000000E+00  0.00000000E+00
  0.00000000E+00  0.00000000E+00  0.00000000E+00
  0.00000000E+00  0.00000000E+00  0.00000000E+00
  0.00000000E+00  0.00000000E+00  0.00000000E+00
  0.00000000E+00  0.00000000E+00  0.00000000E+00
  0.00000000E+00  0.00000000E+00  0.00000000E+00
  0.00000000E+00  0.00000000E+00  0.00000000E+00
  0.00000000E+00  0.00000000E+00  0.00000000E+00
  0.00000000E+00  0.00000000E+00  0.00000000E+00
  0.00000000E+00  0.00000000E+00  0.00000000E+00
  0.00000000E+00  0.00000000E+00  0.00000000E+00
  0.00000000E+00  0.00000000E+00  0.00000000E+00
  0.00000000E+00  0.00000000E+00  0.00000000E+00
  0.00000000E+00  0.00000000E+00  0.00000000E+00
  0.00000000E+00  0.00000000E+00  0.00000000E+00
  0.00000000E+00  0.00000000E+00  0.00000000E+00
  0.00000000E+00  0.00000000E+00  0.00000000E+00
  0.00000000E+00  0.00000000E+00  0.00000000E+00
  0.00000000E+00  0.00000000E+00  0.00000000E+00
  0.00000000E+00  0.00000000E+00  0.00000000E+00
  0.00000000E+00  0.00000000E+00  0.00000000E+00
  0.00000000E+00  0.00000000E+00  0.00000000E+00
  0.00000000E+00  0.00000000E+00  0.00000000E+00
  0.00000000E+00  0.00000000E+00  0.00000000E+00
  0.00000000E+00  0.00000000E+00  0.00000000E+00
  0.00000000E+00  0.00000000E+00  0.00000000E+00
  0.00000000E+00  0.00000000E+00  0.00000000E+00
  0.00000000E+00  0.00000000E+00  0.00000000E+00
  0.00000000E+00  0.00000000E+00  0.00000000E+00
  0.00000000E+00  0.00000000E+00  0.00000000E+00
  0.00000000E+00  0.00000000E+00  0.00000000E+00
  0.00000000E+00  0.00000000E+00  0.00000000E+00
  0.00000000E+00  0.00000000E+00  0.00000000E+00
  0.00000000E+00  0.00000000E+00  0.00000000E+00
  0.00000000E+00  0.00000000E+00  0.00000000E+00
  0.00000000E+00  0.00000000E+00  0.00000000E+00
  0.00000000E+00  0.00000000E+00  0.00000000E+00
  0.00000000E+00  0.00000000E+00  0.00000000E+00
  0.00000000E+00  0.00000000E+00  0.00000000E+00
  0.00000000E+00  0.00000000E+00  0.00000000E+00
  0.00000000E+00  0.00000000E+00  0.00000000E+00
  0.00000000E+00  0.00000000E+00  0.00000000E+00
  0.00000000E+00  0.00000000E+00  0.00000000E+00
  0.00000000E+00  0.00000000E+00  0.00000000E+00
  0.00000000E+00  0.00000000E+00  0.00000000E+00
  0.00000000E+00  0.00000000E+00  0.00000000E+00
  0.00000000E+00  0.00000000E+00  0.00000000E+00
  0.00000000E+00  0.00000000E+00  0.00000000E+00
  0.00000000E+00  0.00000000E+00  0.00000000E+00
  0.00000000E+00  0.00000000E+00  0.00000000E+00
  0.00000000E+00  0.00000000E+00  0.00000000E+00
  0.00000000E+00  0.00000000E+00  0.00000000E+00
  0.00000000E+00  0.00000000E+00  0.00000000E+00
  0.00000000E+00  0.00000000E+00  0.00000000E+00
  0.00000000E+00  0.00000000E+00  0.00000000E+00
  0.00000000E+00  0.00000000E+00  0.00000000E+00
  0.00000000E+00  0.00000000E+00  0.00000000E+00
  0.00000000E+00  0.00000000E+00  0.00000000E+00
  0.00000000E+00  0.00000000E+00  0.00000000E+00
  0.00000000E+00  0.00000000E+00  0.00000000E+00
  0.00000000E+00  0.00000000E+00  0.00000000E+00
  0.00000000E+00  0.00000000E+00  0.00000000E+00
  0.00000000E+00  0.00000000E+00  0.00000000E+00
  0.00000000E+00  0.00000000E+00  0.00000000E+00
  0.00000000E+00  0.00000000E+00  0.00000000E+00
  0.00000000E+00  0.00000000E+00  0.00000000E+00
  0.00000000E+00  0.00000000E+00  0.00000000E+00
  0.00000000E+00  0.00000000E+00  0.00000000E+00
  0.00000000E+00  0.00000000E+00  0.00000000E+00
  0.00000000E+00  0.00000000E+00  0.00000000E+00
  0.00000000E+00  0.00000000E+00  0.00000000E+00
  0.00000000E+00  0.00000000E+00  0.00000000E+00
  0.00000000E+00  0.00000000E+00  0.00000000E+00
  0.00000000E+00  0.00000000E+00  0.00000000E+00
  0.00000000E+00  0.00000000E+00  0.00000000E+00
  0.00000000E+00  0.00000000E+00  0.00000000E+00
  0.00000000E+00  0.00000000E+00  0.00000000E+00
  0.00000000E+00  0.00000000E+00  0.00000000E+00
  0.00000000E+00  0.00000000E+00  0.00000000E+00
  0.00000000E+00  0.00000000E+00  0.00000000E+00
  0.00000000E+00  0.00000000E+00  0.00000000E+00
  0.00000000E+00  0.00000000E+00  0.00000000E+00
  0.00000000E+00  0.00000000E+00  0.00000000E+00
  0.00000000E+00  0.00000000E+00  0.00000000E+00
  0.00000000E+00  0.00000000E+00  0.00000000E+00
  0.00000000E+00  0.00000000E+00  0.00000000E+00
  0.00000000E+00  0.00000000E+00  0.00000000E+00
  0.00000000E+00  0.00000000E+00  0.00000000E+00
  0.00000000E+00  0.00000000E+00  0.00000000E+00
  0.00000000E+00  0.00000000E+00  0.00000000E+00
  0.00000000E+00  0.00000000E+00  0.00000000E+00
  0.00000000E+00  0.00000000E+00  0.00000000E+00
  0.00000000E+00  0.00000000E+00  0.00000000E+00
  0.00000000E+00  0.00000000E+00  0.00000000E+00
  0.00000000E+00  0.00000000E+00  0.00000000E+00
  0.00000000E+00  0.00000000E+00  0.00000000E+00
  0.00000000E+00  0.00000000E+00  0.00000000E+00
  0.00000000E+00  0.00000000E+00  0.00000000E+00
  0.00000000E+00  0.00000000E+00  0.00000000E+00
  0.00000000E+00  0.00000000E+00  0.00000000E+00
  0.00000000E+00  0.00000000E+00  0.00000000E+00
  0.00000000E+00  0.00000000E+00  0.00000000E+00
