Nb Ti                                   
    1.000000000000000     
    11.9997675180198211    0.0360830957941156   -0.0016275599392682
    -5.9724290822334067    9.9597773480718281    0.0014806834575376
    -0.0027721953594471    0.0012897636071944   18.5922467679219032
  Nb              Ti            
    12   116
Direct
     0.1785252793627106    0.8583570959512300    0.9378789782597747
     0.3141197439125050    0.3934923472753887    0.3118064087180723
     0.9113024456717661    0.0810572241374157    0.4395088367931029
     0.6788920835387361    0.6065740089677232    0.6879652735512318
     0.8359102406457123    0.6549483119745425    0.5630802270560274
     0.1826336390700413    0.1110865025697081    0.9373184971228081
     0.1704177652920173    0.5905352915859935    0.6877640409943676
     0.4344191943788709    0.3490739095971450    0.9357811920338187
     0.6759148034273611    0.3446898353304047    0.1874315799750011
     0.0835707081964413    0.6631478811089542    0.3121670112565852
     0.6626184162883216    0.8356783539653873    0.9369456310332877
     0.4329637259570231    0.3521197815651241    0.4395260769365316
     0.8291388026862442    0.1592200542530453    0.8131034676433873
     0.6570172561576022    0.8330351426701403    0.6873870866183930
     0.6670452414946774    0.0878426386237543    0.9372031616662608
     0.9229651923700986    0.5928823634893088    0.9378381429066218
     0.0774817598393206    0.4110450621342062    0.3115031180470822
     0.4249623909102769    0.3455345882615705    0.6879997447965844
     0.1584305998014217    0.3345950727309572    0.9382948056149037
     0.8360723630857081    0.4138497320879899    0.8129263844396970
     0.4109181990076134    0.5818640277039624    0.4376792657722246
     0.6784186664746142    0.5965396531232470    0.4382297419483525
     0.9253688023925242    0.5907815544069374    0.1862162732953804
     0.3287508170350605    0.6576660453248017    0.3122343951054374
     0.8286509051261011    0.1586191978126919    0.5636506322977596
     0.9107933862766653    0.0817629395933801    0.1870774751741459
     0.8315506777989382    0.4125089674889800    0.3132849084088188
     0.5742982484702183    0.6547748293161166    0.0627627137437741
     0.6712595430865117    0.5901458183445225    0.1877131411440586
     0.5799835358938319    0.9114832372694343    0.0633937377267456
     0.1727757582836520    0.0943746824289515    0.1883286177163465
     0.5700433988935628    0.6529711811766663    0.8123846968993726
     0.4166443436552120    0.8363803247599711    0.9379117648774260
     0.0672415771011299    0.1536755879022726    0.3114306844690277
     0.3223447988405431    0.4001388815075697    0.0617043297571636
     0.9192747638022776    0.3327385781539641    0.6882090983157149
     0.3210725479540230    0.4011640857990700    0.8141928704807634
     0.5788928388191650    0.9123352352771013    0.5614948318075137
     0.3309519026137144    0.1584941961337720    0.0632446431175574
     0.4226275469974359    0.0887761359163634    0.1877754833713279
     0.0705904892441270    0.1561497088456680    0.0629941881096678
     0.8206258913458711    0.8968438404630926    0.5651887146086224
     0.5786106997867417    0.9130002159954944    0.8121163808385241
     0.1687684640753991    0.5884982426123677    0.1854033003588612
     0.5856328421783631    0.4170059079103118    0.5638216313003845
     0.6767422440815059    0.3415820392561334    0.9370383412854569
     0.6620199383596818    0.8299252214268440    0.1883981314100872
     0.8224391501985199    0.9054123437127594    0.3120347000108731
     0.5852772883861543    0.4122617385594323    0.3137496818366962
     0.1663225405915063    0.5852924895606622    0.4384329263962915
     0.9181308567165919    0.3357558854808103    0.1870465342804337
     0.1770303511805099    0.0979125301325403    0.4358207073083296
     0.3199279670739473    0.4039259166617887    0.5618000246474171
     0.4296061290411478    0.0929732561868752    0.9372415653577632
     0.8216812533566704    0.9033966393310835    0.0634919562885796
     0.5715708911334234    0.6512142259045857    0.3137202504223990
     0.1588537296206141    0.3316255177359713    0.4372649861375501
     0.4254475889323742    0.3414773098004825    0.1868927732121546
     0.0843973661259717    0.9160532329234315    0.5613227776400769
     0.5830300900622781    0.1652273381408172    0.5631013831955715
     0.9228850478014754    0.5906205109761344    0.4373142608856203
     0.8384677617838709    0.4118677214799091    0.5625256146302740
     0.4183272040459233    0.8347369445208517    0.1880094327435713
     0.0725853089568773    0.1544436518472708    0.5643136605372726
     0.8320521857038039    0.6625198808462353    0.3117901421049408
     0.1623204421103865    0.3343722164619859    0.1862241480403488
     0.0712102519943222    0.1565673835216422    0.8122488308634632
     0.5858610328140234    0.1671773666007016    0.8107142190703562
     0.3344598005884909    0.1632853706305449    0.3116158637666172
     0.3357193875171365    0.1626603641605390    0.8112234340703892
     0.3293637757555695    0.6617082760931428    0.5607950099048296
     0.0864005553628740    0.6655845887176528    0.5615390127470178
     0.1719364452725630    0.8414208388244278    0.1859983618888330
     0.6770435257817060    0.3457856258496658    0.6863905955554999
     0.3310514020562099    0.6602902190150591    0.8136293731702424
     0.0867521199603511    0.6688136228050027    0.8146379864254242
     0.3324689063074039    0.9135938822249726    0.3126551941024064
     0.1719817190138083    0.8418885356540243    0.4383774313230597
     0.5894099761818860    0.4171288398781032    0.8110323629123241
     0.9283957715825711    0.5881530186021490    0.6893934303199558
     0.9209117593963195    0.8407165679244952    0.1881775357301318
     0.4234620296624815    0.0918668887043914    0.6868771928061345
     0.5824260786442492    0.4125988111473206    0.0611161593926297
     0.4143987682276386    0.5799947233952333    0.1868498958457319
     0.0802537926368058    0.4142694391259118    0.8136470395458902
     0.4165192322051181    0.8364650246885305    0.4371691811880079
     0.9129034101513737    0.0804559297945278    0.6879927113002537
     0.4184132137718637    0.8374417381435194    0.6864714146656822
     0.1639326572340681    0.3335761075173492    0.6880921158382264
     0.5825617869128540    0.1634552648063598    0.3133262874282635
     0.4217522374844033    0.0917524249590977    0.4377370294276858
     0.3339387030499833    0.1661897081187362    0.5628179595356335
     0.3337654969333044    0.9160703807052434    0.5622517913630423
     0.0790691132544422    0.4098235861814310    0.5616035776534561
     0.6684657404965539    0.0877481923379948    0.6872101236904117
     0.8273465263193739    0.1596926912792328    0.3121877170626979
     0.3355571091542199    0.9140388025745291    0.8112634024110821
     0.5682713639233583    0.6531509094020372    0.5612677680426658
     0.0836070009713532    0.9179131033917640    0.8111417407243116
     0.0838574829482629    0.9138070240238096    0.3124062220097280
     0.1696280640765208    0.5899374489605347    0.9379745342807573
     0.0788855925526825    0.4138828234530317    0.0625659467711114
     0.1729919482205908    0.8421173635525218    0.6884496263729748
     0.8291906826063038    0.1615404804121501    0.0614688073556310
     0.0849052722652336    0.6689812395828432    0.0619825656684378
     0.9188351050272968    0.3371560410999489    0.9374863982750092
     0.4134166674761045    0.5818033826985846    0.9380080893487818
     0.0786682245197551    0.9153707648328189    0.0648414711491542
     0.8319682515123644    0.6630032497496159    0.0636905641557746
     0.8391275256245794    0.6643813024910309    0.8118297387448780
     0.9116296160513979    0.0804652179146281    0.9372367867453570
     0.5848550212919272    0.1654211698056084    0.0623647289664762
     0.4102790289310040    0.5824458980491710    0.6873545361340687
     0.6616974703763479    0.8330992794590144    0.4373359292087466
     0.5775742198251417    0.9095535855987674    0.3124344963605644
     0.6652503815129627    0.0864770691238773    0.4374365378992900
     0.9236657210911812    0.8428741862113044    0.4363184698721409
     0.3354776187281595    0.9124834314417890    0.0637892610389649
     0.6806287321747246    0.5978879590828622    0.9366274576460987
     0.1746117899966320    0.0935273371746312    0.6874637952302388
     0.6678903883689790    0.0854636524619569    0.1875224768287943
     0.9282249283706517    0.8456847585784133    0.9377289345606635
     0.3316801617008859    0.6596074117405186    0.0632136197535945
     0.8350447987691968    0.4153770790045670    0.0614665746846207
     0.6745086435963197    0.3409870452403610    0.4389647434720866
     0.9282362696686057    0.8406550672156893    0.6878570533561188
     0.9169234097637338    0.3350960285181075    0.4369588719933980
     0.8211295078305338    0.8995804392532950    0.8103628278639624
 
  0.00000000E+00  0.00000000E+00  0.00000000E+00
  0.00000000E+00  0.00000000E+00  0.00000000E+00
  0.00000000E+00  0.00000000E+00  0.00000000E+00
  0.00000000E+00  0.00000000E+00  0.00000000E+00
  0.00000000E+00  0.00000000E+00  0.00000000E+00
  0.00000000E+00  0.00000000E+00  0.00000000E+00
  0.00000000E+00  0.00000000E+00  0.00000000E+00
  0.00000000E+00  0.00000000E+00  0.00000000E+00
  0.00000000E+00  0.00000000E+00  0.00000000E+00
  0.00000000E+00  0.00000000E+00  0.00000000E+00
  0.00000000E+00  0.00000000E+00  0.00000000E+00
  0.00000000E+00  0.00000000E+00  0.00000000E+00
  0.00000000E+00  0.00000000E+00  0.00000000E+00
  0.00000000E+00  0.00000000E+00  0.00000000E+00
  0.00000000E+00  0.00000000E+00  0.00000000E+00
  0.00000000E+00  0.00000000E+00  0.00000000E+00
  0.00000000E+00  0.00000000E+00  0.00000000E+00
  0.00000000E+00  0.00000000E+00  0.00000000E+00
  0.00000000E+00  0.00000000E+00  0.00000000E+00
  0.00000000E+00  0.00000000E+00  0.00000000E+00
  0.00000000E+00  0.00000000E+00  0.00000000E+00
  0.00000000E+00  0.00000000E+00  0.00000000E+00
  0.00000000E+00  0.00000000E+00  0.00000000E+00
  0.00000000E+00  0.00000000E+00  0.00000000E+00
  0.00000000E+00  0.00000000E+00  0.00000000E+00
  0.00000000E+00  0.00000000E+00  0.00000000E+00
  0.00000000E+00  0.00000000E+00  0.00000000E+00
  0.00000000E+00  0.00000000E+00  0.00000000E+00
  0.00000000E+00  0.00000000E+00  0.00000000E+00
  0.00000000E+00  0.00000000E+00  0.00000000E+00
  0.00000000E+00  0.00000000E+00  0.00000000E+00
  0.00000000E+00  0.00000000E+00  0.00000000E+00
  0.00000000E+00  0.00000000E+00  0.00000000E+00
  0.00000000E+00  0.00000000E+00  0.00000000E+00
  0.00000000E+00  0.00000000E+00  0.00000000E+00
  0.00000000E+00  0.00000000E+00  0.00000000E+00
  0.00000000E+00  0.00000000E+00  0.00000000E+00
  0.00000000E+00  0.00000000E+00  0.00000000E+00
  0.00000000E+00  0.00000000E+00  0.00000000E+00
  0.00000000E+00  0.00000000E+00  0.00000000E+00
  0.00000000E+00  0.00000000E+00  0.00000000E+00
  0.00000000E+00  0.00000000E+00  0.00000000E+00
  0.00000000E+00  0.00000000E+00  0.00000000E+00
  0.00000000E+00  0.00000000E+00  0.00000000E+00
  0.00000000E+00  0.00000000E+00  0.00000000E+00
  0.00000000E+00  0.00000000E+00  0.00000000E+00
  0.00000000E+00  0.00000000E+00  0.00000000E+00
  0.00000000E+00  0.00000000E+00  0.00000000E+00
  0.00000000E+00  0.00000000E+00  0.00000000E+00
  0.00000000E+00  0.00000000E+00  0.00000000E+00
  0.00000000E+00  0.00000000E+00  0.00000000E+00
  0.00000000E+00  0.00000000E+00  0.00000000E+00
  0.00000000E+00  0.00000000E+00  0.00000000E+00
  0.00000000E+00  0.00000000E+00  0.00000000E+00
  0.00000000E+00  0.00000000E+00  0.00000000E+00
  0.00000000E+00  0.00000000E+00  0.00000000E+00
  0.00000000E+00  0.00000000E+00  0.00000000E+00
  0.00000000E+00  0.00000000E+00  0.00000000E+00
  0.00000000E+00  0.00000000E+00  0.00000000E+00
  0.00000000E+00  0.00000000E+00  0.00000000E+00
  0.00000000E+00  0.00000000E+00  0.00000000E+00
  0.00000000E+00  0.00000000E+00  0.00000000E+00
  0.00000000E+00  0.00000000E+00  0.00000000E+00
  0.00000000E+00  0.00000000E+00  0.00000000E+00
  0.00000000E+00  0.00000000E+00  0.00000000E+00
  0.00000000E+00  0.00000000E+00  0.00000000E+00
  0.00000000E+00  0.00000000E+00  0.00000000E+00
  0.00000000E+00  0.00000000E+00  0.00000000E+00
  0.00000000E+00  0.00000000E+00  0.00000000E+00
  0.00000000E+00  0.00000000E+00  0.00000000E+00
  0.00000000E+00  0.00000000E+00  0.00000000E+00
  0.00000000E+00  0.00000000E+00  0.00000000E+00
  0.00000000E+00  0.00000000E+00  0.00000000E+00
  0.00000000E+00  0.00000000E+00  0.00000000E+00
  0.00000000E+00  0.00000000E+00  0.00000000E+00
  0.00000000E+00  0.00000000E+00  0.00000000E+00
  0.00000000E+00  0.00000000E+00  0.00000000E+00
  0.00000000E+00  0.00000000E+00  0.00000000E+00
  0.00000000E+00  0.00000000E+00  0.00000000E+00
  0.00000000E+00  0.00000000E+00  0.00000000E+00
  0.00000000E+00  0.00000000E+00  0.00000000E+00
  0.00000000E+00  0.00000000E+00  0.00000000E+00
  0.00000000E+00  0.00000000E+00  0.00000000E+00
  0.00000000E+00  0.00000000E+00  0.00000000E+00
  0.00000000E+00  0.00000000E+00  0.00000000E+00
  0.00000000E+00  0.00000000E+00  0.00000000E+00
  0.00000000E+00  0.00000000E+00  0.00000000E+00
  0.00000000E+00  0.00000000E+00  0.00000000E+00
  0.00000000E+00  0.00000000E+00  0.00000000E+00
  0.00000000E+00  0.00000000E+00  0.00000000E+00
  0.00000000E+00  0.00000000E+00  0.00000000E+00
  0.00000000E+00  0.00000000E+00  0.00000000E+00
  0.00000000E+00  0.00000000E+00  0.00000000E+00
  0.00000000E+00  0.00000000E+00  0.00000000E+00
  0.00000000E+00  0.00000000E+00  0.00000000E+00
  0.00000000E+00  0.00000000E+00  0.00000000E+00
  0.00000000E+00  0.00000000E+00  0.00000000E+00
  0.00000000E+00  0.00000000E+00  0.00000000E+00
  0.00000000E+00  0.00000000E+00  0.00000000E+00
  0.00000000E+00  0.00000000E+00  0.00000000E+00
  0.00000000E+00  0.00000000E+00  0.00000000E+00
  0.00000000E+00  0.00000000E+00  0.00000000E+00
  0.00000000E+00  0.00000000E+00  0.00000000E+00
  0.00000000E+00  0.00000000E+00  0.00000000E+00
  0.00000000E+00  0.00000000E+00  0.00000000E+00
  0.00000000E+00  0.00000000E+00  0.00000000E+00
  0.00000000E+00  0.00000000E+00  0.00000000E+00
  0.00000000E+00  0.00000000E+00  0.00000000E+00
  0.00000000E+00  0.00000000E+00  0.00000000E+00
  0.00000000E+00  0.00000000E+00  0.00000000E+00
  0.00000000E+00  0.00000000E+00  0.00000000E+00
  0.00000000E+00  0.00000000E+00  0.00000000E+00
  0.00000000E+00  0.00000000E+00  0.00000000E+00
  0.00000000E+00  0.00000000E+00  0.00000000E+00
  0.00000000E+00  0.00000000E+00  0.00000000E+00
  0.00000000E+00  0.00000000E+00  0.00000000E+00
  0.00000000E+00  0.00000000E+00  0.00000000E+00
  0.00000000E+00  0.00000000E+00  0.00000000E+00
  0.00000000E+00  0.00000000E+00  0.00000000E+00
  0.00000000E+00  0.00000000E+00  0.00000000E+00
  0.00000000E+00  0.00000000E+00  0.00000000E+00
  0.00000000E+00  0.00000000E+00  0.00000000E+00
  0.00000000E+00  0.00000000E+00  0.00000000E+00
  0.00000000E+00  0.00000000E+00  0.00000000E+00
  0.00000000E+00  0.00000000E+00  0.00000000E+00
  0.00000000E+00  0.00000000E+00  0.00000000E+00
  0.00000000E+00  0.00000000E+00  0.00000000E+00
  0.00000000E+00  0.00000000E+00  0.00000000E+00
