Nb Ti                                   
    1.000000000000000     
    11.5185259769916737   -0.6032827023286242   -0.0159527764490867
    -6.2813419181583443   10.9131705453017833    0.0282021832267943
    -0.0260125131413413    0.0369682750179108   18.2783000954840169
  Nb              Ti            
    24   104
Direct
     0.1178371828123322    0.1840104683910862    0.8153710794064587
     0.6374533654214477    0.5837741067020549    0.4414214581986016
     0.3895568764819006    0.0656564825805349    0.6816767679137536
     0.3715204483671875    0.1840769645959987    0.8105062612261822
     0.3773652176692229    0.5698567697727229    0.4379234918877258
     0.6360948027561822    0.3141910663782138    0.6848025890996408
     0.3729239152076014    0.6878040899786383    0.8176188843710458
     0.6460609741226231    0.3319975279104185    0.9372668738025084
     0.3643213964199193    0.9312155031873920    0.3102757829151388
     0.3880232142317724    0.5701481241616126    0.9428858613938090
     0.6392077399517127    0.3157708538125785    0.4379714413889138
     0.8715800855071943    0.9344406171335221    0.8149663137498853
     0.1462039728257380    0.0760231878049948    0.1883777599587993
     0.8618169686252936    0.1837774572103079    0.0625633995187188
     0.6088643104179782    0.1827192407905182    0.3124461542132115
     0.6512575313806177    0.8126143406933458    0.1853765131242320
     0.6217975736223814    0.1918539043005690    0.8142249352758156
     0.8858356340421263    0.5642096078461333    0.6812256650225466
     0.8828704991802172    0.3118033282865436    0.4367004845954748
     0.1260285539761029    0.5620053963622407    0.4395820172757731
     0.6212285387455133    0.9343971491805660    0.8178058434759281
     0.1158701587510939    0.9317564443903725    0.3101665369706204
     0.6181029918632415    0.6779878557188393    0.8090888362593490
     0.8900828623070068    0.3225106554947000    0.1873579899442663
     0.8394578260583528    0.9249413669681927    0.5650931685919814
     0.4042394478614632    0.3352236883478337    0.6883675873971982
     0.8496810630955296    0.6799432858196828    0.3135763771094330
     0.0934570616494725    0.1689185092000293    0.5651060593619688
     0.6055885304662715    0.4337278959604645    0.8073428378756698
     0.3901495321773767    0.8154295342613789    0.4338698971725695
     0.3460988755099854    0.4224524692247809    0.5618147561573110
     0.1085447492487965    0.4403550976823060    0.8180670809004418
     0.1558915793296182    0.0788423978598063    0.4360499776427271
     0.1104204809303856    0.6835828640932662    0.8110469888345937
     0.0954906551264264    0.1736160954501479    0.3109232382772196
     0.3434863234200851    0.6652210817786030    0.3069667239863806
     0.8513699641966161    0.9173346157475113    0.3101332911674490
     0.6491504668783714    0.3334845683243745    0.1890249946784690
     0.8504437621294384    0.4313846253965876    0.3116345118266511
     0.6521561918763550    0.5865867410491278    0.6819313039790522
     0.8388737116125163    0.1568030917557921    0.5614133942539942
     0.1023678838804123    0.6763036675458212    0.3152018154354591
     0.8458699816568660    0.1699771274399664    0.3119794888093209
     0.3556247675559366    0.9273442372289248    0.0642980841656621
     0.9094721823555136    0.8206348225125918    0.1862088039921559
     0.6076527909715473    0.1796089499857679    0.0632867364099399
     0.3973324352280957    0.3221905084382186    0.9361026699496385
     0.4177077391286206    0.8410218306948901    0.9404519817259948
     0.3698368424699516    0.9343527139876149    0.8093562888728185
     0.6491609101344608    0.8258232174908301    0.4354997960166352
     0.8855420180994720    0.5740214375382963    0.4385733262785302
     0.1470721305437409    0.8150975485297129    0.6834743765837908
     0.5986572382071956    0.1650672009572535    0.5607379312221117
     0.5924760546264843    0.6670512164866144    0.3103784135888552
     0.8441151663347169    0.9076389236590069    0.0615529969762404
     0.1021835353076746    0.9193420295450615    0.0648635570095155
     0.8416290524205453    0.6692805535843375    0.0605058451969958
     0.6142765391262981    0.9333113028066704    0.0644017437267549
     0.0901899655532941    0.4094137326775195    0.5622850948623619
     0.0814697588848467    0.6708921562216550    0.5588818415527250
     0.8438272131899339    0.4346424217256942    0.0638646216526142
     0.9021950315301220    0.3390072586723551    0.9385966944879914
     0.3272462117059877    0.6682503310040000    0.5630510465404740
     0.3948460393856087    0.5776860127917637    0.6869897408423576
     0.1569345862951430    0.0852079717324046    0.6890214560962391
     0.8590227160169659    0.6749564465678096    0.8054303204266785
     0.6478467615962790    0.8149543759450782    0.9381761623674660
     0.3526672822921526    0.4324897904712686    0.8151252053187324
     0.4004488176752186    0.0817716810440521    0.1889141904312387
     0.3974692284908204    0.8124339666754018    0.6882926892302643
     0.3965853794765805    0.3274038592948116    0.1876586254651560
     0.8907161327048860    0.0666430808251245    0.1850380028886071
     0.5864682224920398    0.4205950497971859    0.0619992330556333
     0.6008704870938522    0.9152366525128125    0.3080535511596639
     0.9050896321614965    0.8324869162415854    0.4403925088536292
     0.8632686118653096    0.1858024037901428    0.8192568209892785
     0.6027994829334403    0.4287495748724315    0.5613954094131889
     0.6029227654771259    0.4353761895634755    0.3173826342498609
     0.5865554963568773    0.6602346883828141    0.0628502930111145
     0.0937035542809982    0.4196869815407816    0.3156445363464616
     0.1132222626710256    0.9246563787734196    0.8097099256712720
     0.9091811933379078    0.8206781050828836    0.9345331329006196
     0.4134320962078713    0.8271554188038549    0.1873833261289592
     0.3475292606636662    0.1691513889039580    0.0604427232494710
     0.3512414460998941    0.6835254352803050    0.0646269441614220
     0.1508389299517616    0.3293376208383997    0.6908986477557854
     0.9112391843027681    0.5879160805921043    0.1883643723272132
     0.8934453083000292    0.3127755088382815    0.6872874642286059
     0.8581986214599207    0.4365839991593886    0.8086815378234324
     0.1434985099657606    0.3200474797974815    0.9392275861140448
     0.1468679431811952    0.3145439976624978    0.4381034839188580
     0.0962557488418466    0.6797968233853612    0.0630167711876469
     0.3380585371836876    0.9120202906634647    0.5620905258744836
     0.9081449564242203    0.8374595833013773    0.6888690268079951
     0.9004423195804756    0.0679629440068507    0.9408128290772921
     0.6521960704146988    0.8289723223111763    0.6892765548747402
     0.0978823406402393    0.4356264198209861    0.0587172596652623
     0.3517900926162160    0.1797528147859097    0.5635555591494956
     0.1661346648974513    0.8229976081744789    0.1882882693270057
     0.1384016286831214    0.3241582810753986    0.1841258282502939
     0.3549613113000403    0.1829912215360397    0.3164534258176973
     0.1009753168529939    0.9333743050784745    0.5637724450039531
     0.1649842695092272    0.8327120263312038    0.9377325203120237
     0.3999927962092509    0.0676564539000400    0.4392096376091983
     0.8432382152168967    0.6823496540389999    0.5642225033900097
     0.9011267486792386    0.0802111899383586    0.6916222215292961
     0.5842544802793791    0.9153175936740809    0.5625333913734358
     0.5832361803729152    0.6804262142569117    0.5635917669294779
     0.9073077508445055    0.5839534986039118    0.9344824216701598
     0.1479384796490060    0.8285902285247064    0.4373929735775318
     0.1537823349045044    0.0690832149225916    0.9372103232778566
     0.6404288142955935    0.0644325146535470    0.6924216336309872
     0.6489268894944418    0.5774784299286939    0.9350947520446554
     0.6487438750549226    0.0781157105876329    0.1908114012320919
     0.6569525627729372    0.5691289815477655    0.1872104073326858
     0.6640295656868000    0.0848799684624996    0.9380994481313047
     0.8457385451862466    0.4176228656481851    0.5614165030460602
     0.3974369288666397    0.5617025105676861    0.1850585698821818
     0.3424035226496151    0.4214271605629057    0.3147503499343574
     0.4102794964718038    0.0781639945272249    0.9383600626843822
     0.3317727664357014    0.4100697964132248    0.0618017404567998
     0.1458562498327819    0.5692997296424870    0.1880407992685925
     0.1617854546599987    0.5964097158304585    0.9398591047365984
     0.1365002172088282    0.5656571457435990    0.6843540418206530
     0.0924979374610813    0.1608835287506500    0.0620773371930314
     0.9030531723022643    0.0670456431323860    0.4354690273115656
     0.6451401954270286    0.0598835816405665    0.4344973135099091
     0.4081299731917539    0.3315775659121873    0.4393024433958824
 
  0.00000000E+00  0.00000000E+00  0.00000000E+00
  0.00000000E+00  0.00000000E+00  0.00000000E+00
  0.00000000E+00  0.00000000E+00  0.00000000E+00
  0.00000000E+00  0.00000000E+00  0.00000000E+00
  0.00000000E+00  0.00000000E+00  0.00000000E+00
  0.00000000E+00  0.00000000E+00  0.00000000E+00
  0.00000000E+00  0.00000000E+00  0.00000000E+00
  0.00000000E+00  0.00000000E+00  0.00000000E+00
  0.00000000E+00  0.00000000E+00  0.00000000E+00
  0.00000000E+00  0.00000000E+00  0.00000000E+00
  0.00000000E+00  0.00000000E+00  0.00000000E+00
  0.00000000E+00  0.00000000E+00  0.00000000E+00
  0.00000000E+00  0.00000000E+00  0.00000000E+00
  0.00000000E+00  0.00000000E+00  0.00000000E+00
  0.00000000E+00  0.00000000E+00  0.00000000E+00
  0.00000000E+00  0.00000000E+00  0.00000000E+00
  0.00000000E+00  0.00000000E+00  0.00000000E+00
  0.00000000E+00  0.00000000E+00  0.00000000E+00
  0.00000000E+00  0.00000000E+00  0.00000000E+00
  0.00000000E+00  0.00000000E+00  0.00000000E+00
  0.00000000E+00  0.00000000E+00  0.00000000E+00
  0.00000000E+00  0.00000000E+00  0.00000000E+00
  0.00000000E+00  0.00000000E+00  0.00000000E+00
  0.00000000E+00  0.00000000E+00  0.00000000E+00
  0.00000000E+00  0.00000000E+00  0.00000000E+00
  0.00000000E+00  0.00000000E+00  0.00000000E+00
  0.00000000E+00  0.00000000E+00  0.00000000E+00
  0.00000000E+00  0.00000000E+00  0.00000000E+00
  0.00000000E+00  0.00000000E+00  0.00000000E+00
  0.00000000E+00  0.00000000E+00  0.00000000E+00
  0.00000000E+00  0.00000000E+00  0.00000000E+00
  0.00000000E+00  0.00000000E+00  0.00000000E+00
  0.00000000E+00  0.00000000E+00  0.00000000E+00
  0.00000000E+00  0.00000000E+00  0.00000000E+00
  0.00000000E+00  0.00000000E+00  0.00000000E+00
  0.00000000E+00  0.00000000E+00  0.00000000E+00
  0.00000000E+00  0.00000000E+00  0.00000000E+00
  0.00000000E+00  0.00000000E+00  0.00000000E+00
  0.00000000E+00  0.00000000E+00  0.00000000E+00
  0.00000000E+00  0.00000000E+00  0.00000000E+00
  0.00000000E+00  0.00000000E+00  0.00000000E+00
  0.00000000E+00  0.00000000E+00  0.00000000E+00
  0.00000000E+00  0.00000000E+00  0.00000000E+00
  0.00000000E+00  0.00000000E+00  0.00000000E+00
  0.00000000E+00  0.00000000E+00  0.00000000E+00
  0.00000000E+00  0.00000000E+00  0.00000000E+00
  0.00000000E+00  0.00000000E+00  0.00000000E+00
  0.00000000E+00  0.00000000E+00  0.00000000E+00
  0.00000000E+00  0.00000000E+00  0.00000000E+00
  0.00000000E+00  0.00000000E+00  0.00000000E+00
  0.00000000E+00  0.00000000E+00  0.00000000E+00
  0.00000000E+00  0.00000000E+00  0.00000000E+00
  0.00000000E+00  0.00000000E+00  0.00000000E+00
  0.00000000E+00  0.00000000E+00  0.00000000E+00
  0.00000000E+00  0.00000000E+00  0.00000000E+00
  0.00000000E+00  0.00000000E+00  0.00000000E+00
  0.00000000E+00  0.00000000E+00  0.00000000E+00
  0.00000000E+00  0.00000000E+00  0.00000000E+00
  0.00000000E+00  0.00000000E+00  0.00000000E+00
  0.00000000E+00  0.00000000E+00  0.00000000E+00
  0.00000000E+00  0.00000000E+00  0.00000000E+00
  0.00000000E+00  0.00000000E+00  0.00000000E+00
  0.00000000E+00  0.00000000E+00  0.00000000E+00
  0.00000000E+00  0.00000000E+00  0.00000000E+00
  0.00000000E+00  0.00000000E+00  0.00000000E+00
  0.00000000E+00  0.00000000E+00  0.00000000E+00
  0.00000000E+00  0.00000000E+00  0.00000000E+00
  0.00000000E+00  0.00000000E+00  0.00000000E+00
  0.00000000E+00  0.00000000E+00  0.00000000E+00
  0.00000000E+00  0.00000000E+00  0.00000000E+00
  0.00000000E+00  0.00000000E+00  0.00000000E+00
  0.00000000E+00  0.00000000E+00  0.00000000E+00
  0.00000000E+00  0.00000000E+00  0.00000000E+00
  0.00000000E+00  0.00000000E+00  0.00000000E+00
  0.00000000E+00  0.00000000E+00  0.00000000E+00
  0.00000000E+00  0.00000000E+00  0.00000000E+00
  0.00000000E+00  0.00000000E+00  0.00000000E+00
  0.00000000E+00  0.00000000E+00  0.00000000E+00
  0.00000000E+00  0.00000000E+00  0.00000000E+00
  0.00000000E+00  0.00000000E+00  0.00000000E+00
  0.00000000E+00  0.00000000E+00  0.00000000E+00
  0.00000000E+00  0.00000000E+00  0.00000000E+00
  0.00000000E+00  0.00000000E+00  0.00000000E+00
  0.00000000E+00  0.00000000E+00  0.00000000E+00
  0.00000000E+00  0.00000000E+00  0.00000000E+00
  0.00000000E+00  0.00000000E+00  0.00000000E+00
  0.00000000E+00  0.00000000E+00  0.00000000E+00
  0.00000000E+00  0.00000000E+00  0.00000000E+00
  0.00000000E+00  0.00000000E+00  0.00000000E+00
  0.00000000E+00  0.00000000E+00  0.00000000E+00
  0.00000000E+00  0.00000000E+00  0.00000000E+00
  0.00000000E+00  0.00000000E+00  0.00000000E+00
  0.00000000E+00  0.00000000E+00  0.00000000E+00
  0.00000000E+00  0.00000000E+00  0.00000000E+00
  0.00000000E+00  0.00000000E+00  0.00000000E+00
  0.00000000E+00  0.00000000E+00  0.00000000E+00
  0.00000000E+00  0.00000000E+00  0.00000000E+00
  0.00000000E+00  0.00000000E+00  0.00000000E+00
  0.00000000E+00  0.00000000E+00  0.00000000E+00
  0.00000000E+00  0.00000000E+00  0.00000000E+00
  0.00000000E+00  0.00000000E+00  0.00000000E+00
  0.00000000E+00  0.00000000E+00  0.00000000E+00
  0.00000000E+00  0.00000000E+00  0.00000000E+00
  0.00000000E+00  0.00000000E+00  0.00000000E+00
  0.00000000E+00  0.00000000E+00  0.00000000E+00
  0.00000000E+00  0.00000000E+00  0.00000000E+00
  0.00000000E+00  0.00000000E+00  0.00000000E+00
  0.00000000E+00  0.00000000E+00  0.00000000E+00
  0.00000000E+00  0.00000000E+00  0.00000000E+00
  0.00000000E+00  0.00000000E+00  0.00000000E+00
  0.00000000E+00  0.00000000E+00  0.00000000E+00
  0.00000000E+00  0.00000000E+00  0.00000000E+00
  0.00000000E+00  0.00000000E+00  0.00000000E+00
  0.00000000E+00  0.00000000E+00  0.00000000E+00
  0.00000000E+00  0.00000000E+00  0.00000000E+00
  0.00000000E+00  0.00000000E+00  0.00000000E+00
  0.00000000E+00  0.00000000E+00  0.00000000E+00
  0.00000000E+00  0.00000000E+00  0.00000000E+00
  0.00000000E+00  0.00000000E+00  0.00000000E+00
  0.00000000E+00  0.00000000E+00  0.00000000E+00
  0.00000000E+00  0.00000000E+00  0.00000000E+00
  0.00000000E+00  0.00000000E+00  0.00000000E+00
  0.00000000E+00  0.00000000E+00  0.00000000E+00
  0.00000000E+00  0.00000000E+00  0.00000000E+00
  0.00000000E+00  0.00000000E+00  0.00000000E+00
  0.00000000E+00  0.00000000E+00  0.00000000E+00
  0.00000000E+00  0.00000000E+00  0.00000000E+00
  0.00000000E+00  0.00000000E+00  0.00000000E+00
