Hf Nb                                   
    1.000000000000000     
    11.3290512623048727    1.1157772117122891   -0.0220609121110333
    -4.6962146795112956   10.3758921315021819   -0.0218608505517450
    -0.0286297613596671   -0.0421314188902214   18.9147589125064037
  Hf             Nb           
               4             124
Direct
  0.6875818924861460  0.3132500348605521  0.6867225805452570
  0.4361499084049008  0.5635270494028212  0.9396147141819849
  0.1881276917009344  0.0682589483422886  0.6870754515894908
  0.1877713679439676  0.8038938006017279  0.6868777346345326
  0.6889953993988865  0.0613773924387585  0.4360535164422319
  0.8123285944359591  0.1880599103614990  0.3116297556980901
  0.4379712359663541  0.8112227487436497  0.4365373818661157
  0.8136300027892138  0.4401957243046568  0.8152295521808256
  0.6869141005903966  0.8132485300828388  0.1882725157591729
  0.0589233316434554  0.6861991341839186  0.8151987157980981
  0.6891752567975914  0.3108911474616861  0.4359402278492521
  0.5624463321434672  0.1885624395823849  0.3120276220836279
  0.4368289436887509  0.5628210709556568  0.1884486901613502
  0.6860363125162707  0.5634742423185887  0.4363905388431175
  0.3147214800661752  0.4385107411629096  0.5602338479291870
  0.8135025008234620  0.6875434754390440  0.0638942546263871
  0.8111187230609342  0.1898861519667342  0.8118623370935657
  0.3131562114370903  0.9412062988322099  0.8136374556176784
  0.6905451136492823  0.0620406714419363  0.9383165395026277
  0.9389091310770494  0.3112093695749462  0.4363217550176181
  0.5629106521028570  0.1884384296001677  0.0641129083482345
  0.0614595626177923  0.4380055280417074  0.0639923320453959
  0.4370147120983641  0.3140204234645882  0.4360761957251547
  0.1869052409526192  0.0631839641854573  0.1875867339063269
  0.9306098712298526  0.0633217655617760  0.6867782260090655
  0.3112786252294827  0.6888153879071304  0.3122849337163148
  0.9361459077771863  0.8123970170398825  0.1875964110921454
  0.9380216655763560  0.5620425839129296  0.9393989761290975
  0.5668299895934638  0.6901413716639017  0.0665636501131705
  0.8133677689575844  0.9375055840283203  0.0628402291494090
  0.0616854479715051  0.6887231284682831  0.0640781560394152
  0.5621924726284708  0.6858136971794907  0.5601085768680818
  0.3097838451580703  0.4337442906777622  0.0665426091894564
  0.6867893790356733  0.5630702466537173  0.1883613706225850
  0.4389462718911581  0.5626769026821128  0.6871344538475006
  0.3122959004778674  0.6875658002500992  0.0627368454937262
  0.9364133705742628  0.8138722133477924  0.4356976526475209
  0.5646819152910402  0.4360188730017251  0.5618949031147340
  0.0622214230317642  0.1844369227107074  0.8130699874348051
  0.6842101499880249  0.8113581639565861  0.9390649217045695
  0.1883937243613199  0.3148035420472692  0.9391209466086666
  0.8125487571381396  0.6867986264886869  0.8130733366142906
  0.3137345905861596  0.9404856444863638  0.5602128035511064
  0.3156394176161038  0.1888954661634263  0.5580975113814708
  0.0610632844940677  0.4375512389924721  0.5605880683507006
  0.8117032839067255  0.1883873907920630  0.0639983964222883
  0.3158897911808395  0.1894769892015894  0.8159723709275536
  0.5614665343009155  0.9373468295668012  0.8136692728609191
  0.5629568062537623  0.6862803964372337  0.3125727178497365
  0.5610931938650736  0.1862580695853550  0.8147533984805749
  0.9373411895937905  0.0635461839486748  0.4360788163530528
  0.1868097199667038  0.3134647100562058  0.1883595559976390
  0.6887268933318298  0.3112188416819827  0.9389256962797040
  0.9365127446539184  0.0635762950430572  0.1878250094447926
  0.8134533748265510  0.9372935425929821  0.5603891412618042
  0.1886555110352889  0.8116297265367506  0.1879258832108690
  0.4376899053449805  0.3140912308152188  0.1883749495148689
  0.5635627750147412  0.4373647746065024  0.8137096617423241
  0.6869232874422504  0.8114695943699797  0.6866318824668008
  0.6862103808993316  0.5685137273320368  0.6869984396465822
  0.8114270467211293  0.4378157181551343  0.0640457281960552
  0.4376675407718662  0.0616223605175089  0.9395048675909971
  0.0610333268961887  0.4377415744425306  0.8136562257637296
  0.1868876999989527  0.3195694240168436  0.6867167231554804
  0.9424565530591397  0.3116622804277861  0.6872951863676081
  0.4381350164739757  0.0611508985483403  0.4353379712032159
  0.6889558005469079  0.0572468382394037  0.6871560622274301
  0.9369821308564419  0.8159109861360726  0.9388666891413990
  0.9370977565460640  0.0632016895026579  0.9382769406477792
  0.4444255770650421  0.8098879892317573  0.6872633451134584
  0.0589078536707450  0.6850212908804435  0.5585393855972737
  0.0636645974263518  0.1857047658471209  0.5618263064664176
  0.4384083788632351  0.8113266225636087  0.1881623290528800
  0.5632320084539665  0.4363449397032902  0.3125957011488508
  0.9363118567547452  0.5614841177442139  0.6868831336656331
  0.8116324502910763  0.1894162505329411  0.5616026867355250
  0.9383059484185046  0.5614629434320478  0.4357168176156061
  0.1863405274184446  0.0634778728113986  0.4359273230322701
  0.3125621688293554  0.1862178568250998  0.0643147425040681
  0.8136750014667604  0.6875764949155069  0.3122890817229834
  0.3111661725246820  0.9379019550646550  0.0642729688663470
  0.4365463871238214  0.3065564620668338  0.9392474732962951
  0.8127083383599081  0.9366019248818117  0.3113500392040218
  0.5615668796378145  0.9388126364644976  0.0638054458084548
  0.9378696570304597  0.3093936267589595  0.9383559139975217
  0.0633873224561096  0.9372364362510516  0.0646056540646354
  0.1891652892873253  0.5548704684794364  0.6871532519732451
  0.3109754114820183  0.6893089813350355  0.5618258186299276
  0.1888105475404332  0.5618922063219088  0.4365311953011266
  0.3122322017134700  0.9378691083462543  0.3116723754985950
  0.5617474788019958  0.4372912755566284  0.0624768546767087
  0.0634104990006715  0.1873657015242354  0.3111958872329297
  0.6935439518532984  0.5637947254198604  0.9390261853854454
  0.5621088402647378  0.9374839416708549  0.5603128048827536
  0.4368197303715483  0.5635295462447304  0.4368185204969456
  0.8128037731173597  0.6870274841019353  0.5608321168537174
  0.1804749279566461  0.5622200544479894  0.9388919080015061
  0.0619153564733134  0.9334045030451510  0.8136253110934717
  0.8135433058552239  0.4404125516707965  0.5587463650763542
  0.1839156923376937  0.0625492989006513  0.9387071931092905
  0.4460079033117517  0.0624777542385345  0.6868482743762350
  0.6879698846306960  0.0621029128828279  0.1875339433211362
  0.4298843896232640  0.3115804628854462  0.6868935085743466
  0.0617687952870423  0.4378849144001805  0.3120227487743302
  0.0622041873705123  0.1862585834333163  0.0631199339454804
  0.9376851506109005  0.3127468269060074  0.1875542245617785
  0.6877470595290200  0.3119540737968430  0.1879673234408142
  0.3108557827397733  0.4345706217652139  0.8118665636467612
  0.5619530320667865  0.9386848810943240  0.3118640222721193
  0.1878603077320789  0.8128325044268561  0.9390795561783029
  0.8139826258892437  0.9380748938523928  0.8142760177314228
  0.3127272995738052  0.1863433700614937  0.3117270961052312
  0.1882485034602984  0.5621548588117262  0.1882667583749097
  0.4385725479534805  0.0619474408873983  0.1882179724530262
  0.9381594310900951  0.5619968991290538  0.1883188569403509
  0.8115692791095739  0.4383580606669684  0.3120345317973872
  0.6874422292073370  0.8143449020568150  0.4358594002472047
  0.1881551801827713  0.8125070964680939  0.4356483243854709
  0.3120758028604904  0.6877808461837079  0.8140640182678952
  0.0633975740196331  0.9374586607864098  0.3111930961755974
  0.4372476028029277  0.8188948364830603  0.9386479234171229
  0.1860295971902843  0.3121338319673558  0.4359109913129252
  0.0619452186615518  0.6878642136287474  0.3121398243859203
  0.9333446193573083  0.8153872315723053  0.6870345285344344
  0.3137266051951511  0.4376328450095783  0.3126200625265217
  0.5655295795646115  0.6886895743990851  0.8122363097752999
  0.0617846538790658  0.9333458864397234  0.5593897788889000
  0.5603321327670487  0.1856420636021003  0.5587507596084701
 
  0.00000000E+00  0.00000000E+00  0.00000000E+00
  0.00000000E+00  0.00000000E+00  0.00000000E+00
  0.00000000E+00  0.00000000E+00  0.00000000E+00
  0.00000000E+00  0.00000000E+00  0.00000000E+00
  0.00000000E+00  0.00000000E+00  0.00000000E+00
  0.00000000E+00  0.00000000E+00  0.00000000E+00
  0.00000000E+00  0.00000000E+00  0.00000000E+00
  0.00000000E+00  0.00000000E+00  0.00000000E+00
  0.00000000E+00  0.00000000E+00  0.00000000E+00
  0.00000000E+00  0.00000000E+00  0.00000000E+00
  0.00000000E+00  0.00000000E+00  0.00000000E+00
  0.00000000E+00  0.00000000E+00  0.00000000E+00
  0.00000000E+00  0.00000000E+00  0.00000000E+00
  0.00000000E+00  0.00000000E+00  0.00000000E+00
  0.00000000E+00  0.00000000E+00  0.00000000E+00
  0.00000000E+00  0.00000000E+00  0.00000000E+00
  0.00000000E+00  0.00000000E+00  0.00000000E+00
  0.00000000E+00  0.00000000E+00  0.00000000E+00
  0.00000000E+00  0.00000000E+00  0.00000000E+00
  0.00000000E+00  0.00000000E+00  0.00000000E+00
  0.00000000E+00  0.00000000E+00  0.00000000E+00
  0.00000000E+00  0.00000000E+00  0.00000000E+00
  0.00000000E+00  0.00000000E+00  0.00000000E+00
  0.00000000E+00  0.00000000E+00  0.00000000E+00
  0.00000000E+00  0.00000000E+00  0.00000000E+00
  0.00000000E+00  0.00000000E+00  0.00000000E+00
  0.00000000E+00  0.00000000E+00  0.00000000E+00
  0.00000000E+00  0.00000000E+00  0.00000000E+00
  0.00000000E+00  0.00000000E+00  0.00000000E+00
  0.00000000E+00  0.00000000E+00  0.00000000E+00
  0.00000000E+00  0.00000000E+00  0.00000000E+00
  0.00000000E+00  0.00000000E+00  0.00000000E+00
  0.00000000E+00  0.00000000E+00  0.00000000E+00
  0.00000000E+00  0.00000000E+00  0.00000000E+00
  0.00000000E+00  0.00000000E+00  0.00000000E+00
  0.00000000E+00  0.00000000E+00  0.00000000E+00
  0.00000000E+00  0.00000000E+00  0.00000000E+00
  0.00000000E+00  0.00000000E+00  0.00000000E+00
  0.00000000E+00  0.00000000E+00  0.00000000E+00
  0.00000000E+00  0.00000000E+00  0.00000000E+00
  0.00000000E+00  0.00000000E+00  0.00000000E+00
  0.00000000E+00  0.00000000E+00  0.00000000E+00
  0.00000000E+00  0.00000000E+00  0.00000000E+00
  0.00000000E+00  0.00000000E+00  0.00000000E+00
  0.00000000E+00  0.00000000E+00  0.00000000E+00
  0.00000000E+00  0.00000000E+00  0.00000000E+00
  0.00000000E+00  0.00000000E+00  0.00000000E+00
  0.00000000E+00  0.00000000E+00  0.00000000E+00
  0.00000000E+00  0.00000000E+00  0.00000000E+00
  0.00000000E+00  0.00000000E+00  0.00000000E+00
  0.00000000E+00  0.00000000E+00  0.00000000E+00
  0.00000000E+00  0.00000000E+00  0.00000000E+00
  0.00000000E+00  0.00000000E+00  0.00000000E+00
  0.00000000E+00  0.00000000E+00  0.00000000E+00
  0.00000000E+00  0.00000000E+00  0.00000000E+00
  0.00000000E+00  0.00000000E+00  0.00000000E+00
  0.00000000E+00  0.00000000E+00  0.00000000E+00
  0.00000000E+00  0.00000000E+00  0.00000000E+00
  0.00000000E+00  0.00000000E+00  0.00000000E+00
  0.00000000E+00  0.00000000E+00  0.00000000E+00
  0.00000000E+00  0.00000000E+00  0.00000000E+00
  0.00000000E+00  0.00000000E+00  0.00000000E+00
  0.00000000E+00  0.00000000E+00  0.00000000E+00
  0.00000000E+00  0.00000000E+00  0.00000000E+00
  0.00000000E+00  0.00000000E+00  0.00000000E+00
  0.00000000E+00  0.00000000E+00  0.00000000E+00
  0.00000000E+00  0.00000000E+00  0.00000000E+00
  0.00000000E+00  0.00000000E+00  0.00000000E+00
  0.00000000E+00  0.00000000E+00  0.00000000E+00
  0.00000000E+00  0.00000000E+00  0.00000000E+00
  0.00000000E+00  0.00000000E+00  0.00000000E+00
  0.00000000E+00  0.00000000E+00  0.00000000E+00
  0.00000000E+00  0.00000000E+00  0.00000000E+00
  0.00000000E+00  0.00000000E+00  0.00000000E+00
  0.00000000E+00  0.00000000E+00  0.00000000E+00
  0.00000000E+00  0.00000000E+00  0.00000000E+00
  0.00000000E+00  0.00000000E+00  0.00000000E+00
  0.00000000E+00  0.00000000E+00  0.00000000E+00
  0.00000000E+00  0.00000000E+00  0.00000000E+00
  0.00000000E+00  0.00000000E+00  0.00000000E+00
  0.00000000E+00  0.00000000E+00  0.00000000E+00
  0.00000000E+00  0.00000000E+00  0.00000000E+00
  0.00000000E+00  0.00000000E+00  0.00000000E+00
  0.00000000E+00  0.00000000E+00  0.00000000E+00
  0.00000000E+00  0.00000000E+00  0.00000000E+00
  0.00000000E+00  0.00000000E+00  0.00000000E+00
  0.00000000E+00  0.00000000E+00  0.00000000E+00
  0.00000000E+00  0.00000000E+00  0.00000000E+00
  0.00000000E+00  0.00000000E+00  0.00000000E+00
  0.00000000E+00  0.00000000E+00  0.00000000E+00
  0.00000000E+00  0.00000000E+00  0.00000000E+00
  0.00000000E+00  0.00000000E+00  0.00000000E+00
  0.00000000E+00  0.00000000E+00  0.00000000E+00
  0.00000000E+00  0.00000000E+00  0.00000000E+00
  0.00000000E+00  0.00000000E+00  0.00000000E+00
  0.00000000E+00  0.00000000E+00  0.00000000E+00
  0.00000000E+00  0.00000000E+00  0.00000000E+00
  0.00000000E+00  0.00000000E+00  0.00000000E+00
  0.00000000E+00  0.00000000E+00  0.00000000E+00
  0.00000000E+00  0.00000000E+00  0.00000000E+00
  0.00000000E+00  0.00000000E+00  0.00000000E+00
  0.00000000E+00  0.00000000E+00  0.00000000E+00
  0.00000000E+00  0.00000000E+00  0.00000000E+00
  0.00000000E+00  0.00000000E+00  0.00000000E+00
  0.00000000E+00  0.00000000E+00  0.00000000E+00
  0.00000000E+00  0.00000000E+00  0.00000000E+00
  0.00000000E+00  0.00000000E+00  0.00000000E+00
  0.00000000E+00  0.00000000E+00  0.00000000E+00
  0.00000000E+00  0.00000000E+00  0.00000000E+00
  0.00000000E+00  0.00000000E+00  0.00000000E+00
  0.00000000E+00  0.00000000E+00  0.00000000E+00
  0.00000000E+00  0.00000000E+00  0.00000000E+00
  0.00000000E+00  0.00000000E+00  0.00000000E+00
  0.00000000E+00  0.00000000E+00  0.00000000E+00
  0.00000000E+00  0.00000000E+00  0.00000000E+00
  0.00000000E+00  0.00000000E+00  0.00000000E+00
  0.00000000E+00  0.00000000E+00  0.00000000E+00
  0.00000000E+00  0.00000000E+00  0.00000000E+00
  0.00000000E+00  0.00000000E+00  0.00000000E+00
  0.00000000E+00  0.00000000E+00  0.00000000E+00
  0.00000000E+00  0.00000000E+00  0.00000000E+00
  0.00000000E+00  0.00000000E+00  0.00000000E+00
  0.00000000E+00  0.00000000E+00  0.00000000E+00
  0.00000000E+00  0.00000000E+00  0.00000000E+00
  0.00000000E+00  0.00000000E+00  0.00000000E+00
  0.00000000E+00  0.00000000E+00  0.00000000E+00
  0.00000000E+00  0.00000000E+00  0.00000000E+00
  0.00000000E+00  0.00000000E+00  0.00000000E+00
