Hf Nb                                   
    1.000000000000000     
    12.1416059748468523    0.8870495487021075   -0.0404708152526610
    -5.2996762932633938   11.0002143055943193    0.0185616211300918
    -0.0615552968701214   -0.0084313571594691   19.5741437615855922
  Hf             Nb           
              92              36
Direct
  0.0636490703976533  0.1865167299026304  0.8167236733689653
  0.1767546979391829  0.8413114150284455  0.1835431648978213
  0.5710559967346989  0.3979061109709644  0.8158900690303590
  0.1704430026493348  0.3437410814429886  0.6924135937903495
  0.3134018868029159  0.1594926022931457  0.0621053429667854
  0.4340425924776412  0.0613927980566065  0.1878640533003318
  0.6701904473096993  0.0433121909715393  0.4349771316498653
  0.5801676521945491  0.6835866618839026  0.0584660420240913
  0.8121578376572997  0.1996131097562233  0.3111391104320371
  0.3271076195593224  0.4139685666004426  0.0674136020069169
  0.4376454316223667  0.8079349988039549  0.9405839691102972
  0.3274840182349565  0.1736077958500651  0.8186825771073940
  0.4362272764558262  0.0705963825579376  0.9388493492051038
  0.8076741829107589  0.9397859783335676  0.3117411236294085
  0.0645803712917328  0.4369991758108221  0.0619245266748496
  0.5622387341520346  0.1326534179482595  0.5616971269741053
  0.6894161064199158  0.5659694766901109  0.1940135454500472
  0.0724899626723757  0.9308796371965007  0.5622390221742465
  0.1773392005929489  0.3396549930081747  0.4341271385410296
  0.1768237251097875  0.5874132010844615  0.4351130042989408
  0.1624515351497580  0.0817087624202855  0.1854300165352639
  0.9348130847643901  0.2889430493609983  0.9364959323475639
  0.3257032506819542  0.4168683161072884  0.3087250958305195
  0.1725354901326835  0.3353660756038662  0.1857650876018088
  0.5742605923138469  0.1851469026053763  0.0615034726432124
  0.9212538933523465  0.8250822057712242  0.1967083101655816
  0.6858591515705863  0.0516405545432706  0.6888833805573791
  0.9387665378491452  0.6131811326364653  0.4409680386656744
  0.6859014109938285  0.3130755700592366  0.1929299400593639
  0.6803444410439157  0.5494111431223767  0.6893329343938058
  0.9339808750129158  0.5549471806410381  0.1870172290330114
  0.3247760733836152  0.1647886078642788  0.5588108429802742
  0.8213149572544507  0.2038874566359294  0.5628082925568036
  0.1732182410324636  0.0901202208045981  0.6902711869159643
  0.3270100764590284  0.6661173286604023  0.5599111851144009
  0.0696929639782649  0.1914529495082850  0.5647152814428446
  0.6757265602529956  0.7981259926825990  0.6875591301310015
  0.4448808642594398  0.3247604890536684  0.9497084745176025
  0.1894386557900109  0.5975638118978026  0.1906650532209564
  0.5549655191512073  0.6473325220358535  0.8203434882886562
  0.9286830072174013  0.1116324024219020  0.4352599050106871
  0.3335794535087635  0.6651207003711874  0.0669373750282626
  0.4282185810544626  0.0712443997331325  0.4299251482603688
  0.8205505085016873  0.9521567728167445  0.5641446317897714
  0.5582364353278692  0.4005300511618381  0.5588540127339120
  0.4258944533642577  0.8222111779348968  0.6911772050728958
  0.4159891564099937  0.3178444699990138  0.6884966034491343
  0.1748202969519292  0.8350969387991963  0.4400132237381474
  0.5750197705800985  0.8990313722503277  0.8181284914885176
  0.8259882735093812  0.4571520569795988  0.5660003604541238
  0.9365306331647791  0.8475713185847911  0.6922990819179138
  0.0541015766312202  0.1840246107920696  0.0623137237991581
  0.1689565484286948  0.0854478480590975  0.4354304771645284
  0.0615156071306904  0.4427963752501722  0.8128980111283522
  0.9394202010821442  0.3676105374658440  0.4411121376299872
  0.8290419508552115  0.9516220683432310  0.8102836514248731
  0.8184367237209441  0.6873002999209634  0.8151506922437085
  0.8246302645651375  0.7055830575249842  0.5623135859120399
  0.1756127098935951  0.5915964274264400  0.6853885309263131
  0.0661514417794233  0.9331847712185709  0.0564563539736156
  0.4175475897050871  0.0681907954052263  0.6882850146914725
  0.0722882826763122  0.6904886025399196  0.3100672465777031
  0.5766061185149398  0.6882477152672869  0.3169347898291906
  0.6866232613496432  0.0588204691443467  0.1824857696717593
  0.6757716041034366  0.5563146790840037  0.9455680616253215
  0.6953487286627589  0.3052124105120675  0.9270108371965869
  0.3212604782970913  0.9027918564045323  0.3110148376347011
  0.4270306894516177  0.5601719944013924  0.4376658423091037
  0.3251973927002664  0.1674868363234645  0.3061764682005297
  0.0557205738965982  0.4317324850801173  0.3043464346939369
  0.4327278006843890  0.5747552024470217  0.6828995627170750
  0.3304440807158927  0.9136809855347685  0.5606845488960689
  0.9276288100676974  0.8536135500101245  0.4276607482769377
  0.0703907404695346  0.1797705308533147  0.3083120559155598
  0.4410384194683900  0.5732569793475446  0.1889853190914203
  0.9311467530900792  0.5709418083243737  0.9316747248247768
  0.8387914892613553  0.6945966096683028  0.0620385242832751
  0.1905533984773753  0.3347548397905194  0.9400517233029864
  0.5725810593500055  0.1416902318931781  0.8093537342477469
  0.3109671713571528  0.4088192208814071  0.5647555388275918
  0.4367103006736343  0.8129172691974791  0.4322874443941933
  0.6795472903784546  0.5572097255879319  0.4345739493192792
  0.1907918248754283  0.5960925707984955  0.9347207154820077
  0.3223289922813021  0.9092954673812810  0.0560033996424540
  0.1790851012998676  0.8397784996772488  0.6886049213928099
  0.3193547699102687  0.9148901656780488  0.8192616549908108
  0.3264182753531188  0.4302963225713201  0.8160963982738066
  0.6796757697372413  0.3015825406340284  0.6837630166436789
  0.6733069928892523  0.2996351621621812  0.4375009062475858
  0.7984959401248594  0.4321229330982351  0.0594729033470290
  0.0872783945312287  0.6876128834875295  0.0589689976171521
  0.8100935342926611  0.9385810857834979  0.0636262924053737
  0.8154222355774650  0.4462570369219082  0.8015197095786372
  0.3077962858653568  0.6679607560850759  0.8082569692601989
  0.5688549348726905  0.9312533133647650  0.0601699513615660
  0.7004404016467911  0.0577094960814529  0.9406214206436757
  0.5673943776593285  0.1774415334272855  0.3121263808787361
  0.5686889213704349  0.4196888154931598  0.3128005073963691
  0.8115792904421152  0.1870648112112961  0.0589874212822599
  0.4195031898981600  0.5578331286719803  0.9444618713070408
  0.9326947545633657  0.5712776354989290  0.6934305542676990
  0.1797880011410750  0.0616750048321479  0.9317552832123756
  0.9327496756466341  0.3225337998048546  0.6869760810877379
  0.5668862500636205  0.8884353638421689  0.5657356597003969
  0.0851943886920829  0.9390862543758519  0.3095119326330502
  0.9360041975892376  0.0969136983825332  0.6870222059916640
  0.9333034802730311  0.8205773534450004  0.9337699936220781
  0.8183967707707533  0.6782041849369844  0.3165273657683766
  0.5598992805011527  0.4247869729766676  0.0794898723692797
  0.0648916354603079  0.6894710663173939  0.8106313749784101
  0.8062067415624612  0.4502963187829792  0.3159531509813532
  0.5639690442469641  0.9383838571692344  0.3037185880076527
  0.4404126580894991  0.3196780426708632  0.1902357326307144
  0.9286635801640645  0.0822586282404712  0.1907989769339513
  0.1667983465136449  0.8276501261282407  0.9339390940544315
  0.3249307909590585  0.6608923729064462  0.3129321499449657
  0.6930909946910878  0.8164884424164502  0.9323943252623274
  0.5726303757973138  0.6703304166447864  0.5594283715973254
  0.6784677668223371  0.8014926599932534  0.4475414442780665
  0.0626650289711918  0.4387776762407045  0.5691596281598993
  0.8182479185804685  0.2037741094539413  0.8104588834103756
  0.4490840530873114  0.8225019468557958  0.1880579754861766
  0.0695189756153659  0.9363274648823184  0.8180884857988394
  0.6667165803171116  0.8061844149617845  0.1882796314568677
  0.9393369379139965  0.0490645207326389  0.9374699918980449
  0.4318995477057918  0.3183657274666847  0.4277329279739358
  0.0602457846964758  0.6781923844405404  0.5716119784754693
  0.9257144402959506  0.3012048301137738  0.1769089829591677
 
  0.00000000E+00  0.00000000E+00  0.00000000E+00
  0.00000000E+00  0.00000000E+00  0.00000000E+00
  0.00000000E+00  0.00000000E+00  0.00000000E+00
  0.00000000E+00  0.00000000E+00  0.00000000E+00
  0.00000000E+00  0.00000000E+00  0.00000000E+00
  0.00000000E+00  0.00000000E+00  0.00000000E+00
  0.00000000E+00  0.00000000E+00  0.00000000E+00
  0.00000000E+00  0.00000000E+00  0.00000000E+00
  0.00000000E+00  0.00000000E+00  0.00000000E+00
  0.00000000E+00  0.00000000E+00  0.00000000E+00
  0.00000000E+00  0.00000000E+00  0.00000000E+00
  0.00000000E+00  0.00000000E+00  0.00000000E+00
  0.00000000E+00  0.00000000E+00  0.00000000E+00
  0.00000000E+00  0.00000000E+00  0.00000000E+00
  0.00000000E+00  0.00000000E+00  0.00000000E+00
  0.00000000E+00  0.00000000E+00  0.00000000E+00
  0.00000000E+00  0.00000000E+00  0.00000000E+00
  0.00000000E+00  0.00000000E+00  0.00000000E+00
  0.00000000E+00  0.00000000E+00  0.00000000E+00
  0.00000000E+00  0.00000000E+00  0.00000000E+00
  0.00000000E+00  0.00000000E+00  0.00000000E+00
  0.00000000E+00  0.00000000E+00  0.00000000E+00
  0.00000000E+00  0.00000000E+00  0.00000000E+00
  0.00000000E+00  0.00000000E+00  0.00000000E+00
  0.00000000E+00  0.00000000E+00  0.00000000E+00
  0.00000000E+00  0.00000000E+00  0.00000000E+00
  0.00000000E+00  0.00000000E+00  0.00000000E+00
  0.00000000E+00  0.00000000E+00  0.00000000E+00
  0.00000000E+00  0.00000000E+00  0.00000000E+00
  0.00000000E+00  0.00000000E+00  0.00000000E+00
  0.00000000E+00  0.00000000E+00  0.00000000E+00
  0.00000000E+00  0.00000000E+00  0.00000000E+00
  0.00000000E+00  0.00000000E+00  0.00000000E+00
  0.00000000E+00  0.00000000E+00  0.00000000E+00
  0.00000000E+00  0.00000000E+00  0.00000000E+00
  0.00000000E+00  0.00000000E+00  0.00000000E+00
  0.00000000E+00  0.00000000E+00  0.00000000E+00
  0.00000000E+00  0.00000000E+00  0.00000000E+00
  0.00000000E+00  0.00000000E+00  0.00000000E+00
  0.00000000E+00  0.00000000E+00  0.00000000E+00
  0.00000000E+00  0.00000000E+00  0.00000000E+00
  0.00000000E+00  0.00000000E+00  0.00000000E+00
  0.00000000E+00  0.00000000E+00  0.00000000E+00
  0.00000000E+00  0.00000000E+00  0.00000000E+00
  0.00000000E+00  0.00000000E+00  0.00000000E+00
  0.00000000E+00  0.00000000E+00  0.00000000E+00
  0.00000000E+00  0.00000000E+00  0.00000000E+00
  0.00000000E+00  0.00000000E+00  0.00000000E+00
  0.00000000E+00  0.00000000E+00  0.00000000E+00
  0.00000000E+00  0.00000000E+00  0.00000000E+00
  0.00000000E+00  0.00000000E+00  0.00000000E+00
  0.00000000E+00  0.00000000E+00  0.00000000E+00
  0.00000000E+00  0.00000000E+00  0.00000000E+00
  0.00000000E+00  0.00000000E+00  0.00000000E+00
  0.00000000E+00  0.00000000E+00  0.00000000E+00
  0.00000000E+00  0.00000000E+00  0.00000000E+00
  0.00000000E+00  0.00000000E+00  0.00000000E+00
  0.00000000E+00  0.00000000E+00  0.00000000E+00
  0.00000000E+00  0.00000000E+00  0.00000000E+00
  0.00000000E+00  0.00000000E+00  0.00000000E+00
  0.00000000E+00  0.00000000E+00  0.00000000E+00
  0.00000000E+00  0.00000000E+00  0.00000000E+00
  0.00000000E+00  0.00000000E+00  0.00000000E+00
  0.00000000E+00  0.00000000E+00  0.00000000E+00
  0.00000000E+00  0.00000000E+00  0.00000000E+00
  0.00000000E+00  0.00000000E+00  0.00000000E+00
  0.00000000E+00  0.00000000E+00  0.00000000E+00
  0.00000000E+00  0.00000000E+00  0.00000000E+00
  0.00000000E+00  0.00000000E+00  0.00000000E+00
  0.00000000E+00  0.00000000E+00  0.00000000E+00
  0.00000000E+00  0.00000000E+00  0.00000000E+00
  0.00000000E+00  0.00000000E+00  0.00000000E+00
  0.00000000E+00  0.00000000E+00  0.00000000E+00
  0.00000000E+00  0.00000000E+00  0.00000000E+00
  0.00000000E+00  0.00000000E+00  0.00000000E+00
  0.00000000E+00  0.00000000E+00  0.00000000E+00
  0.00000000E+00  0.00000000E+00  0.00000000E+00
  0.00000000E+00  0.00000000E+00  0.00000000E+00
  0.00000000E+00  0.00000000E+00  0.00000000E+00
  0.00000000E+00  0.00000000E+00  0.00000000E+00
  0.00000000E+00  0.00000000E+00  0.00000000E+00
  0.00000000E+00  0.00000000E+00  0.00000000E+00
  0.00000000E+00  0.00000000E+00  0.00000000E+00
  0.00000000E+00  0.00000000E+00  0.00000000E+00
  0.00000000E+00  0.00000000E+00  0.00000000E+00
  0.00000000E+00  0.00000000E+00  0.00000000E+00
  0.00000000E+00  0.00000000E+00  0.00000000E+00
  0.00000000E+00  0.00000000E+00  0.00000000E+00
  0.00000000E+00  0.00000000E+00  0.00000000E+00
  0.00000000E+00  0.00000000E+00  0.00000000E+00
  0.00000000E+00  0.00000000E+00  0.00000000E+00
  0.00000000E+00  0.00000000E+00  0.00000000E+00
  0.00000000E+00  0.00000000E+00  0.00000000E+00
  0.00000000E+00  0.00000000E+00  0.00000000E+00
  0.00000000E+00  0.00000000E+00  0.00000000E+00
  0.00000000E+00  0.00000000E+00  0.00000000E+00
  0.00000000E+00  0.00000000E+00  0.00000000E+00
  0.00000000E+00  0.00000000E+00  0.00000000E+00
  0.00000000E+00  0.00000000E+00  0.00000000E+00
  0.00000000E+00  0.00000000E+00  0.00000000E+00
  0.00000000E+00  0.00000000E+00  0.00000000E+00
  0.00000000E+00  0.00000000E+00  0.00000000E+00
  0.00000000E+00  0.00000000E+00  0.00000000E+00
  0.00000000E+00  0.00000000E+00  0.00000000E+00
  0.00000000E+00  0.00000000E+00  0.00000000E+00
  0.00000000E+00  0.00000000E+00  0.00000000E+00
  0.00000000E+00  0.00000000E+00  0.00000000E+00
  0.00000000E+00  0.00000000E+00  0.00000000E+00
  0.00000000E+00  0.00000000E+00  0.00000000E+00
  0.00000000E+00  0.00000000E+00  0.00000000E+00
  0.00000000E+00  0.00000000E+00  0.00000000E+00
  0.00000000E+00  0.00000000E+00  0.00000000E+00
  0.00000000E+00  0.00000000E+00  0.00000000E+00
  0.00000000E+00  0.00000000E+00  0.00000000E+00
  0.00000000E+00  0.00000000E+00  0.00000000E+00
  0.00000000E+00  0.00000000E+00  0.00000000E+00
  0.00000000E+00  0.00000000E+00  0.00000000E+00
  0.00000000E+00  0.00000000E+00  0.00000000E+00
  0.00000000E+00  0.00000000E+00  0.00000000E+00
  0.00000000E+00  0.00000000E+00  0.00000000E+00
  0.00000000E+00  0.00000000E+00  0.00000000E+00
  0.00000000E+00  0.00000000E+00  0.00000000E+00
  0.00000000E+00  0.00000000E+00  0.00000000E+00
  0.00000000E+00  0.00000000E+00  0.00000000E+00
  0.00000000E+00  0.00000000E+00  0.00000000E+00
  0.00000000E+00  0.00000000E+00  0.00000000E+00
  0.00000000E+00  0.00000000E+00  0.00000000E+00
  0.00000000E+00  0.00000000E+00  0.00000000E+00
