Hf Ti                                   
    1.000000000000000     
    12.3390222993491800   -0.0185898146646336   -0.0056600011000386
    -6.1856261126986150   10.7243259625546852    0.0034628207453112
    -0.0089765856707313    0.0011933248551135   19.4706978201548928
  Hf              Ti            
    68    60
Direct
     0.9130252230634398    0.5807363177739387    0.4392185941260808
     0.0858308284800189    0.9133665541719320    0.0596755156643824
     0.5826516601214744    0.6645388987062935    0.3149066189095682
     0.5928262039012985    0.6691730875300462    0.5657490523463677
     0.0872943455002807    0.4184722387586452    0.8138305507368927
     0.9187302182097241    0.5865793710481408    0.9379072212260336
     0.5766061360532254    0.6672859185446564    0.0601398991810061
     0.5820421108685647    0.4138972163562782    0.0619345862481397
     0.3410841026948316    0.1736486685281025    0.5648575988372820
     0.6660145570614481    0.8280321716168997    0.1866581798981671
     0.1666458936910533    0.0830327527738166    0.4363047169521055
     0.3377242220112678    0.4190479802682983    0.3135009611160278
     0.0826166783311427    0.1722521084008179    0.0535408142919490
     0.5962828601338274    0.1739512567699681    0.5673343639268382
     0.1592114795910775    0.0810249897448753    0.6899536941748744
     0.9155559139221192    0.0841232984953222    0.1840070977276137
     0.8337173921318385    0.6650209719259830    0.3101287849493796
     0.5812196743078023    0.9203249688607477    0.0579344355272497
     0.8323651008471056    0.9172732597023515    0.0563306076894233
     0.8362210059334175    0.4132368618795220    0.3138439695825208
     0.8292676783262013    0.9157846552590619    0.8119160054786912
     0.1682373176319380    0.0861480214105290    0.1848615031316672
     0.3294499654746589    0.6650859844357422    0.3116605122315253
     0.5844884301116351    0.9212707642177249    0.3172525697175361
     0.6631050991809119    0.3336054657065132    0.4379682099968745
     0.0792051202084858    0.9133898067981956    0.5641726726849650
     0.3366953092398230    0.9148435162713995    0.5650693743242289
     0.1678861506271185    0.8315107506363870    0.4332118994681589
     0.1658687555303612    0.8295391700977093    0.1876773122775054
     0.1703505295674658    0.5853099516617042    0.6893404766021927
     0.4135553955214974    0.8300151311324033    0.1847901840254010
     0.0814150798118918    0.9138449152701240    0.8158376997876261
     0.4255153811205450    0.0845582577570259    0.6926144536463855
     0.5856026135256847    0.4176643507808407    0.8098903885017852
     0.1652057553789813    0.3351057910581351    0.4374652765256122
     0.1751715080183088    0.5894674488091113    0.9395555877279222
     0.5902606169062454    0.9212944608928568    0.5616906439312734
     0.4178224499268595    0.0833495761656134    0.1820591217444676
     0.4087379384706389    0.3312156583519568    0.9367466954451285
     0.0767237292822196    0.1628019987625013    0.5642037070215407
     0.1623662245685181    0.5799525332075534    0.4360043074358942
     0.3352919748616850    0.1654963986735545    0.8140828277185542
     0.0844177922985457    0.6669537898070964    0.8143399970768630
     0.9033106663296900    0.0800689613353434    0.4409034876105518
     0.6646507698109276    0.3349573285102131    0.1873621785931570
     0.3397627269344107    0.6688462554388941    0.5633066630943806
     0.3302993275794985    0.4214796375811333    0.0604437113801580
     0.0759821500546813    0.6641455766629536    0.5651065169967656
     0.3409489217941682    0.1690517515967974    0.3117639243567464
     0.9048171407119564    0.3280580895823854    0.6894720218443139
     0.6688264318520006    0.0865555051156362    0.1865421472133672
     0.6685577556209741    0.5912405168057793    0.9349980952550305
     0.9190052483571686    0.3337288224511231    0.1850108452462248
     0.1667027478365179    0.8328760588060115    0.6910084025386147
     0.0801604123949567    0.1678087265262695    0.3117620967327874
     0.9166183889768390    0.3272962855894448    0.9361671410841623
     0.9070007053836776    0.8284279676751126    0.4410284437879177
     0.0819219911648831    0.1691252065387581    0.8202617624552763
     0.1695552728336569    0.3321546614035139    0.6895517817009916
     0.4238797555523862    0.0794747007792637    0.4367484507646452
     0.8339407117119253    0.9176016322062023    0.3131798400129477
     0.9206911958162204    0.5814911380133395    0.1840464737671978
     0.8327910121775829    0.6686373668675697    0.0637005389470038
     0.5798827759210315    0.6695127503290274    0.8086251501754778
     0.0761300748708348    0.4132994514234705    0.5633995724638613
     0.1688932495193499    0.3401144291648142    0.1862662837418286
     0.6640223725658987    0.3246803875866041    0.9360985575953999
     0.3418513981206834    0.4209362338636052    0.5629315508510440
     0.3352607594763696    0.1643080788765151    0.0580507263467256
     0.4176653144636360    0.5823868374716004    0.6897571999588852
     0.8294702329611160    0.4206935587687372    0.5666216542708504
     0.6691919523522600    0.0753802038624444    0.6910127726242312
     0.3361778496572826    0.9182437008341419    0.3111708937539934
     0.6681795740133859    0.3395002101666831    0.6889807096512116
     0.6722836417485495    0.5837679379107438    0.6873683708430693
     0.4166006362516027    0.5821453160155194    0.1862120541357096
     0.6662368384663028    0.8383617403516012    0.6885911402577147
     0.4261812062156970    0.8327730117661672    0.6915097338223408
     0.8348344852028057    0.4121502198636667    0.0597195958795919
     0.6589422600515326    0.8351180447858347    0.9332292670524617
     0.1718747883168006    0.3446842393709120    0.9371941221775394
     0.6626700593293928    0.0775070938129567    0.9344204601673344
     0.9185242930597584    0.8355060716139354    0.9356940477783745
     0.6570795272801696    0.5775903528415713    0.1884873555127210
     0.8302138598853089    0.9163106020210915    0.5694897020110627
     0.6723543440025298    0.0934724406102958    0.4370474854502779
     0.6646844489651756    0.8284788481613394    0.4402246958793735
     0.9124041306242715    0.0828866109921169    0.6894561404997416
     0.4245086840898039    0.3402366861239162    0.4377034423016132
     0.8270303409807530    0.6578063214606644    0.5663530504606404
     0.9100479089434530    0.3271591158327643    0.4400752602116743
     0.0817677478423606    0.9142668068397898    0.3107068422935887
     0.0923818806334523    0.6672599909899338    0.0622336699854362
     0.8296483005142106    0.4165181126815087    0.8120694691203852
     0.4158009643918666    0.5898873812243336    0.9342718625718877
     0.0839270768230693    0.6633502849164635    0.3097475771798414
     0.3312910834684825    0.9123405393912752    0.0572002755061656
     0.3405630316031723    0.9139588105859675    0.8153062673182717
     0.6610170446449146    0.5772365519561764    0.4388826433217780
     0.5843628153960378    0.1654710311744313    0.3120186944607558
     0.1691835488160806    0.0764059274483309    0.9387925376667782
     0.9078101738717025    0.5805311149000828    0.6903474364624936
     0.5850359326298632    0.1646551366517078    0.0583738579692138
     0.5827380655287703    0.4174076648810983    0.3128680400228883
     0.5887339562957193    0.4204831028162945    0.5648083356984366
     0.4252881519753875    0.3442014621606629    0.6881096353988971
     0.9043772197685868    0.0789460660062083    0.9351961986140104
     0.8343540444244468    0.1717739365557915    0.3145852117387244
     0.4232494251979394    0.5894238723219294    0.4388619139273362
     0.4186731776936232    0.3365984850299530    0.1871112078909697
     0.9178180394351628    0.8358423037188100    0.1874004280008451
     0.4177004983757840    0.8328886215205110    0.9349527388772444
     0.8332923362921207    0.6674497196026443    0.8100498362573656
     0.9052576306120990    0.8222382559906081    0.6871501059841205
     0.1663933225398884    0.5805122748648366    0.1850349780948122
     0.3400875596005012    0.6733927882563165    0.8127909613614869
     0.1755257122338369    0.8368128722122858    0.9378895044312554
     0.0822602288137207    0.4223336208158822    0.0616271906325745
     0.3304880011647731    0.6658099019655155    0.0619164310379259
     0.0787723050407319    0.4165863568380673    0.3123808478961404
     0.4182587421754808    0.0753254355938950    0.9378774687130855
     0.4157305454466071    0.8316641762719370    0.4367074075117416
     0.5923827193072653    0.1640908486423689    0.8125758617311938
     0.5808414157986702    0.9199123986540718    0.8123024827429004
     0.8298186430943844    0.1637710764381775    0.5660853938153430
     0.3347757595471815    0.4226906778588961    0.8125982532936966
     0.8236615762401515    0.1588107560141362    0.8133714883092054
     0.8298054080871040    0.1678885098203457    0.0575727352905251
 
  0.00000000E+00  0.00000000E+00  0.00000000E+00
  0.00000000E+00  0.00000000E+00  0.00000000E+00
  0.00000000E+00  0.00000000E+00  0.00000000E+00
  0.00000000E+00  0.00000000E+00  0.00000000E+00
  0.00000000E+00  0.00000000E+00  0.00000000E+00
  0.00000000E+00  0.00000000E+00  0.00000000E+00
  0.00000000E+00  0.00000000E+00  0.00000000E+00
  0.00000000E+00  0.00000000E+00  0.00000000E+00
  0.00000000E+00  0.00000000E+00  0.00000000E+00
  0.00000000E+00  0.00000000E+00  0.00000000E+00
  0.00000000E+00  0.00000000E+00  0.00000000E+00
  0.00000000E+00  0.00000000E+00  0.00000000E+00
  0.00000000E+00  0.00000000E+00  0.00000000E+00
  0.00000000E+00  0.00000000E+00  0.00000000E+00
  0.00000000E+00  0.00000000E+00  0.00000000E+00
  0.00000000E+00  0.00000000E+00  0.00000000E+00
  0.00000000E+00  0.00000000E+00  0.00000000E+00
  0.00000000E+00  0.00000000E+00  0.00000000E+00
  0.00000000E+00  0.00000000E+00  0.00000000E+00
  0.00000000E+00  0.00000000E+00  0.00000000E+00
  0.00000000E+00  0.00000000E+00  0.00000000E+00
  0.00000000E+00  0.00000000E+00  0.00000000E+00
  0.00000000E+00  0.00000000E+00  0.00000000E+00
  0.00000000E+00  0.00000000E+00  0.00000000E+00
  0.00000000E+00  0.00000000E+00  0.00000000E+00
  0.00000000E+00  0.00000000E+00  0.00000000E+00
  0.00000000E+00  0.00000000E+00  0.00000000E+00
  0.00000000E+00  0.00000000E+00  0.00000000E+00
  0.00000000E+00  0.00000000E+00  0.00000000E+00
  0.00000000E+00  0.00000000E+00  0.00000000E+00
  0.00000000E+00  0.00000000E+00  0.00000000E+00
  0.00000000E+00  0.00000000E+00  0.00000000E+00
  0.00000000E+00  0.00000000E+00  0.00000000E+00
  0.00000000E+00  0.00000000E+00  0.00000000E+00
  0.00000000E+00  0.00000000E+00  0.00000000E+00
  0.00000000E+00  0.00000000E+00  0.00000000E+00
  0.00000000E+00  0.00000000E+00  0.00000000E+00
  0.00000000E+00  0.00000000E+00  0.00000000E+00
  0.00000000E+00  0.00000000E+00  0.00000000E+00
  0.00000000E+00  0.00000000E+00  0.00000000E+00
  0.00000000E+00  0.00000000E+00  0.00000000E+00
  0.00000000E+00  0.00000000E+00  0.00000000E+00
  0.00000000E+00  0.00000000E+00  0.00000000E+00
  0.00000000E+00  0.00000000E+00  0.00000000E+00
  0.00000000E+00  0.00000000E+00  0.00000000E+00
  0.00000000E+00  0.00000000E+00  0.00000000E+00
  0.00000000E+00  0.00000000E+00  0.00000000E+00
  0.00000000E+00  0.00000000E+00  0.00000000E+00
  0.00000000E+00  0.00000000E+00  0.00000000E+00
  0.00000000E+00  0.00000000E+00  0.00000000E+00
  0.00000000E+00  0.00000000E+00  0.00000000E+00
  0.00000000E+00  0.00000000E+00  0.00000000E+00
  0.00000000E+00  0.00000000E+00  0.00000000E+00
  0.00000000E+00  0.00000000E+00  0.00000000E+00
  0.00000000E+00  0.00000000E+00  0.00000000E+00
  0.00000000E+00  0.00000000E+00  0.00000000E+00
  0.00000000E+00  0.00000000E+00  0.00000000E+00
  0.00000000E+00  0.00000000E+00  0.00000000E+00
  0.00000000E+00  0.00000000E+00  0.00000000E+00
  0.00000000E+00  0.00000000E+00  0.00000000E+00
  0.00000000E+00  0.00000000E+00  0.00000000E+00
  0.00000000E+00  0.00000000E+00  0.00000000E+00
  0.00000000E+00  0.00000000E+00  0.00000000E+00
  0.00000000E+00  0.00000000E+00  0.00000000E+00
  0.00000000E+00  0.00000000E+00  0.00000000E+00
  0.00000000E+00  0.00000000E+00  0.00000000E+00
  0.00000000E+00  0.00000000E+00  0.00000000E+00
  0.00000000E+00  0.00000000E+00  0.00000000E+00
  0.00000000E+00  0.00000000E+00  0.00000000E+00
  0.00000000E+00  0.00000000E+00  0.00000000E+00
  0.00000000E+00  0.00000000E+00  0.00000000E+00
  0.00000000E+00  0.00000000E+00  0.00000000E+00
  0.00000000E+00  0.00000000E+00  0.00000000E+00
  0.00000000E+00  0.00000000E+00  0.00000000E+00
  0.00000000E+00  0.00000000E+00  0.00000000E+00
  0.00000000E+00  0.00000000E+00  0.00000000E+00
  0.00000000E+00  0.00000000E+00  0.00000000E+00
  0.00000000E+00  0.00000000E+00  0.00000000E+00
  0.00000000E+00  0.00000000E+00  0.00000000E+00
  0.00000000E+00  0.00000000E+00  0.00000000E+00
  0.00000000E+00  0.00000000E+00  0.00000000E+00
  0.00000000E+00  0.00000000E+00  0.00000000E+00
  0.00000000E+00  0.00000000E+00  0.00000000E+00
  0.00000000E+00  0.00000000E+00  0.00000000E+00
  0.00000000E+00  0.00000000E+00  0.00000000E+00
  0.00000000E+00  0.00000000E+00  0.00000000E+00
  0.00000000E+00  0.00000000E+00  0.00000000E+00
  0.00000000E+00  0.00000000E+00  0.00000000E+00
  0.00000000E+00  0.00000000E+00  0.00000000E+00
  0.00000000E+00  0.00000000E+00  0.00000000E+00
  0.00000000E+00  0.00000000E+00  0.00000000E+00
  0.00000000E+00  0.00000000E+00  0.00000000E+00
  0.00000000E+00  0.00000000E+00  0.00000000E+00
  0.00000000E+00  0.00000000E+00  0.00000000E+00
  0.00000000E+00  0.00000000E+00  0.00000000E+00
  0.00000000E+00  0.00000000E+00  0.00000000E+00
  0.00000000E+00  0.00000000E+00  0.00000000E+00
  0.00000000E+00  0.00000000E+00  0.00000000E+00
  0.00000000E+00  0.00000000E+00  0.00000000E+00
  0.00000000E+00  0.00000000E+00  0.00000000E+00
  0.00000000E+00  0.00000000E+00  0.00000000E+00
  0.00000000E+00  0.00000000E+00  0.00000000E+00
  0.00000000E+00  0.00000000E+00  0.00000000E+00
  0.00000000E+00  0.00000000E+00  0.00000000E+00
  0.00000000E+00  0.00000000E+00  0.00000000E+00
  0.00000000E+00  0.00000000E+00  0.00000000E+00
  0.00000000E+00  0.00000000E+00  0.00000000E+00
  0.00000000E+00  0.00000000E+00  0.00000000E+00
  0.00000000E+00  0.00000000E+00  0.00000000E+00
  0.00000000E+00  0.00000000E+00  0.00000000E+00
  0.00000000E+00  0.00000000E+00  0.00000000E+00
  0.00000000E+00  0.00000000E+00  0.00000000E+00
  0.00000000E+00  0.00000000E+00  0.00000000E+00
  0.00000000E+00  0.00000000E+00  0.00000000E+00
  0.00000000E+00  0.00000000E+00  0.00000000E+00
  0.00000000E+00  0.00000000E+00  0.00000000E+00
  0.00000000E+00  0.00000000E+00  0.00000000E+00
  0.00000000E+00  0.00000000E+00  0.00000000E+00
  0.00000000E+00  0.00000000E+00  0.00000000E+00
  0.00000000E+00  0.00000000E+00  0.00000000E+00
  0.00000000E+00  0.00000000E+00  0.00000000E+00
  0.00000000E+00  0.00000000E+00  0.00000000E+00
  0.00000000E+00  0.00000000E+00  0.00000000E+00
  0.00000000E+00  0.00000000E+00  0.00000000E+00
  0.00000000E+00  0.00000000E+00  0.00000000E+00
  0.00000000E+00  0.00000000E+00  0.00000000E+00
  0.00000000E+00  0.00000000E+00  0.00000000E+00
  0.00000000E+00  0.00000000E+00  0.00000000E+00
