Nb Ti                                   
    1.000000000000000     
    13.0150821389264983   -0.0208435027202225   -0.0103615451876367
    -6.5579935368618427    9.3036871023839751    0.0227134997448536
    -0.0108385126345113    0.0385324785439581   18.4654984453998381
  Nb              Ti            
    44    84
Direct
     0.4406703798034780    0.1231223476056690    0.1872642781302082
     0.4469533894814448    0.1349816567396478    0.4423459653629380
     0.4413267460654342    0.6248435589176913    0.6831402665893621
     0.3159911622996886    0.3824174027274138    0.0604493638386421
     0.4325288579548364    0.6235792172031095    0.1911150903541108
     0.8115569260679899    0.3811962352033555    0.5615708334898586
     0.1884140447858917    0.3732334729595301    0.9383354005912127
     0.4433829157499865    0.8790324441362091    0.1860536979842049
     0.6813208168398832    0.8651436277656774    0.6897573833967064
     0.6873141517898941    0.8754019203533911    0.9377685332188944
     0.0695036514035160    0.3811884467554672    0.5595827979714741
     0.3369093243669158    0.1509703064774746    0.8113186942078791
     0.6864993283347002    0.1152876522192339    0.6888859985415480
     0.6818805972078803    0.6082397761669964    0.4337195216115333
     0.4398234305327459    0.3724120192784028    0.1845936405508352
     0.3129993887640642    0.6230197073756275    0.5651827329663741
     0.6890925922501184    0.6162643131529785    0.1872201754911258
     0.8114579230436983    0.1265510132120153    0.8123905059995332
     0.9410035285735372    0.1299258814682641    0.9367207373480461
     0.5880972629551316    0.3960102511185358    0.8124596949080681
     0.8243001431440230    0.1197642100243429    0.3113350262140059
     0.3063423640551469    0.3685204552139694    0.8156484191585305
     0.5667714876884491    0.1255782754172015    0.5668196245210945
     0.0581644402110826    0.3700961033471032    0.3099217756076746
     0.6890885327356833    0.1281016535217585    0.9324691048232489
     0.8209755458521988    0.8747638335816612    0.3120184178919199
     0.4345877120741515    0.3781463291937450    0.4381433594216872
     0.6898967732384941    0.3754102025097341    0.4379169016749552
     0.5629640367236556    0.8838212313442326    0.0617015961340316
     0.4375060601931242    0.6298168991205947    0.4377743283027015
     0.0577962647684152    0.6267888935815299    0.5679137428484196
     0.1901505538984277    0.1309577902517500    0.1883074066456200
     0.0654282985309885    0.1342967355744530    0.5639930876464446
     0.1891694702500417    0.6120767000431109    0.9308731140755337
     0.0603864284961055    0.1216676683120309    0.8109750753762740
     0.1888537226528587    0.3788309718581020    0.1875500837350847
     0.3126782876801855    0.1187088329158230    0.5594461626813960
     0.5610589479551934    0.8696779141962544    0.8161140345993696
     0.4362431390977723    0.8768453405666526    0.4338678142924312
     0.5695182521666527    0.6338758845877881    0.3120301498487234
     0.1806477231805093    0.6211631076273658    0.6904834984189264
     0.8134380858912917    0.8749718915904220    0.8118270436963475
     0.9442551156481445    0.3761847083653798    0.4387262064434969
     0.1926719578917421    0.8894347226416655    0.1889151472581332
     0.6639853642999162    0.3419060616353511    0.6873260971662797
     0.5604799207653013    0.8740203461379458    0.5628891949808442
     0.8018468775932258    0.3438666522260813    0.3191141748431912
     0.9503211944062216    0.6406896699046547    0.1772947538807015
     0.6848421165339691    0.6188096058558752    0.9386919916324469
     0.1865070352743336    0.6355431383053070    0.1876534340729978
     0.4346892282920047    0.8666859701191237    0.6922553450727779
     0.0818298580501133    0.8762041406131201    0.0624304642251906
     0.6909086674794770    0.1230780680422152    0.4359743858545856
     0.8155034726425577    0.6102536875889993    0.3081163382263619
     0.0608505215958084    0.3791923839010653    0.8129715480167230
     0.5810001101021544    0.4017368417771078    0.0652672501530169
     0.8089731596205060    0.4059905767698896    0.0614954901843646
     0.0642291399671286    0.3646932661956078    0.0647704963201605
     0.6890163403305624    0.1184578860944103    0.1917759088941887
     0.8131773144963939    0.9138702698715930    0.0630608569038393
     0.9345734810086288    0.1125575488372931    0.6875393938967640
     0.8165400309445575    0.1388087071681852    0.5637971484901867
     0.3066667055822502    0.8791629687227770    0.8117760617153520
     0.9378024930553501    0.8763299547155232    0.9402722626420877
     0.3228494902503702    0.3777136165727458    0.3095554470199338
     0.5655743032773695    0.1358405698460247    0.0599190465123072
     0.8155527191164269    0.6376971180790427    0.5587730811709278
     0.9430078982518152    0.8620682421488595    0.6899467104612493
     0.9373845856952541    0.3807662210733583    0.9415824816938597
     0.3133142257326276    0.6288106474184456    0.0616085105219447
     0.0681990934096867    0.8866712591604288    0.5548022845602558
     0.6893302865041644    0.8623921624747919    0.4405638770617587
     0.0546035603624232    0.6303656798169218    0.8155579198861941
     0.4057100504588284    0.0907903439761765    0.9372616253706277
     0.9185313433836191    0.8612463337185261    0.4421413141831154
     0.1635793688377796    0.8523887906917093    0.6851602556425095
     0.5582438679748430    0.3776270666972535    0.3120849312826390
     0.9388008385401749    0.8830021203938551    0.1823661779229928
     0.9069044562086120    0.6070487709275176    0.9466920020219295
     0.5691862494441695    0.8839431141850744    0.3130046597813400
     0.2078473073176990    0.8963890085108994    0.4332195563673815
     0.3006137167494934    0.8570488772600399    0.3059422658189262
     0.1884212243365217    0.1230343996239683    0.6855275735477175
     0.6832100089278274    0.8626375898013854    0.1883358768214051
     0.1893902268177300    0.3770762634557079    0.6879515821619726
     0.4389033017022763    0.6204638929928162    0.9378584971520495
     0.3102669763763120    0.1176202689722100    0.3137001474522712
     0.8190205894765329    0.8921182478068449    0.5706195011395179
     0.1623519832347056    0.8346665207787952    0.9360543395315486
     0.9505960400981720    0.6343700381916101    0.4378988483385891
     0.5596700405684601    0.3763046705706773    0.5629531930825055
     0.6913477000540926    0.6171643440685108    0.6877950040563381
     0.6575978500011113    0.3458986817092581    0.9390812869275446
     0.0427234179740430    0.6057964256237761    0.3081749795074952
     0.6975961585809648    0.3739932879392739    0.1938586017873577
     0.3170102582544561    0.6243663071827831    0.8072554888515893
     0.1860153938050045    0.6350539180594326    0.4413302766139936
     0.9092711057160815    0.5932748015055250    0.6895061114509015
     0.9308705993523441    0.3820256245284837    0.1875354884147919
     0.4402262410252196    0.3653212005833738    0.9387861689916844
     0.4358017183250880    0.8703360457660188    0.9364734885557280
     0.8094640449153533    0.1555180990130755    0.0575978368647499
     0.0690768390577595    0.6164241347281484    0.0532129866174681
     0.1900450734891946    0.3800886101305153    0.4346160004091534
     0.4153287129404634    0.1027941001042328    0.6853688743522047
     0.5589766009557006    0.1189325525582113    0.8124436810134268
     0.3123345018968541    0.8697286186609386    0.5632610571933130
     0.3137412432965323    0.8817486106857250    0.0625357898244354
     0.3240750342499629    0.1413109778262519    0.0636777436719555
     0.0545533500386153    0.8683102421650339    0.3159392944851240
     0.0683183292020122    0.1140126949947627    0.0614622879518092
     0.9393468102283637    0.1223608740103542    0.4393473420103786
     0.3073910747359804    0.6170517863316134    0.3165307037828937
     0.8099350574600461    0.3743012198043897    0.8127913935900610
     0.8237597889445835    0.6752131223414316    0.0641079810034463
     0.9345887625650255    0.3640351077350752    0.6824402689309713
     0.1813870732136266    0.1235489211081559    0.4411865537018940
     0.4400365731655875    0.3791891841475717    0.6937286956219724
     0.8381193631807958    0.6502448813691859    0.8152383863510523
     0.9376163962871240    0.1320671651334323    0.1804037230123025
     0.0642347651508275    0.1279546071349098    0.3095033926565318
     0.5655389052197231    0.6403745383531699    0.0676435284741493
     0.3157449374126421    0.3700423435015686    0.5635822383423577
     0.0900957985596622    0.9043255646478481    0.8151629629812600
     0.5571330970486497    0.6167754577814715    0.8097008282801029
     0.5719110869823602    0.6311635027059509    0.5590596500622184
     0.5448931567865003    0.1147770915260773    0.3143829950970032
     0.1894674805382187    0.1201950166833856    0.9350761710122548
 
  0.00000000E+00  0.00000000E+00  0.00000000E+00
  0.00000000E+00  0.00000000E+00  0.00000000E+00
  0.00000000E+00  0.00000000E+00  0.00000000E+00
  0.00000000E+00  0.00000000E+00  0.00000000E+00
  0.00000000E+00  0.00000000E+00  0.00000000E+00
  0.00000000E+00  0.00000000E+00  0.00000000E+00
  0.00000000E+00  0.00000000E+00  0.00000000E+00
  0.00000000E+00  0.00000000E+00  0.00000000E+00
  0.00000000E+00  0.00000000E+00  0.00000000E+00
  0.00000000E+00  0.00000000E+00  0.00000000E+00
  0.00000000E+00  0.00000000E+00  0.00000000E+00
  0.00000000E+00  0.00000000E+00  0.00000000E+00
  0.00000000E+00  0.00000000E+00  0.00000000E+00
  0.00000000E+00  0.00000000E+00  0.00000000E+00
  0.00000000E+00  0.00000000E+00  0.00000000E+00
  0.00000000E+00  0.00000000E+00  0.00000000E+00
  0.00000000E+00  0.00000000E+00  0.00000000E+00
  0.00000000E+00  0.00000000E+00  0.00000000E+00
  0.00000000E+00  0.00000000E+00  0.00000000E+00
  0.00000000E+00  0.00000000E+00  0.00000000E+00
  0.00000000E+00  0.00000000E+00  0.00000000E+00
  0.00000000E+00  0.00000000E+00  0.00000000E+00
  0.00000000E+00  0.00000000E+00  0.00000000E+00
  0.00000000E+00  0.00000000E+00  0.00000000E+00
  0.00000000E+00  0.00000000E+00  0.00000000E+00
  0.00000000E+00  0.00000000E+00  0.00000000E+00
  0.00000000E+00  0.00000000E+00  0.00000000E+00
  0.00000000E+00  0.00000000E+00  0.00000000E+00
  0.00000000E+00  0.00000000E+00  0.00000000E+00
  0.00000000E+00  0.00000000E+00  0.00000000E+00
  0.00000000E+00  0.00000000E+00  0.00000000E+00
  0.00000000E+00  0.00000000E+00  0.00000000E+00
  0.00000000E+00  0.00000000E+00  0.00000000E+00
  0.00000000E+00  0.00000000E+00  0.00000000E+00
  0.00000000E+00  0.00000000E+00  0.00000000E+00
  0.00000000E+00  0.00000000E+00  0.00000000E+00
  0.00000000E+00  0.00000000E+00  0.00000000E+00
  0.00000000E+00  0.00000000E+00  0.00000000E+00
  0.00000000E+00  0.00000000E+00  0.00000000E+00
  0.00000000E+00  0.00000000E+00  0.00000000E+00
  0.00000000E+00  0.00000000E+00  0.00000000E+00
  0.00000000E+00  0.00000000E+00  0.00000000E+00
  0.00000000E+00  0.00000000E+00  0.00000000E+00
  0.00000000E+00  0.00000000E+00  0.00000000E+00
  0.00000000E+00  0.00000000E+00  0.00000000E+00
  0.00000000E+00  0.00000000E+00  0.00000000E+00
  0.00000000E+00  0.00000000E+00  0.00000000E+00
  0.00000000E+00  0.00000000E+00  0.00000000E+00
  0.00000000E+00  0.00000000E+00  0.00000000E+00
  0.00000000E+00  0.00000000E+00  0.00000000E+00
  0.00000000E+00  0.00000000E+00  0.00000000E+00
  0.00000000E+00  0.00000000E+00  0.00000000E+00
  0.00000000E+00  0.00000000E+00  0.00000000E+00
  0.00000000E+00  0.00000000E+00  0.00000000E+00
  0.00000000E+00  0.00000000E+00  0.00000000E+00
  0.00000000E+00  0.00000000E+00  0.00000000E+00
  0.00000000E+00  0.00000000E+00  0.00000000E+00
  0.00000000E+00  0.00000000E+00  0.00000000E+00
  0.00000000E+00  0.00000000E+00  0.00000000E+00
  0.00000000E+00  0.00000000E+00  0.00000000E+00
  0.00000000E+00  0.00000000E+00  0.00000000E+00
  0.00000000E+00  0.00000000E+00  0.00000000E+00
  0.00000000E+00  0.00000000E+00  0.00000000E+00
  0.00000000E+00  0.00000000E+00  0.00000000E+00
  0.00000000E+00  0.00000000E+00  0.00000000E+00
  0.00000000E+00  0.00000000E+00  0.00000000E+00
  0.00000000E+00  0.00000000E+00  0.00000000E+00
  0.00000000E+00  0.00000000E+00  0.00000000E+00
  0.00000000E+00  0.00000000E+00  0.00000000E+00
  0.00000000E+00  0.00000000E+00  0.00000000E+00
  0.00000000E+00  0.00000000E+00  0.00000000E+00
  0.00000000E+00  0.00000000E+00  0.00000000E+00
  0.00000000E+00  0.00000000E+00  0.00000000E+00
  0.00000000E+00  0.00000000E+00  0.00000000E+00
  0.00000000E+00  0.00000000E+00  0.00000000E+00
  0.00000000E+00  0.00000000E+00  0.00000000E+00
  0.00000000E+00  0.00000000E+00  0.00000000E+00
  0.00000000E+00  0.00000000E+00  0.00000000E+00
  0.00000000E+00  0.00000000E+00  0.00000000E+00
  0.00000000E+00  0.00000000E+00  0.00000000E+00
  0.00000000E+00  0.00000000E+00  0.00000000E+00
  0.00000000E+00  0.00000000E+00  0.00000000E+00
  0.00000000E+00  0.00000000E+00  0.00000000E+00
  0.00000000E+00  0.00000000E+00  0.00000000E+00
  0.00000000E+00  0.00000000E+00  0.00000000E+00
  0.00000000E+00  0.00000000E+00  0.00000000E+00
  0.00000000E+00  0.00000000E+00  0.00000000E+00
  0.00000000E+00  0.00000000E+00  0.00000000E+00
  0.00000000E+00  0.00000000E+00  0.00000000E+00
  0.00000000E+00  0.00000000E+00  0.00000000E+00
  0.00000000E+00  0.00000000E+00  0.00000000E+00
  0.00000000E+00  0.00000000E+00  0.00000000E+00
  0.00000000E+00  0.00000000E+00  0.00000000E+00
  0.00000000E+00  0.00000000E+00  0.00000000E+00
  0.00000000E+00  0.00000000E+00  0.00000000E+00
  0.00000000E+00  0.00000000E+00  0.00000000E+00
  0.00000000E+00  0.00000000E+00  0.00000000E+00
  0.00000000E+00  0.00000000E+00  0.00000000E+00
  0.00000000E+00  0.00000000E+00  0.00000000E+00
  0.00000000E+00  0.00000000E+00  0.00000000E+00
  0.00000000E+00  0.00000000E+00  0.00000000E+00
  0.00000000E+00  0.00000000E+00  0.00000000E+00
  0.00000000E+00  0.00000000E+00  0.00000000E+00
  0.00000000E+00  0.00000000E+00  0.00000000E+00
  0.00000000E+00  0.00000000E+00  0.00000000E+00
  0.00000000E+00  0.00000000E+00  0.00000000E+00
  0.00000000E+00  0.00000000E+00  0.00000000E+00
  0.00000000E+00  0.00000000E+00  0.00000000E+00
  0.00000000E+00  0.00000000E+00  0.00000000E+00
  0.00000000E+00  0.00000000E+00  0.00000000E+00
  0.00000000E+00  0.00000000E+00  0.00000000E+00
  0.00000000E+00  0.00000000E+00  0.00000000E+00
  0.00000000E+00  0.00000000E+00  0.00000000E+00
  0.00000000E+00  0.00000000E+00  0.00000000E+00
  0.00000000E+00  0.00000000E+00  0.00000000E+00
  0.00000000E+00  0.00000000E+00  0.00000000E+00
  0.00000000E+00  0.00000000E+00  0.00000000E+00
  0.00000000E+00  0.00000000E+00  0.00000000E+00
  0.00000000E+00  0.00000000E+00  0.00000000E+00
  0.00000000E+00  0.00000000E+00  0.00000000E+00
  0.00000000E+00  0.00000000E+00  0.00000000E+00
  0.00000000E+00  0.00000000E+00  0.00000000E+00
  0.00000000E+00  0.00000000E+00  0.00000000E+00
  0.00000000E+00  0.00000000E+00  0.00000000E+00
  0.00000000E+00  0.00000000E+00  0.00000000E+00
  0.00000000E+00  0.00000000E+00  0.00000000E+00
  0.00000000E+00  0.00000000E+00  0.00000000E+00
  0.00000000E+00  0.00000000E+00  0.00000000E+00
