Nb Ti                                   
    1.000000000000000     
    11.4407787034914836   -0.9424350916064235   -0.0179053401133263
    -6.5213613329979534   11.2591900837775363    0.0217249391085512
    -0.0372759740512222    0.0294246560890818   18.1790962735730091
  Nb              Ti            
    36    92
Direct
     0.6263758640082486    0.5612929057890403    0.4432371749744379
     0.8777933351507200    0.8105347127930811    0.4391069614618054
     0.8742139971198594    0.1825241998702904    0.3101855242394024
     0.8910343644135358    0.3240812209896742    0.6894956034799500
     0.6420063182219168    0.5722649783478247    0.1843377434464501
     0.6087628824126537    0.1812886086920521    0.8116428086891999
     0.1152982173944049    0.9316277773503946    0.0623969695122778
     0.1486389472520336    0.8230913188555532    0.6895172613862675
     0.3670542908597791    0.1805683945917264    0.0663167866804937
     0.3506488191057127    0.4321549505677917    0.8154928968912106
     0.1404957009209465    0.5722021833130858    0.4322117749934412
     0.8727864734116503    0.9361131240512555    0.8071422864350658
     0.8571059730161185    0.4262099187852486    0.3100527896036049
     0.3782125081023787    0.0791314473545336    0.4392583312180820
     0.3853192671638000    0.8166806059125546    0.9403612080944085
     0.6113667317976030    0.6784203422016374    0.5643258729936719
     0.1115063045542394    0.1821467386073558    0.8122125097907217
     0.3774138768626130    0.3102795031756085    0.9391297764915330
     0.1325345894575612    0.8211030373564717    0.4396614634088449
     0.8596841340255265    0.9303873944615890    0.5622063667041053
     0.1189212341809332    0.4339981937024551    0.3122571409021101
     0.1281065260764686    0.0669633902081953    0.9350546561042553
     0.3678665042446213    0.4339602400806271    0.3084816564930622
     0.6129321473828175    0.1792057535612436    0.0652808606140070
     0.1250561147504529    0.1837053239881795    0.3090929783994029
     0.6303338768042551    0.9364232856497308    0.8116014323395913
     0.8644139681365315    0.6869270196369563    0.3136575201306122
     0.8699932295940169    0.0657171095011392    0.4369062387887688
     0.1520355044712464    0.5645781820990234    0.9397692116833091
     0.8614789194499554    0.6732244248254000    0.8137018057482754
     0.1242451155891917    0.3099558004910167    0.4378589620193235
     0.1048463793305138    0.1827900136285900    0.5666536069169693
     0.6357489975910923    0.8213550195386985    0.9383580393014320
     0.8659408752662444    0.1874995686888149    0.8118586104110033
     0.3970911718491317    0.5752916167385130    0.1877277770552740
     0.1443251358024560    0.8155697663477665    0.1884067412949101
     0.8554582401352111    0.1881493450016416    0.5608604753419162
     0.1123829199170142    0.6761001586854903    0.5634302211679635
     0.8542442936894288    0.6656069273087318    0.5640365731665840
     0.3943847541178555    0.3227912029276602    0.1860323450357165
     0.8563086073082602    0.1713844227670661    0.0652376730204026
     0.8901267225282903    0.0737249088152949    0.6843539779823145
     0.1190613905271498    0.0623992900339937    0.4386705736498717
     0.3575094830228699    0.9268241458013827    0.0587550233011641
     0.3516382979292740    0.4329489280494007    0.5631090546407722
     0.8454737237308588    0.4254234272617631    0.5643135294560869
     0.5953640865875210    0.4283287454966757    0.0631043252823937
     0.8644884986845731    0.9346339520655791    0.3158205747984890
     0.1083581815088816    0.9276254263796607    0.3110553043696491
     0.3950286904253230    0.8196632888302052    0.4382833448070388
     0.3968387620792545    0.8323599646510184    0.6792033759443034
     0.8869273380241092    0.3190555917007686    0.9400365907416635
     0.3918981281527621    0.0689630529000968    0.6852987207893865
     0.3548626884285085    0.1770602033370278    0.8079978720598994
     0.6631376969654003    0.0692108590757716    0.1850833364816408
     0.6478004481587578    0.8253987294467986    0.1877464528516363
     0.6529846020484980    0.5659185756542692    0.9370829887295959
     0.8847731005785596    0.8210180588019348    0.9328349533958106
     0.8829615077865143    0.0700289134662034    0.9368988021011381
     0.8835747313838248    0.5635201674187521    0.4343787212137192
     0.3499006221614042    0.4308592499468406    0.0624985306976560
     0.1367741597482996    0.0702606920015973    0.6882933770403923
     0.6273997382650824    0.0683587743338590    0.9375956392837275
     0.4053990688931802    0.5740695598887748    0.9372900348373290
     0.4021634103931883    0.0628020745658590    0.1875364470576331
     0.3506361547651741    0.9297619984603207    0.5555945044286403
     0.1022428197391155    0.6805197022173973    0.3154522526457085
     0.8917762739046041    0.3244451335585017    0.1837670745996350
     0.6346823984478278    0.3177624950946202    0.9375483971972306
     0.6040179333565909    0.9237561716855562    0.0623543725158269
     0.1354335338360391    0.3204829732706841    0.9397263338436558
     0.0976834202812660    0.9177076687894928    0.5671539178033769
     0.8910132317961194    0.5717736936014510    0.1887698168085717
     0.6428770002593579    0.3270112345027245    0.6911999874884489
     0.3755753178942334    0.3128527318129565    0.4362678997011459
     0.3808490173085753    0.5622857499881635    0.4347249725432143
     0.6057043992291282    0.9333732706972834    0.5611175161877935
     0.1419716937510684    0.3269918632565235    0.6869250445955051
     0.9129003660581784    0.5765574740515229    0.6890007823894039
     0.6147860002965335    0.1695772244726335    0.3071715798970135
     0.3349374973411844    0.1677870804387845    0.5663186938855128
     0.1549147302195292    0.0696292978841649    0.1855419312273094
     0.5949458936464629    0.1791518759145818    0.5682169440147570
     0.1104018252721665    0.1779796199816522    0.0624158724036989
     0.6221057697930124    0.6848285706107223    0.8138520142223143
     0.6321851757691567    0.0813369839306159    0.4419454172329250
     0.1178450652960491    0.6788737908511444    0.8130940985267987
     0.3846713132921704    0.0737393294647129    0.9361068635415374
     0.6136331761518152    0.6798477355472623    0.3138272687262861
     0.6416412219804640    0.3217166118789780    0.1884803899760230
     0.3632566125388232    0.6752585000396738    0.5661831208399158
     0.8913870847358240    0.8152805677684865    0.6862833033482119
     0.6477980673086488    0.0757270588455571    0.6879400414908828
     0.8406757449716221    0.4288791702545970    0.0619714788340913
     0.1021461139989977    0.4370885247140266    0.5580212148810009
     0.6152169806480038    0.4396385095557227    0.3131290478225454
     0.1620963755270368    0.5726048905576809    0.6869761779914720
     0.3609129179664155    0.6863582242464050    0.3107890859552376
     0.4110823850807000    0.5676714281937129    0.6910709875328190
     0.1461632098222418    0.3274191539313553    0.1858252340160213
     0.9081996081360841    0.5710059104973200    0.9374476369554878
     0.5923679732509871    0.4312347688847637    0.8113074805785069
     0.3883399190731564    0.3237581845842532    0.6870490196878057
     0.8922892304666984    0.3270662978918004    0.4351016134218179
     0.6545532930918747    0.5657608926516412    0.6831312210883146
     0.3546451388986326    0.9287074918285284    0.3178104667861579
     0.3666662475239172    0.1756144610465298    0.3087775448020301
     0.3779588897998957    0.6940654028460165    0.8102842411249791
     0.1071533381834357    0.9228254659641659    0.8126310780867897
     0.8578826260073635    0.9270744440405559    0.0647250102571658
     0.1060224009155506    0.6724365926612325    0.0620416065496076
     0.8462954727028005    0.4280366307364969    0.8143696577040060
     0.5883009137247551    0.4086875435208234    0.5611856265079578
     0.1419228923770473    0.8220287281377041    0.9402564980881514
     0.6088721466994782    0.6786592102360866    0.0592025733398295
     0.6380459448471510    0.3131114420940271    0.4350335291817836
     0.0942278548789707    0.4281391009268262    0.0654393097759429
     0.6394646003619854    0.8164148077875207    0.4393796396236002
     0.6378514151601843    0.8208062765788232    0.6858695452157552
     0.3713484707465516    0.9295781547960440    0.8125675119930789
     0.8612658157252712    0.6796358096524775    0.0598274596373850
     0.8970144999002981    0.8180960309564768    0.1883614636610368
     0.4040030202196186    0.8334191829940814    0.1882344703990741
     0.1476486124860387    0.5763593081129424    0.1904447318819802
     0.3567907340666741    0.6765374360197464    0.0651679442872082
     0.9142506223412881    0.0747200228204705    0.1864654811328079
     0.6121955752331242    0.9366387524178004    0.3173206620159527
     0.1054446799460505    0.4401494788781254    0.8140051491581007
 
  0.00000000E+00  0.00000000E+00  0.00000000E+00
  0.00000000E+00  0.00000000E+00  0.00000000E+00
  0.00000000E+00  0.00000000E+00  0.00000000E+00
  0.00000000E+00  0.00000000E+00  0.00000000E+00
  0.00000000E+00  0.00000000E+00  0.00000000E+00
  0.00000000E+00  0.00000000E+00  0.00000000E+00
  0.00000000E+00  0.00000000E+00  0.00000000E+00
  0.00000000E+00  0.00000000E+00  0.00000000E+00
  0.00000000E+00  0.00000000E+00  0.00000000E+00
  0.00000000E+00  0.00000000E+00  0.00000000E+00
  0.00000000E+00  0.00000000E+00  0.00000000E+00
  0.00000000E+00  0.00000000E+00  0.00000000E+00
  0.00000000E+00  0.00000000E+00  0.00000000E+00
  0.00000000E+00  0.00000000E+00  0.00000000E+00
  0.00000000E+00  0.00000000E+00  0.00000000E+00
  0.00000000E+00  0.00000000E+00  0.00000000E+00
  0.00000000E+00  0.00000000E+00  0.00000000E+00
  0.00000000E+00  0.00000000E+00  0.00000000E+00
  0.00000000E+00  0.00000000E+00  0.00000000E+00
  0.00000000E+00  0.00000000E+00  0.00000000E+00
  0.00000000E+00  0.00000000E+00  0.00000000E+00
  0.00000000E+00  0.00000000E+00  0.00000000E+00
  0.00000000E+00  0.00000000E+00  0.00000000E+00
  0.00000000E+00  0.00000000E+00  0.00000000E+00
  0.00000000E+00  0.00000000E+00  0.00000000E+00
  0.00000000E+00  0.00000000E+00  0.00000000E+00
  0.00000000E+00  0.00000000E+00  0.00000000E+00
  0.00000000E+00  0.00000000E+00  0.00000000E+00
  0.00000000E+00  0.00000000E+00  0.00000000E+00
  0.00000000E+00  0.00000000E+00  0.00000000E+00
  0.00000000E+00  0.00000000E+00  0.00000000E+00
  0.00000000E+00  0.00000000E+00  0.00000000E+00
  0.00000000E+00  0.00000000E+00  0.00000000E+00
  0.00000000E+00  0.00000000E+00  0.00000000E+00
  0.00000000E+00  0.00000000E+00  0.00000000E+00
  0.00000000E+00  0.00000000E+00  0.00000000E+00
  0.00000000E+00  0.00000000E+00  0.00000000E+00
  0.00000000E+00  0.00000000E+00  0.00000000E+00
  0.00000000E+00  0.00000000E+00  0.00000000E+00
  0.00000000E+00  0.00000000E+00  0.00000000E+00
  0.00000000E+00  0.00000000E+00  0.00000000E+00
  0.00000000E+00  0.00000000E+00  0.00000000E+00
  0.00000000E+00  0.00000000E+00  0.00000000E+00
  0.00000000E+00  0.00000000E+00  0.00000000E+00
  0.00000000E+00  0.00000000E+00  0.00000000E+00
  0.00000000E+00  0.00000000E+00  0.00000000E+00
  0.00000000E+00  0.00000000E+00  0.00000000E+00
  0.00000000E+00  0.00000000E+00  0.00000000E+00
  0.00000000E+00  0.00000000E+00  0.00000000E+00
  0.00000000E+00  0.00000000E+00  0.00000000E+00
  0.00000000E+00  0.00000000E+00  0.00000000E+00
  0.00000000E+00  0.00000000E+00  0.00000000E+00
  0.00000000E+00  0.00000000E+00  0.00000000E+00
  0.00000000E+00  0.00000000E+00  0.00000000E+00
  0.00000000E+00  0.00000000E+00  0.00000000E+00
  0.00000000E+00  0.00000000E+00  0.00000000E+00
  0.00000000E+00  0.00000000E+00  0.00000000E+00
  0.00000000E+00  0.00000000E+00  0.00000000E+00
  0.00000000E+00  0.00000000E+00  0.00000000E+00
  0.00000000E+00  0.00000000E+00  0.00000000E+00
  0.00000000E+00  0.00000000E+00  0.00000000E+00
  0.00000000E+00  0.00000000E+00  0.00000000E+00
  0.00000000E+00  0.00000000E+00  0.00000000E+00
  0.00000000E+00  0.00000000E+00  0.00000000E+00
  0.00000000E+00  0.00000000E+00  0.00000000E+00
  0.00000000E+00  0.00000000E+00  0.00000000E+00
  0.00000000E+00  0.00000000E+00  0.00000000E+00
  0.00000000E+00  0.00000000E+00  0.00000000E+00
  0.00000000E+00  0.00000000E+00  0.00000000E+00
  0.00000000E+00  0.00000000E+00  0.00000000E+00
  0.00000000E+00  0.00000000E+00  0.00000000E+00
  0.00000000E+00  0.00000000E+00  0.00000000E+00
  0.00000000E+00  0.00000000E+00  0.00000000E+00
  0.00000000E+00  0.00000000E+00  0.00000000E+00
  0.00000000E+00  0.00000000E+00  0.00000000E+00
  0.00000000E+00  0.00000000E+00  0.00000000E+00
  0.00000000E+00  0.00000000E+00  0.00000000E+00
  0.00000000E+00  0.00000000E+00  0.00000000E+00
  0.00000000E+00  0.00000000E+00  0.00000000E+00
  0.00000000E+00  0.00000000E+00  0.00000000E+00
  0.00000000E+00  0.00000000E+00  0.00000000E+00
  0.00000000E+00  0.00000000E+00  0.00000000E+00
  0.00000000E+00  0.00000000E+00  0.00000000E+00
  0.00000000E+00  0.00000000E+00  0.00000000E+00
  0.00000000E+00  0.00000000E+00  0.00000000E+00
  0.00000000E+00  0.00000000E+00  0.00000000E+00
  0.00000000E+00  0.00000000E+00  0.00000000E+00
  0.00000000E+00  0.00000000E+00  0.00000000E+00
  0.00000000E+00  0.00000000E+00  0.00000000E+00
  0.00000000E+00  0.00000000E+00  0.00000000E+00
  0.00000000E+00  0.00000000E+00  0.00000000E+00
  0.00000000E+00  0.00000000E+00  0.00000000E+00
  0.00000000E+00  0.00000000E+00  0.00000000E+00
  0.00000000E+00  0.00000000E+00  0.00000000E+00
  0.00000000E+00  0.00000000E+00  0.00000000E+00
  0.00000000E+00  0.00000000E+00  0.00000000E+00
  0.00000000E+00  0.00000000E+00  0.00000000E+00
  0.00000000E+00  0.00000000E+00  0.00000000E+00
  0.00000000E+00  0.00000000E+00  0.00000000E+00
  0.00000000E+00  0.00000000E+00  0.00000000E+00
  0.00000000E+00  0.00000000E+00  0.00000000E+00
  0.00000000E+00  0.00000000E+00  0.00000000E+00
  0.00000000E+00  0.00000000E+00  0.00000000E+00
  0.00000000E+00  0.00000000E+00  0.00000000E+00
  0.00000000E+00  0.00000000E+00  0.00000000E+00
  0.00000000E+00  0.00000000E+00  0.00000000E+00
  0.00000000E+00  0.00000000E+00  0.00000000E+00
  0.00000000E+00  0.00000000E+00  0.00000000E+00
  0.00000000E+00  0.00000000E+00  0.00000000E+00
  0.00000000E+00  0.00000000E+00  0.00000000E+00
  0.00000000E+00  0.00000000E+00  0.00000000E+00
  0.00000000E+00  0.00000000E+00  0.00000000E+00
  0.00000000E+00  0.00000000E+00  0.00000000E+00
  0.00000000E+00  0.00000000E+00  0.00000000E+00
  0.00000000E+00  0.00000000E+00  0.00000000E+00
  0.00000000E+00  0.00000000E+00  0.00000000E+00
  0.00000000E+00  0.00000000E+00  0.00000000E+00
  0.00000000E+00  0.00000000E+00  0.00000000E+00
  0.00000000E+00  0.00000000E+00  0.00000000E+00
  0.00000000E+00  0.00000000E+00  0.00000000E+00
  0.00000000E+00  0.00000000E+00  0.00000000E+00
  0.00000000E+00  0.00000000E+00  0.00000000E+00
  0.00000000E+00  0.00000000E+00  0.00000000E+00
  0.00000000E+00  0.00000000E+00  0.00000000E+00
  0.00000000E+00  0.00000000E+00  0.00000000E+00
  0.00000000E+00  0.00000000E+00  0.00000000E+00
  0.00000000E+00  0.00000000E+00  0.00000000E+00
  0.00000000E+00  0.00000000E+00  0.00000000E+00
