Hf Nb                                   
    1.000000000000000     
    11.6625432020683597    1.0400300713546309    0.0696214839633156
    -4.9657952371646843   10.7083349262459251    0.0744439593862438
    -0.0343057709638324   -0.0633473677573665   19.1085542726440956
  Hf             Nb           
              44              84
Direct
  0.4392896391666852  0.0551528439504983  0.1840713125458443
  0.4346163438451396  0.0615497935930553  0.4386212572257003
  0.4462507482346954  0.5632435926482744  0.6861142226000919
  0.3136743717475928  0.4402269239231218  0.0575566463565431
  0.4219486027900889  0.5519111498969528  0.1932998910928515
  0.8104922609423904  0.4393110660188386  0.5628940671196420
  0.1753635480536378  0.2934894285081565  0.9364966211725586
  0.4440416176369165  0.8081120876487552  0.1998692467396993
  0.6858026802221052  0.8063734801122061  0.6891052274844571
  0.6847941279937453  0.8153564782820620  0.9412325065812122
  0.0791306401742809  0.4452735981560549  0.5672945086453590
  0.3190497308545743  0.1914707570905133  0.8142124664415241
  0.6831142303069907  0.0668954703020760  0.6831150588285718
  0.6925799066739551  0.5611053969884031  0.4402546695318388
  0.4423088806800489  0.3084519281744171  0.1848754501050889
  0.3173511674401024  0.6828064973535141  0.5643267587256565
  0.6908184939367240  0.5622689194384288  0.1853007095812308
  0.8140893857990044  0.1973577847457278  0.8140088319136025
  0.9415072936897748  0.0689352146000817  0.9405124798739328
  0.5624240016914444  0.4358348049937645  0.8144493593426280
  0.8133585560654158  0.1931418594369648  0.3095979391234526
  0.3019485474603281  0.4493801273774303  0.8157013733180166
  0.5710277089233035  0.1893842129731835  0.5686591938512637
  0.0601633349168943  0.4328057328781275  0.3073543157960530
  0.6799471479769402  0.0827641191505140  0.9422846049126721
  0.8122396470974376  0.9330980581862435  0.3098310211209415
  0.4430541065962774  0.3178005808586812  0.4374193737800628
  0.6912328740833310  0.2934152504665467  0.4294388070782661
  0.5575599344632113  0.9333513567294637  0.0646864881959654
  0.4275150691960226  0.5617368781688029  0.4418370636928591
  0.0567481490938318  0.6912493377839531  0.5595559248761067
  0.1820082042427237  0.0662012550573660  0.1829960005050923
  0.0585898290631899  0.1849334050482300  0.5606611322770316
  0.1874698434308271  0.5636536346211463  0.9392138869136877
  0.0611846908906086  0.1829796355304580  0.7975342930642190
  0.1809300613448765  0.3198960003715809  0.1913874093667239
  0.3109353403947798  0.1732311914492017  0.5640211995748186
  0.5606716953608962  0.9339383406977099  0.8159830248507186
  0.4390830468721200  0.8137633622355687  0.4300410963519476
  0.5713476058836819  0.6990245960670955  0.3128996807373418
  0.1845189449414611  0.5637732201529202  0.7011726252745889
  0.8320817876867314  0.9349401510719326  0.8110150276232423
  0.9482061142692551  0.3083933752711434  0.4423685861972456
  0.1820960775281669  0.8116576811489276  0.1847546718893012
  0.6911455448432575  0.3181514429416098  0.6967126092883521
  0.5549695508739594  0.9269432336842424  0.5623426385468397
  0.8084876112664644  0.4492724098256875  0.3074770280845933
  0.9416689494322241  0.5681979245442537  0.1851287221613315
  0.6903712626704068  0.5651077585136742  0.9403861778477066
  0.1801588683155688  0.5672668872808693  0.1797409520487736
  0.4351836617751583  0.8253576191974561  0.6876834801878046
  0.0571892760721974  0.9323474069116188  0.0595506994136394
  0.6899820406281461  0.0467138325454813  0.4406892721996204
  0.8242043829100415  0.6860337222875217  0.3120476790206717
  0.0416249981392783  0.4313806975029817  0.8170206030086319
  0.5683883588439101  0.4406714113416068  0.0582974766483838
  0.8105072464291473  0.4429029483335011  0.0626608451527571
  0.0545474172684387  0.4374981800142889  0.0640759730617085
  0.6936165097773294  0.0623925375714894  0.1868930241188491
  0.8177374182370714  0.9396163225495244  0.0656239398037480
  0.9299291828865726  0.0457842016280099  0.6801988677211483
  0.8118153564708271  0.1860329252902466  0.5596611007152273
  0.3074792888908091  0.9348662518753180  0.8132341638909417
  0.9409708825161361  0.8094723782960717  0.9339639210542469
  0.3128207885948941  0.4242239399136837  0.3195215653729829
  0.5650400960414761  0.1943444944940622  0.0596035676026779
  0.8097055005717934  0.6963330900170036  0.5680321167534279
  0.9429157258455524  0.8088791692673737  0.6875939717590752
  0.9343309942959347  0.3256862343056243  0.9432933508692385
  0.3117205200313707  0.6967320457498288  0.0659001878592489
  0.0672681830144276  0.9388338413462742  0.5614929360805839
  0.6956355901292548  0.8150858471450860  0.4440749792697832
  0.0642700684900161  0.6878650051914035  0.8130341881140301
  0.4300928831454876  0.0628935053285089  0.9380059276921838
  0.9400474732046568  0.8094622098672325  0.4377679455538439
  0.1900139119479402  0.8175147348832730  0.6868401431545470
  0.5630951496768888  0.4397039290939602  0.3117656256099073
  0.9315851369434788  0.8136279457730973  0.1857676193575750
  0.9341829725839466  0.5671671325502337  0.9384430937309308
  0.5672920612225060  0.9651239365678778  0.3142452982551567
  0.1850532001684799  0.8165221286910372  0.4347198090932242
  0.3101982016242580  0.9325283441503928  0.3138959957655803
  0.1825605331317614  0.0574044869970268  0.6887323877114419
  0.6965386199955310  0.8192431569220894  0.1779091390630226
  0.2021813493105425  0.3164935696023435  0.6815977074160711
  0.4520430110512684  0.5732974333412824  0.9376654158835301
  0.3066186672268696  0.1800306455010476  0.3140351144591383
  0.8177863656263996  0.9401698083243920  0.5612406808940752
  0.1847830903019511  0.8135747263088734  0.9383751764709394
  0.9441915046244140  0.5640807491723875  0.4282054442299316
  0.5570346200473759  0.4410362870711751  0.5700235269337627
  0.6977321837167910  0.5581906683742995  0.6865916409949449
  0.6862439852834379  0.3241238129542904  0.9387115374636287
  0.0593205286682356  0.6896125370780434  0.3123594540239480
  0.6920403468341846  0.3090184743025915  0.1858319196158939
  0.3244320719867332  0.7055264516480734  0.8152105244203085
  0.1799021003617227  0.5667484666817409  0.4341562526541007
  0.9355953317152507  0.5623290497841260  0.6902366998315050
  0.9283692882108933  0.3138301467419323  0.1784221722662190
  0.4384811130378992  0.3175378812731824  0.9437766262420149
  0.4228072244067837  0.8047668030721016  0.9400955280057345
  0.8128312586929255  0.1912673060031566  0.0640751898149159
  0.0568270223211874  0.6869078843201784  0.0582825815530024
  0.1927586430022261  0.3123307938487959  0.4343801472217338
  0.4294323116328368  0.0613796430907148  0.6929645584854311
  0.5624862078846933  0.1854748208801158  0.8193243197048655
  0.3048622687818374  0.9263077075639146  0.5645828507537040
  0.3038414059489773  0.9402768103045597  0.0566615210716219
  0.3140645594850956  0.1851810851016538  0.0560837116973882
  0.0644511235272532  0.9314712354083885  0.3114428814152575
  0.0648370264771596  0.1858313345194836  0.0666174247675841
  0.9430035378837531  0.0534230061225464  0.4347267488023238
  0.2954415769812253  0.6727864045277404  0.3125393056971246
  0.8178412327539677  0.4483409698126622  0.8142452392304443
  0.8132856430188016  0.6924086002680883  0.0579565384003128
  0.9342974451483355  0.3122044305571297  0.6852397182627807
  0.1821294738364425  0.0576429752670323  0.4346928113901318
  0.4470750602622403  0.3056863845534034  0.6859347351460957
  0.8113573373201940  0.6819756659735392  0.8123272447539398
  0.9346449560743261  0.0664077684539376  0.1840321394598018
  0.0625716046240388  0.1701346157778509  0.3128928577181760
  0.5630545681789327  0.6810068745235597  0.0652177007355550
  0.3164874798224001  0.4217376574290345  0.5621828709491280
  0.0724596401597751  0.9314834957578124  0.8108832635279205
  0.5567843669334026  0.6814402472739924  0.8186414318863224
  0.5745607008356448  0.6916232778121206  0.5595695924319362
  0.5523161251367013  0.1971443786484650  0.3065181113500274
  0.1898240802961916  0.0529321134198059  0.9393940270436550
 
  0.00000000E+00  0.00000000E+00  0.00000000E+00
  0.00000000E+00  0.00000000E+00  0.00000000E+00
  0.00000000E+00  0.00000000E+00  0.00000000E+00
  0.00000000E+00  0.00000000E+00  0.00000000E+00
  0.00000000E+00  0.00000000E+00  0.00000000E+00
  0.00000000E+00  0.00000000E+00  0.00000000E+00
  0.00000000E+00  0.00000000E+00  0.00000000E+00
  0.00000000E+00  0.00000000E+00  0.00000000E+00
  0.00000000E+00  0.00000000E+00  0.00000000E+00
  0.00000000E+00  0.00000000E+00  0.00000000E+00
  0.00000000E+00  0.00000000E+00  0.00000000E+00
  0.00000000E+00  0.00000000E+00  0.00000000E+00
  0.00000000E+00  0.00000000E+00  0.00000000E+00
  0.00000000E+00  0.00000000E+00  0.00000000E+00
  0.00000000E+00  0.00000000E+00  0.00000000E+00
  0.00000000E+00  0.00000000E+00  0.00000000E+00
  0.00000000E+00  0.00000000E+00  0.00000000E+00
  0.00000000E+00  0.00000000E+00  0.00000000E+00
  0.00000000E+00  0.00000000E+00  0.00000000E+00
  0.00000000E+00  0.00000000E+00  0.00000000E+00
  0.00000000E+00  0.00000000E+00  0.00000000E+00
  0.00000000E+00  0.00000000E+00  0.00000000E+00
  0.00000000E+00  0.00000000E+00  0.00000000E+00
  0.00000000E+00  0.00000000E+00  0.00000000E+00
  0.00000000E+00  0.00000000E+00  0.00000000E+00
  0.00000000E+00  0.00000000E+00  0.00000000E+00
  0.00000000E+00  0.00000000E+00  0.00000000E+00
  0.00000000E+00  0.00000000E+00  0.00000000E+00
  0.00000000E+00  0.00000000E+00  0.00000000E+00
  0.00000000E+00  0.00000000E+00  0.00000000E+00
  0.00000000E+00  0.00000000E+00  0.00000000E+00
  0.00000000E+00  0.00000000E+00  0.00000000E+00
  0.00000000E+00  0.00000000E+00  0.00000000E+00
  0.00000000E+00  0.00000000E+00  0.00000000E+00
  0.00000000E+00  0.00000000E+00  0.00000000E+00
  0.00000000E+00  0.00000000E+00  0.00000000E+00
  0.00000000E+00  0.00000000E+00  0.00000000E+00
  0.00000000E+00  0.00000000E+00  0.00000000E+00
  0.00000000E+00  0.00000000E+00  0.00000000E+00
  0.00000000E+00  0.00000000E+00  0.00000000E+00
  0.00000000E+00  0.00000000E+00  0.00000000E+00
  0.00000000E+00  0.00000000E+00  0.00000000E+00
  0.00000000E+00  0.00000000E+00  0.00000000E+00
  0.00000000E+00  0.00000000E+00  0.00000000E+00
  0.00000000E+00  0.00000000E+00  0.00000000E+00
  0.00000000E+00  0.00000000E+00  0.00000000E+00
  0.00000000E+00  0.00000000E+00  0.00000000E+00
  0.00000000E+00  0.00000000E+00  0.00000000E+00
  0.00000000E+00  0.00000000E+00  0.00000000E+00
  0.00000000E+00  0.00000000E+00  0.00000000E+00
  0.00000000E+00  0.00000000E+00  0.00000000E+00
  0.00000000E+00  0.00000000E+00  0.00000000E+00
  0.00000000E+00  0.00000000E+00  0.00000000E+00
  0.00000000E+00  0.00000000E+00  0.00000000E+00
  0.00000000E+00  0.00000000E+00  0.00000000E+00
  0.00000000E+00  0.00000000E+00  0.00000000E+00
  0.00000000E+00  0.00000000E+00  0.00000000E+00
  0.00000000E+00  0.00000000E+00  0.00000000E+00
  0.00000000E+00  0.00000000E+00  0.00000000E+00
  0.00000000E+00  0.00000000E+00  0.00000000E+00
  0.00000000E+00  0.00000000E+00  0.00000000E+00
  0.00000000E+00  0.00000000E+00  0.00000000E+00
  0.00000000E+00  0.00000000E+00  0.00000000E+00
  0.00000000E+00  0.00000000E+00  0.00000000E+00
  0.00000000E+00  0.00000000E+00  0.00000000E+00
  0.00000000E+00  0.00000000E+00  0.00000000E+00
  0.00000000E+00  0.00000000E+00  0.00000000E+00
  0.00000000E+00  0.00000000E+00  0.00000000E+00
  0.00000000E+00  0.00000000E+00  0.00000000E+00
  0.00000000E+00  0.00000000E+00  0.00000000E+00
  0.00000000E+00  0.00000000E+00  0.00000000E+00
  0.00000000E+00  0.00000000E+00  0.00000000E+00
  0.00000000E+00  0.00000000E+00  0.00000000E+00
  0.00000000E+00  0.00000000E+00  0.00000000E+00
  0.00000000E+00  0.00000000E+00  0.00000000E+00
  0.00000000E+00  0.00000000E+00  0.00000000E+00
  0.00000000E+00  0.00000000E+00  0.00000000E+00
  0.00000000E+00  0.00000000E+00  0.00000000E+00
  0.00000000E+00  0.00000000E+00  0.00000000E+00
  0.00000000E+00  0.00000000E+00  0.00000000E+00
  0.00000000E+00  0.00000000E+00  0.00000000E+00
  0.00000000E+00  0.00000000E+00  0.00000000E+00
  0.00000000E+00  0.00000000E+00  0.00000000E+00
  0.00000000E+00  0.00000000E+00  0.00000000E+00
  0.00000000E+00  0.00000000E+00  0.00000000E+00
  0.00000000E+00  0.00000000E+00  0.00000000E+00
  0.00000000E+00  0.00000000E+00  0.00000000E+00
  0.00000000E+00  0.00000000E+00  0.00000000E+00
  0.00000000E+00  0.00000000E+00  0.00000000E+00
  0.00000000E+00  0.00000000E+00  0.00000000E+00
  0.00000000E+00  0.00000000E+00  0.00000000E+00
  0.00000000E+00  0.00000000E+00  0.00000000E+00
  0.00000000E+00  0.00000000E+00  0.00000000E+00
  0.00000000E+00  0.00000000E+00  0.00000000E+00
  0.00000000E+00  0.00000000E+00  0.00000000E+00
  0.00000000E+00  0.00000000E+00  0.00000000E+00
  0.00000000E+00  0.00000000E+00  0.00000000E+00
  0.00000000E+00  0.00000000E+00  0.00000000E+00
  0.00000000E+00  0.00000000E+00  0.00000000E+00
  0.00000000E+00  0.00000000E+00  0.00000000E+00
  0.00000000E+00  0.00000000E+00  0.00000000E+00
  0.00000000E+00  0.00000000E+00  0.00000000E+00
  0.00000000E+00  0.00000000E+00  0.00000000E+00
  0.00000000E+00  0.00000000E+00  0.00000000E+00
  0.00000000E+00  0.00000000E+00  0.00000000E+00
  0.00000000E+00  0.00000000E+00  0.00000000E+00
  0.00000000E+00  0.00000000E+00  0.00000000E+00
  0.00000000E+00  0.00000000E+00  0.00000000E+00
  0.00000000E+00  0.00000000E+00  0.00000000E+00
  0.00000000E+00  0.00000000E+00  0.00000000E+00
  0.00000000E+00  0.00000000E+00  0.00000000E+00
  0.00000000E+00  0.00000000E+00  0.00000000E+00
  0.00000000E+00  0.00000000E+00  0.00000000E+00
  0.00000000E+00  0.00000000E+00  0.00000000E+00
  0.00000000E+00  0.00000000E+00  0.00000000E+00
  0.00000000E+00  0.00000000E+00  0.00000000E+00
  0.00000000E+00  0.00000000E+00  0.00000000E+00
  0.00000000E+00  0.00000000E+00  0.00000000E+00
  0.00000000E+00  0.00000000E+00  0.00000000E+00
  0.00000000E+00  0.00000000E+00  0.00000000E+00
  0.00000000E+00  0.00000000E+00  0.00000000E+00
  0.00000000E+00  0.00000000E+00  0.00000000E+00
  0.00000000E+00  0.00000000E+00  0.00000000E+00
  0.00000000E+00  0.00000000E+00  0.00000000E+00
  0.00000000E+00  0.00000000E+00  0.00000000E+00
  0.00000000E+00  0.00000000E+00  0.00000000E+00
  0.00000000E+00  0.00000000E+00  0.00000000E+00
  0.00000000E+00  0.00000000E+00  0.00000000E+00
