Hf Ti                                   
    1.000000000000000     
    12.6657356483731629   -0.0009904553243295   -0.0009146342820701
    -6.3337220395810840   10.9655827700835466    0.0003620608132153
    -0.0014457302699535   -0.0001783794318917   19.9908522059023461
  Hf              Ti            
   108    20
Direct
     0.1653646060608057    0.3346085918435755    0.4361885344770041
     0.3308887754608632    0.9142246824091369    0.5642133869694556
     0.9194930000131418    0.5867522281628621    0.6876284732298239
     0.5827591771108237    0.4140987216806686    0.5631385792677782
     0.0860085938673652    0.9164945479034451    0.0628963715794095
     0.9126350314991559    0.0803585550021167    0.6899860413654194
     0.6682248526267133    0.8340137808897556    0.6918510709508087
     0.8296650326581644    0.6683385535995201    0.8140906243352345
     0.6646626434730920    0.5837566693393772    0.9373251886492815
     0.9173548634566042    0.8377028551891573    0.9372451125275536
     0.4156970498861637    0.3338865689168909    0.6893423693013000
     0.8292829541943573    0.1671665077261157    0.5643014210155471
     0.6636069526841283    0.8323793131274954    0.1863584077306111
     0.6646741104895155    0.0830258162433988    0.1868993344545332
     0.5806230974243670    0.9155786863950799    0.3107597431004814
     0.6646798766778546    0.3277110702091405    0.6885404839549408
     0.1683455940755883    0.5868977395834050    0.9389421962518371
     0.3301859028992097    0.6707820080815677    0.0636310962544684
     0.9218029532648252    0.3395158734457144    0.1867230777217175
     0.0857267911564205    0.9171956170431599    0.8130906503519088
     0.8315782200046876    0.4156552626873131    0.8133823909540622
     0.0804039936292942    0.1627276029681175    0.8142327895979429
     0.9177703988346878    0.5821911138299565    0.9392541329111004
     0.6668972531798335    0.5830307342860459    0.6889655414744803
     0.0838654247545256    0.9129123640972026    0.5636192121339982
     0.4167988911607172    0.0839704622691164    0.4374934358989939
     0.1688280634468769    0.3342209567449511    0.6900887976181523
     0.8297822826994490    0.1621580099389107    0.8137115130267130
     0.0831190004968999    0.1665217101012526    0.5637580989349859
     0.5780232808293033    0.4160404452556690    0.8146256733180618
     0.6653382240354985    0.0842622371470799    0.4382648795282895
     0.1719599996963235    0.0874097342638475    0.1862965422927453
     0.9184647068027555    0.5843327838985991    0.4382600387570032
     0.1684091203789160    0.0806392403044758    0.6880396569279770
     0.0857930715484921    0.1712970647821825    0.3101151974021553
     0.0815220062027585    0.4174160792969602    0.5629143826748239
     0.1685695092111772    0.0840059877896855    0.4362276059682430
     0.8347726546978497    0.4162948112762104    0.5634475535823038
     0.0855097731192530    0.4211990292315681    0.0642648761433994
     0.5840818075659998    0.6674861466187422    0.0614959373936086
     0.4123665265536363    0.5825186216064210    0.1853981666618733
     0.3345521536812255    0.9153568790469312    0.0615927597507735
     0.1666451171154820    0.8305038320460743    0.9392690016912822
     0.9172665703295025    0.8342700779227278    0.6898428099180289
     0.6668639192261020    0.5828355489701447    0.4373704821025118
     0.8346842470981697    0.6669064938462042    0.5628839560437243
     0.1655949541315218    0.8241008103864148    0.1850981105459519
     0.1647158687873403    0.5822440774718356    0.4364488092317869
     0.0861451417078453    0.9180528197924217    0.3106078288538615
     0.8350269628179608    0.1683290045823796    0.3110707240409818
     0.5820577775100172    0.1685189011587549    0.3118484203249176
     0.3332381476862274    0.4170185863594506    0.5633040730310854
     0.3355256875034864    0.1719550003713961    0.8148403098993395
     0.1694644681174997    0.0853434997125774    0.9396104976297672
     0.4143335545709234    0.0836808893886074    0.1859756157387356
     0.3310346898177138    0.4124018600243776    0.0616154202390222
     0.9185945401881637    0.0864864257728428    0.1860328222366351
     0.8331532931542210    0.1675903171342631    0.0613761894901515
     0.8353791765753870    0.4188846380566259    0.3107500536193255
     0.8353575041663109    0.6651156324890196    0.3098578865237805
     0.6664195121464074    0.8342174040232000    0.9338087574264872
     0.3361886675161844    0.1668316087820711    0.5629177319872646
     0.3335098836629216    0.9164459816917950    0.8142288911861697
     0.0830736684428942    0.1691997111835014    0.0621634086879097
     0.4149168668449645    0.8333352296508109    0.6889555617358498
     0.4134888574447114    0.3288640179765158    0.1860947535069732
     0.6670186666272919    0.3319597161029130    0.9369936764124349
     0.8339214487226398    0.9171586299178041    0.3108057804022196
     0.9166115613912581    0.0833697334466060    0.4375319009065483
     0.4204385290414580    0.0828878046971908    0.6889842435507961
     0.3328514218384415    0.9166170620317710    0.3102652963172401
     0.0862616535416027    0.4185047193210693    0.8134799706954716
     0.4174362702556967    0.5827838017914355    0.6914121543631403
     0.5822609512852744    0.6654773326277420    0.3113535142678142
     0.4160245675946432    0.5830869661899347    0.4365459583418151
     0.5823876208173563    0.6674018377451534    0.5641810629690626
     0.8329658185922530    0.9163399488522095    0.5640261307006981
     0.5856369116112604    0.1695905579008578    0.0618811749051578
     0.5808218920415867    0.4138156216683350    0.0604783553012200
     0.4148407182613441    0.3313933000247269    0.4354241397254808
     0.6661933518483120    0.8342017249323057    0.4379957883006842
     0.6727533432693399    0.3381894694558851    0.1851705671741919
     0.4192428820746687    0.0875729769119016    0.9378121832966356
     0.3297122703227037    0.6656593058178046    0.3085977132818573
     0.6630610924063577    0.0810129981075235    0.9363249932285143
     0.9189478885952979    0.3342960329340922    0.4355431566073397
     0.9173223542561946    0.3327319446575469    0.9385936910192029
     0.5786784849752666    0.9143140310028114    0.0618004340880464
     0.9168477804720848    0.8337069635604514    0.4366769572360486
     0.1680893812147780    0.3332443949556994    0.9367213061272487
     0.8370051270578757    0.6630671197093649    0.0633759231862045
     0.5818477594280266    0.4143154376986554    0.3115044667270541
     0.6663477800464712    0.3313105766475639    0.4389222279072915
     0.6658516403676860    0.5812508054685890    0.1861824426515264
     0.1667701216300404    0.5871887845988200    0.6873388518133121
     0.3325193670258370    0.6669641744304667    0.5627345041741090
     0.5836202385126408    0.9209217080292137    0.5653462492273842
     0.0845068659660537    0.6696654502899226    0.8123303804799656
     0.1658880595884527    0.8305329622917877    0.4378162435830047
     0.4164888783585514    0.8331049529253992    0.4365881396287623
     0.9156969431420491    0.3319636481776582    0.6894814691215143
     0.3371344260879884    0.6679116299251042    0.8148438753214292
     0.5811666216043144    0.9188047655416857    0.8120774069248191
     0.3287760294305657    0.4146834957672779    0.3095300375095853
     0.8335254865516353    0.9188205226400031    0.0607359677598200
     0.9182898850395728    0.8327676118068190    0.1859140485407320
     0.4186982199956688    0.5823596273958062    0.9364951141559649
     0.0809294056592995    0.6608410867208899    0.3095407085443757
     0.0785451099943308    0.6588679314128254    0.0647282056036825
     0.8350487789087246    0.9184396310858088    0.8144907900388370
     0.0853531995604087    0.6692197356561832    0.5637176003851005
     0.3326185525133125    0.1654736049528651    0.3111409582710501
     0.5835612255329014    0.1638624756991713    0.5650132709208732
     0.1641968536031818    0.5811201576060162    0.1869331085795803
     0.4144753123432177    0.8334132665387554    0.1863312538372001
     0.9152943190511628    0.0814583002787843    0.9365906392764204
     0.9204451101063678    0.5805867204653730    0.1843154483926654
     0.3367524695180938    0.4159982027332501    0.8151945480348007
     0.4135859656838238    0.3319186471599988    0.9384859968719539
     0.8372066201717852    0.4204263852113222    0.0627491467913415
     0.3349420711939707    0.1684226487363331    0.0613075163206481
     0.5845164933603126    0.1658922135342683    0.8116921892261544
     0.5842286235733164    0.6649174080469141    0.8131134712984310
     0.4182348877555524    0.8335158409479730    0.9378467254557225
     0.6642711489084996    0.0864185251299068    0.6889084200516785
     0.1654289464675243    0.3388158409194942    0.1871646558055705
     0.0866259664313480    0.4177413820462131    0.3089915151444625
     0.1665121787011735    0.8324326620930094    0.6873528710857520
 
  0.00000000E+00  0.00000000E+00  0.00000000E+00
  0.00000000E+00  0.00000000E+00  0.00000000E+00
  0.00000000E+00  0.00000000E+00  0.00000000E+00
  0.00000000E+00  0.00000000E+00  0.00000000E+00
  0.00000000E+00  0.00000000E+00  0.00000000E+00
  0.00000000E+00  0.00000000E+00  0.00000000E+00
  0.00000000E+00  0.00000000E+00  0.00000000E+00
  0.00000000E+00  0.00000000E+00  0.00000000E+00
  0.00000000E+00  0.00000000E+00  0.00000000E+00
  0.00000000E+00  0.00000000E+00  0.00000000E+00
  0.00000000E+00  0.00000000E+00  0.00000000E+00
  0.00000000E+00  0.00000000E+00  0.00000000E+00
  0.00000000E+00  0.00000000E+00  0.00000000E+00
  0.00000000E+00  0.00000000E+00  0.00000000E+00
  0.00000000E+00  0.00000000E+00  0.00000000E+00
  0.00000000E+00  0.00000000E+00  0.00000000E+00
  0.00000000E+00  0.00000000E+00  0.00000000E+00
  0.00000000E+00  0.00000000E+00  0.00000000E+00
  0.00000000E+00  0.00000000E+00  0.00000000E+00
  0.00000000E+00  0.00000000E+00  0.00000000E+00
  0.00000000E+00  0.00000000E+00  0.00000000E+00
  0.00000000E+00  0.00000000E+00  0.00000000E+00
  0.00000000E+00  0.00000000E+00  0.00000000E+00
  0.00000000E+00  0.00000000E+00  0.00000000E+00
  0.00000000E+00  0.00000000E+00  0.00000000E+00
  0.00000000E+00  0.00000000E+00  0.00000000E+00
  0.00000000E+00  0.00000000E+00  0.00000000E+00
  0.00000000E+00  0.00000000E+00  0.00000000E+00
  0.00000000E+00  0.00000000E+00  0.00000000E+00
  0.00000000E+00  0.00000000E+00  0.00000000E+00
  0.00000000E+00  0.00000000E+00  0.00000000E+00
  0.00000000E+00  0.00000000E+00  0.00000000E+00
  0.00000000E+00  0.00000000E+00  0.00000000E+00
  0.00000000E+00  0.00000000E+00  0.00000000E+00
  0.00000000E+00  0.00000000E+00  0.00000000E+00
  0.00000000E+00  0.00000000E+00  0.00000000E+00
  0.00000000E+00  0.00000000E+00  0.00000000E+00
  0.00000000E+00  0.00000000E+00  0.00000000E+00
  0.00000000E+00  0.00000000E+00  0.00000000E+00
  0.00000000E+00  0.00000000E+00  0.00000000E+00
  0.00000000E+00  0.00000000E+00  0.00000000E+00
  0.00000000E+00  0.00000000E+00  0.00000000E+00
  0.00000000E+00  0.00000000E+00  0.00000000E+00
  0.00000000E+00  0.00000000E+00  0.00000000E+00
  0.00000000E+00  0.00000000E+00  0.00000000E+00
  0.00000000E+00  0.00000000E+00  0.00000000E+00
  0.00000000E+00  0.00000000E+00  0.00000000E+00
  0.00000000E+00  0.00000000E+00  0.00000000E+00
  0.00000000E+00  0.00000000E+00  0.00000000E+00
  0.00000000E+00  0.00000000E+00  0.00000000E+00
  0.00000000E+00  0.00000000E+00  0.00000000E+00
  0.00000000E+00  0.00000000E+00  0.00000000E+00
  0.00000000E+00  0.00000000E+00  0.00000000E+00
  0.00000000E+00  0.00000000E+00  0.00000000E+00
  0.00000000E+00  0.00000000E+00  0.00000000E+00
  0.00000000E+00  0.00000000E+00  0.00000000E+00
  0.00000000E+00  0.00000000E+00  0.00000000E+00
  0.00000000E+00  0.00000000E+00  0.00000000E+00
  0.00000000E+00  0.00000000E+00  0.00000000E+00
  0.00000000E+00  0.00000000E+00  0.00000000E+00
  0.00000000E+00  0.00000000E+00  0.00000000E+00
  0.00000000E+00  0.00000000E+00  0.00000000E+00
  0.00000000E+00  0.00000000E+00  0.00000000E+00
  0.00000000E+00  0.00000000E+00  0.00000000E+00
  0.00000000E+00  0.00000000E+00  0.00000000E+00
  0.00000000E+00  0.00000000E+00  0.00000000E+00
  0.00000000E+00  0.00000000E+00  0.00000000E+00
  0.00000000E+00  0.00000000E+00  0.00000000E+00
  0.00000000E+00  0.00000000E+00  0.00000000E+00
  0.00000000E+00  0.00000000E+00  0.00000000E+00
  0.00000000E+00  0.00000000E+00  0.00000000E+00
  0.00000000E+00  0.00000000E+00  0.00000000E+00
  0.00000000E+00  0.00000000E+00  0.00000000E+00
  0.00000000E+00  0.00000000E+00  0.00000000E+00
  0.00000000E+00  0.00000000E+00  0.00000000E+00
  0.00000000E+00  0.00000000E+00  0.00000000E+00
  0.00000000E+00  0.00000000E+00  0.00000000E+00
  0.00000000E+00  0.00000000E+00  0.00000000E+00
  0.00000000E+00  0.00000000E+00  0.00000000E+00
  0.00000000E+00  0.00000000E+00  0.00000000E+00
  0.00000000E+00  0.00000000E+00  0.00000000E+00
  0.00000000E+00  0.00000000E+00  0.00000000E+00
  0.00000000E+00  0.00000000E+00  0.00000000E+00
  0.00000000E+00  0.00000000E+00  0.00000000E+00
  0.00000000E+00  0.00000000E+00  0.00000000E+00
  0.00000000E+00  0.00000000E+00  0.00000000E+00
  0.00000000E+00  0.00000000E+00  0.00000000E+00
  0.00000000E+00  0.00000000E+00  0.00000000E+00
  0.00000000E+00  0.00000000E+00  0.00000000E+00
  0.00000000E+00  0.00000000E+00  0.00000000E+00
  0.00000000E+00  0.00000000E+00  0.00000000E+00
  0.00000000E+00  0.00000000E+00  0.00000000E+00
  0.00000000E+00  0.00000000E+00  0.00000000E+00
  0.00000000E+00  0.00000000E+00  0.00000000E+00
  0.00000000E+00  0.00000000E+00  0.00000000E+00
  0.00000000E+00  0.00000000E+00  0.00000000E+00
  0.00000000E+00  0.00000000E+00  0.00000000E+00
  0.00000000E+00  0.00000000E+00  0.00000000E+00
  0.00000000E+00  0.00000000E+00  0.00000000E+00
  0.00000000E+00  0.00000000E+00  0.00000000E+00
  0.00000000E+00  0.00000000E+00  0.00000000E+00
  0.00000000E+00  0.00000000E+00  0.00000000E+00
  0.00000000E+00  0.00000000E+00  0.00000000E+00
  0.00000000E+00  0.00000000E+00  0.00000000E+00
  0.00000000E+00  0.00000000E+00  0.00000000E+00
  0.00000000E+00  0.00000000E+00  0.00000000E+00
  0.00000000E+00  0.00000000E+00  0.00000000E+00
  0.00000000E+00  0.00000000E+00  0.00000000E+00
  0.00000000E+00  0.00000000E+00  0.00000000E+00
  0.00000000E+00  0.00000000E+00  0.00000000E+00
  0.00000000E+00  0.00000000E+00  0.00000000E+00
  0.00000000E+00  0.00000000E+00  0.00000000E+00
  0.00000000E+00  0.00000000E+00  0.00000000E+00
  0.00000000E+00  0.00000000E+00  0.00000000E+00
  0.00000000E+00  0.00000000E+00  0.00000000E+00
  0.00000000E+00  0.00000000E+00  0.00000000E+00
  0.00000000E+00  0.00000000E+00  0.00000000E+00
  0.00000000E+00  0.00000000E+00  0.00000000E+00
  0.00000000E+00  0.00000000E+00  0.00000000E+00
  0.00000000E+00  0.00000000E+00  0.00000000E+00
  0.00000000E+00  0.00000000E+00  0.00000000E+00
  0.00000000E+00  0.00000000E+00  0.00000000E+00
  0.00000000E+00  0.00000000E+00  0.00000000E+00
  0.00000000E+00  0.00000000E+00  0.00000000E+00
  0.00000000E+00  0.00000000E+00  0.00000000E+00
  0.00000000E+00  0.00000000E+00  0.00000000E+00
  0.00000000E+00  0.00000000E+00  0.00000000E+00
  0.00000000E+00  0.00000000E+00  0.00000000E+00
