Hf Ti                                   
    1.000000000000000     
    11.8140284548655128    0.0074587295256103    0.0013492033892197
    -5.9005559688165219   10.2279824658929659   -0.0017540106474344
     0.0021502252764897   -0.0019820527094868   18.6762651797139014
  Hf              Ti            
     8   120
Direct
     0.1659596531228533    0.0824761548894517    0.6883500237097787
     0.5829773118840297    0.4177917028090785    0.8121762365460706
     0.1668124318614312    0.3342049345829481    0.4370409406525677
     0.4169770405465458    0.0828768655063616    0.4362419522530526
     0.6685036789504438    0.8319224628116193    0.1895136797761680
     0.5804557009312494    0.9174708273433955    0.0615680783506885
     0.9187371264672476    0.3343044337540773    0.9383010918657380
     0.4177640010271023    0.8331403677981509    0.6871931954955518
     0.1672951164669331    0.3318958260722961    0.1879081831952238
     0.4141490700266316    0.5806149409520572    0.1867232714070465
     0.0811188517061136    0.6650238369428294    0.0623571984450781
     0.8349824142206483    0.6709125972780122    0.8120959103927448
     0.9172995559764555    0.5835925622814465    0.4371475530320456
     0.9137794329568752    0.0787082873985569    0.9379469387416590
     0.1707350233231600    0.3359726864885694    0.9383951173296264
     0.1635729087549939    0.5799429159691345    0.6874380196597089
     0.8317910978301405    0.4198826463162250    0.0644640872709858
     0.4204114028697170    0.3378362516567904    0.4364523589459686
     0.1663468687725672    0.0819349703281990    0.9383859755048986
     0.5836360006852078    0.4148458417780264    0.3129347855513609
     0.9205981892698875    0.0854644315896650    0.1869280233849560
     0.6653923110526848    0.3327708857064166    0.9384604142959169
     0.1622318573489569    0.8298640956121766    0.6884632380594857
     0.4152685692650773    0.8295484168348700    0.4383965179098278
     0.5836394457986176    0.4169887417708698    0.0626314009565509
     0.6709769165788615    0.0851986199973639    0.4370122160821812
     0.5873838615937242    0.1703521594064656    0.3115604102246516
     0.3310668033004018    0.9194901355270801    0.8138083855066764
     0.9151415910604319    0.8303367591853641    0.6863161624604797
     0.4158060881704925    0.5791642826412804    0.6882786191560673
     0.5815225427362952    0.6626604481274638    0.3142131725975553
     0.5869171195797017    0.9189811023574802    0.5601623461368073
     0.1628146826553986    0.0803026912414154    0.4371035629224655
     0.4168561442152966    0.0823563202544075    0.1876463396345827
     0.5852370495709348    0.1718589780500545    0.0628703346206906
     0.4139634828695059    0.3327129132623650    0.9401535064908634
     0.3300765914900188    0.6608271544481249    0.5613083425377867
     0.9170578495783456    0.8329780368879025    0.9380537327165702
     0.8335948423519867    0.6678554727068640    0.0639394037944180
     0.4181715589608572    0.0835435297241091    0.9385404566223822
     0.0842301033012287    0.1686835571153411    0.0618222269507082
     0.3285300248229875    0.9157059170626809    0.5628021345839173
     0.5827814367651779    0.6687897254136524    0.5628058484684861
     0.1673924467459694    0.0831376002417269    0.1864203098151527
     0.3302457865557502    0.9118886690554596    0.3113721713196020
     0.5800785396989646    0.9186854047224253    0.3148102677146975
     0.9143752921215104    0.0800447935829026    0.4378347367438344
     0.3288945411561127    0.9152027589802740    0.0619713240884383
     0.3310912891930843    0.6633243545883492    0.8133595793361355
     0.3302092704253308    0.1687470882794292    0.3104776365789026
     0.4130420212708030    0.8308616295837327    0.9349937856013595
     0.3304198457620576    0.6658124665424233    0.0626953600512487
     0.6694398922421675    0.3323201975840203    0.6858851251543955
     0.3333033904736315    0.1658319666402287    0.8157055619159624
     0.8366783512691588    0.9187784951343239    0.3142931818379804
     0.4168437138842719    0.3338992828747823    0.6861057351738127
     0.4176389204460673    0.3326869714834299    0.1870826014192278
     0.9176429730293924    0.5836282980696015    0.1879643146383241
     0.9167238288430194    0.3337557287226452    0.1878172560431860
     0.3345980848095950    0.1712878174263110    0.5614825739703064
     0.8357222341676052    0.9174421507894246    0.8119709844278569
     0.6701101944461040    0.8354795196828460    0.6870258668659563
     0.1645885608958108    0.5852688438102992    0.4363818772050328
     0.0796749299241088    0.9129309042668917    0.8146500165369375
     0.3286963491078729    0.4131138672710816    0.8128860625397687
     0.5842009118242643    0.1633240733676088    0.8124278396983127
     0.1650624736448990    0.3350223480760089    0.6865298607436816
     0.0818726098501453    0.9131051096688348    0.5605233272187370
     0.6648774006926031    0.5778113377291628    0.1883538485330949
     0.8352565325888288    0.1661656398484125    0.3122954131318410
     0.1665344879814120    0.8341396547228926    0.1867485214881833
     0.8326632048248334    0.4170183397097778    0.3117306452634465
     0.6678807785705494    0.5837743877495979    0.4377357817046285
     0.8336481222323121    0.1666046735499534    0.0646559355184426
     0.9142575619759056    0.5856856563512975    0.9372064931038724
     0.9219196178558828    0.8351602411047939    0.1887508934910499
     0.6658365016760639    0.0834091566624658    0.9364088665358059
     0.8331956601700519    0.6660344124881334    0.5617311968029461
     0.6703358795806283    0.0850961305053226    0.6865630761975066
     0.8347103572072404    0.1686033520366045    0.5617584263111939
     0.9169831243903752    0.3331466437447351    0.6869974883077187
     0.0815562323280360    0.1629509210490369    0.3106946951361551
     0.8384725451582103    0.9164822165978508    0.0617835433794983
     0.0824574677950241    0.6675714308266825    0.3112598776179177
     0.1668383486506941    0.5839782415802072    0.1880228250500742
     0.4199654442343221    0.0884229690306562    0.6876033159909174
     0.5826364330753780    0.6613806174486758    0.0618716698747139
     0.3345000489576152    0.6656645684272627    0.3125368777764723
     0.6672155380017578    0.0882360266519903    0.1894305991774755
     0.0838266004223614    0.6671556804391384    0.5629199312674358
     0.5833474010284380    0.4163502179438880    0.5622956974824639
     0.6709624486053978    0.3369811738335307    0.4379536681901633
     0.8337537737984113    0.4175463021362713    0.5624819200399130
     0.4115064570737844    0.8325011468274833    0.1891468221874122
     0.3372402545865189    0.4183588262516738    0.5636207487285166
     0.9146267801480331    0.3348960651783296    0.4365547870236840
     0.0805239085548682    0.1693366677320404    0.8152294147212538
     0.6691407819983657    0.5864067415690468    0.6852000771542375
     0.0845108567581926    0.6657809590938745    0.8134913319504926
     0.5857083440737719    0.1665105032217710    0.5631246100559094
     0.0791778846112393    0.1642315683223945    0.5626099747584808
     0.8324015320326948    0.6668723012967860    0.3123321294337301
     0.5871950446733398    0.9182714065340390    0.8134493777180645
     0.6676185690073180    0.8323448013064172    0.4370878753406451
     0.6654911307532094    0.3336481230517445    0.1876924003292782
     0.1665750115573749    0.8336884332560867    0.9374887729734641
     0.4189968415339065    0.5840943814915918    0.9373862895927006
     0.9157605895868106    0.8318082301018661    0.4369797545061991
     0.0826869712620758    0.9159356750283651    0.0624623292091660
     0.8330014718010151    0.9159455339437199    0.5623195892355231
     0.1634081291142912    0.8285356845245473    0.4371988848235767
     0.0858350981482234    0.9172084057002089    0.3125002551542715
     0.8317608625078021    0.1637661106160947    0.8115183048200952
     0.3321802638251352    0.4159492468877831    0.0630298622982973
     0.8344078132811485    0.4168951701312817    0.8111364126365013
     0.0802384698298607    0.4188844833014997    0.5627128618782689
     0.6683912312556898    0.8310050727871495    0.9361439744306278
     0.6685746183323846    0.5866637811764951    0.9388114595710964
     0.9151904290036360    0.0848935078762479    0.6873660257556725
     0.0811298429234418    0.4182828963201390    0.3104350753436356
     0.3329065202231348    0.1659647219450963    0.0627645928478657
     0.0859566463342411    0.4177186200489067    0.8112975875780601
     0.4202867818570231    0.5854800616106216    0.4376956295720802
     0.0867296873341972    0.4186608979113171    0.0652973864526100
     0.1700100185656695    0.5846235712198559    0.9379960723457901
     0.9154468254864279    0.5822090684048686    0.6876573710292208
     0.3366067473700022    0.4190801664755083    0.3104491489012876
     0.5840367182880648    0.6708121963612128    0.8114428513904508
 
  0.00000000E+00  0.00000000E+00  0.00000000E+00
  0.00000000E+00  0.00000000E+00  0.00000000E+00
  0.00000000E+00  0.00000000E+00  0.00000000E+00
  0.00000000E+00  0.00000000E+00  0.00000000E+00
  0.00000000E+00  0.00000000E+00  0.00000000E+00
  0.00000000E+00  0.00000000E+00  0.00000000E+00
  0.00000000E+00  0.00000000E+00  0.00000000E+00
  0.00000000E+00  0.00000000E+00  0.00000000E+00
  0.00000000E+00  0.00000000E+00  0.00000000E+00
  0.00000000E+00  0.00000000E+00  0.00000000E+00
  0.00000000E+00  0.00000000E+00  0.00000000E+00
  0.00000000E+00  0.00000000E+00  0.00000000E+00
  0.00000000E+00  0.00000000E+00  0.00000000E+00
  0.00000000E+00  0.00000000E+00  0.00000000E+00
  0.00000000E+00  0.00000000E+00  0.00000000E+00
  0.00000000E+00  0.00000000E+00  0.00000000E+00
  0.00000000E+00  0.00000000E+00  0.00000000E+00
  0.00000000E+00  0.00000000E+00  0.00000000E+00
  0.00000000E+00  0.00000000E+00  0.00000000E+00
  0.00000000E+00  0.00000000E+00  0.00000000E+00
  0.00000000E+00  0.00000000E+00  0.00000000E+00
  0.00000000E+00  0.00000000E+00  0.00000000E+00
  0.00000000E+00  0.00000000E+00  0.00000000E+00
  0.00000000E+00  0.00000000E+00  0.00000000E+00
  0.00000000E+00  0.00000000E+00  0.00000000E+00
  0.00000000E+00  0.00000000E+00  0.00000000E+00
  0.00000000E+00  0.00000000E+00  0.00000000E+00
  0.00000000E+00  0.00000000E+00  0.00000000E+00
  0.00000000E+00  0.00000000E+00  0.00000000E+00
  0.00000000E+00  0.00000000E+00  0.00000000E+00
  0.00000000E+00  0.00000000E+00  0.00000000E+00
  0.00000000E+00  0.00000000E+00  0.00000000E+00
  0.00000000E+00  0.00000000E+00  0.00000000E+00
  0.00000000E+00  0.00000000E+00  0.00000000E+00
  0.00000000E+00  0.00000000E+00  0.00000000E+00
  0.00000000E+00  0.00000000E+00  0.00000000E+00
  0.00000000E+00  0.00000000E+00  0.00000000E+00
  0.00000000E+00  0.00000000E+00  0.00000000E+00
  0.00000000E+00  0.00000000E+00  0.00000000E+00
  0.00000000E+00  0.00000000E+00  0.00000000E+00
  0.00000000E+00  0.00000000E+00  0.00000000E+00
  0.00000000E+00  0.00000000E+00  0.00000000E+00
  0.00000000E+00  0.00000000E+00  0.00000000E+00
  0.00000000E+00  0.00000000E+00  0.00000000E+00
  0.00000000E+00  0.00000000E+00  0.00000000E+00
  0.00000000E+00  0.00000000E+00  0.00000000E+00
  0.00000000E+00  0.00000000E+00  0.00000000E+00
  0.00000000E+00  0.00000000E+00  0.00000000E+00
  0.00000000E+00  0.00000000E+00  0.00000000E+00
  0.00000000E+00  0.00000000E+00  0.00000000E+00
  0.00000000E+00  0.00000000E+00  0.00000000E+00
  0.00000000E+00  0.00000000E+00  0.00000000E+00
  0.00000000E+00  0.00000000E+00  0.00000000E+00
  0.00000000E+00  0.00000000E+00  0.00000000E+00
  0.00000000E+00  0.00000000E+00  0.00000000E+00
  0.00000000E+00  0.00000000E+00  0.00000000E+00
  0.00000000E+00  0.00000000E+00  0.00000000E+00
  0.00000000E+00  0.00000000E+00  0.00000000E+00
  0.00000000E+00  0.00000000E+00  0.00000000E+00
  0.00000000E+00  0.00000000E+00  0.00000000E+00
  0.00000000E+00  0.00000000E+00  0.00000000E+00
  0.00000000E+00  0.00000000E+00  0.00000000E+00
  0.00000000E+00  0.00000000E+00  0.00000000E+00
  0.00000000E+00  0.00000000E+00  0.00000000E+00
  0.00000000E+00  0.00000000E+00  0.00000000E+00
  0.00000000E+00  0.00000000E+00  0.00000000E+00
  0.00000000E+00  0.00000000E+00  0.00000000E+00
  0.00000000E+00  0.00000000E+00  0.00000000E+00
  0.00000000E+00  0.00000000E+00  0.00000000E+00
  0.00000000E+00  0.00000000E+00  0.00000000E+00
  0.00000000E+00  0.00000000E+00  0.00000000E+00
  0.00000000E+00  0.00000000E+00  0.00000000E+00
  0.00000000E+00  0.00000000E+00  0.00000000E+00
  0.00000000E+00  0.00000000E+00  0.00000000E+00
  0.00000000E+00  0.00000000E+00  0.00000000E+00
  0.00000000E+00  0.00000000E+00  0.00000000E+00
  0.00000000E+00  0.00000000E+00  0.00000000E+00
  0.00000000E+00  0.00000000E+00  0.00000000E+00
  0.00000000E+00  0.00000000E+00  0.00000000E+00
  0.00000000E+00  0.00000000E+00  0.00000000E+00
  0.00000000E+00  0.00000000E+00  0.00000000E+00
  0.00000000E+00  0.00000000E+00  0.00000000E+00
  0.00000000E+00  0.00000000E+00  0.00000000E+00
  0.00000000E+00  0.00000000E+00  0.00000000E+00
  0.00000000E+00  0.00000000E+00  0.00000000E+00
  0.00000000E+00  0.00000000E+00  0.00000000E+00
  0.00000000E+00  0.00000000E+00  0.00000000E+00
  0.00000000E+00  0.00000000E+00  0.00000000E+00
  0.00000000E+00  0.00000000E+00  0.00000000E+00
  0.00000000E+00  0.00000000E+00  0.00000000E+00
  0.00000000E+00  0.00000000E+00  0.00000000E+00
  0.00000000E+00  0.00000000E+00  0.00000000E+00
  0.00000000E+00  0.00000000E+00  0.00000000E+00
  0.00000000E+00  0.00000000E+00  0.00000000E+00
  0.00000000E+00  0.00000000E+00  0.00000000E+00
  0.00000000E+00  0.00000000E+00  0.00000000E+00
  0.00000000E+00  0.00000000E+00  0.00000000E+00
  0.00000000E+00  0.00000000E+00  0.00000000E+00
  0.00000000E+00  0.00000000E+00  0.00000000E+00
  0.00000000E+00  0.00000000E+00  0.00000000E+00
  0.00000000E+00  0.00000000E+00  0.00000000E+00
  0.00000000E+00  0.00000000E+00  0.00000000E+00
  0.00000000E+00  0.00000000E+00  0.00000000E+00
  0.00000000E+00  0.00000000E+00  0.00000000E+00
  0.00000000E+00  0.00000000E+00  0.00000000E+00
  0.00000000E+00  0.00000000E+00  0.00000000E+00
  0.00000000E+00  0.00000000E+00  0.00000000E+00
  0.00000000E+00  0.00000000E+00  0.00000000E+00
  0.00000000E+00  0.00000000E+00  0.00000000E+00
  0.00000000E+00  0.00000000E+00  0.00000000E+00
  0.00000000E+00  0.00000000E+00  0.00000000E+00
  0.00000000E+00  0.00000000E+00  0.00000000E+00
  0.00000000E+00  0.00000000E+00  0.00000000E+00
  0.00000000E+00  0.00000000E+00  0.00000000E+00
  0.00000000E+00  0.00000000E+00  0.00000000E+00
  0.00000000E+00  0.00000000E+00  0.00000000E+00
  0.00000000E+00  0.00000000E+00  0.00000000E+00
  0.00000000E+00  0.00000000E+00  0.00000000E+00
  0.00000000E+00  0.00000000E+00  0.00000000E+00
  0.00000000E+00  0.00000000E+00  0.00000000E+00
  0.00000000E+00  0.00000000E+00  0.00000000E+00
  0.00000000E+00  0.00000000E+00  0.00000000E+00
  0.00000000E+00  0.00000000E+00  0.00000000E+00
  0.00000000E+00  0.00000000E+00  0.00000000E+00
  0.00000000E+00  0.00000000E+00  0.00000000E+00
  0.00000000E+00  0.00000000E+00  0.00000000E+00
  0.00000000E+00  0.00000000E+00  0.00000000E+00
  0.00000000E+00  0.00000000E+00  0.00000000E+00
