Nb Ta                                   
    1.000000000000000     
    13.2694470484583249    0.0003379739188543    0.0002009400335989
     0.0003378328214875   13.2706110250083782    0.0002789652916399
     0.0002009236505837    0.0002789468508204   13.2704185383497375
   Nb   Ta
    24   104
Direct
  0.6237963035917081  0.6247762207916433  0.8749909958575925
  0.4999112299896445  0.2504143282154516  0.5002439997816309
 -0.0010852372042319  0.2502208291793406  0.0000796363404423
  0.3751031417192617  0.1249942474320645  0.8739080241754282
  0.4998193359256785  0.0004989490758498  0.0003890220512689
  0.3749829275746808  0.3739539419829311  0.6255139126811806
  0.1255740126528214  0.8748652183241579  0.3754267064008423
  0.7504556293725910  0.2506070412473221  0.2496545358744386
  0.1252170044717444  0.1248568039884366  0.6262815035275138
  0.8751182726652293  0.3738429937288421  0.8760405672338863
  0.5003890879061922  0.7494767855191961  0.7506403553231795
  0.2494190676503500  0.7506356343952386  0.4996658558041845
  0.2497837638855211  0.4998450031936826 -0.0000492104124654
  0.7496567344358174 -0.0008695840282011  0.2488613225441412
  0.0000823186259266  0.4998887079501269  0.4999062819080425
  0.1266420027538711  0.6241263686309846  0.8755600081500414
  0.8746156360524592  0.1254982596150519  0.1254228644926046
  0.0008337046834520  0.0005527891009886  0.7492498236481963
  0.6248488937330847  0.8762228467741303  0.1247253107260722
  0.3746148995407113  0.3769101486706521  0.1242050509479111
  0.8741504199867355  0.6257226449849596  0.8758399760588464
  0.3757786677304124  0.1229332057565463  0.1255753187213870
  0.7504966418004988  0.5002684690406308 -0.0012440933102787
  0.2501695851699076  0.2494807225858344  0.7493616146805809
  0.2492808627151546  0.7504075762362462  0.2494997651100229
  0.7512494862622645  0.2498240181525932  0.5008918051553091
  0.3751806609689825  0.6247849856643528  0.8749750498443797
  0.1235289160079087  0.3765273905737007  0.6255173445196286
  0.6257071950272848  0.6230785834035978  0.1256828976710426
  0.3750926198058647  0.1256304790123920  0.3767304853990431
  0.8756229495268469  0.6248661176290391  0.3753507418065458
  0.8756228373790896  0.6242421450950760  0.6235083412048348
  0.0000115882866145  0.4998118605491892  0.2488177656541783
  0.7483372869802062  0.4998373242797146  0.4995782405287019
  0.3740037592665291  0.8742124412003603  0.1242843775508718
  0.6245162032924427  0.6250301637292083  0.3746079646559287
  0.1274906471077489  0.3727218841999549  0.8754591553921168
  0.6246990690845720  0.6254495941494407  0.6249644710953864
  0.6243631704967926  0.3735946159688369  0.3746327619061122
  0.6257903342695856  0.8755806749455414  0.3752620168908694
  0.4992297094532971  0.0016864479203441  0.7490637189270823
  0.0000337984548125  0.7490338440767083 -0.0008495175844531
  0.3745300430103393  0.8736976526474600  0.6252477593604707
  0.1247124045633825  0.6249915019658329  0.6227853674741665
  0.6238219169402390  0.8763572429619418  0.8739731653074074
  0.7503738802756190  0.5001780760257054  0.7499146943803788
  0.2509432606621264  0.2503393275482627  0.2488859446714332
  0.5013337204966759  0.7487765840961351  0.0015124910134321
  0.5005267584858868  0.7506343884620930  0.2493292559962215
  0.8757277373239798  0.8765529022656871  0.8744171612319560
  0.1255351202968409  0.1262801444069222  0.3733087499776537
  0.7501777101781094  0.7501334253977321  0.5002440760765664
 -0.0010190371978652  0.2518661084088862  0.7487295869184388
  0.8743764626466228  0.1243712645274017  0.6257567794473394
  0.3743052409561324  0.6258691422144885  0.1245868812906519
  0.0006173001057023  0.7502452230589449  0.2509141783441547
  0.5003246082720763 -0.0014007604755658  0.4999057537037071
  0.3745092581278955  0.6256803102699816  0.3749654033338069
  0.6255615194306673  0.1246986946061443  0.8758469845644822
 -0.0000041910523217  0.7473390030032347  0.7509186266203757
  0.2528845159161552  0.2478518064494311  0.0015883220267665
  0.4993890280545149  0.5008444295197627  0.5007003114273961
  0.0005234528996062  0.2480181245663482  0.5004806771673720
  0.8756001702426912  0.3761486758460436  0.6236453065154740
  0.6243746338695758  0.3741841755401724  0.8755035812356486
  0.3753310908059904  0.8746952599727026  0.3752543806892495
  0.0009899061152830 -0.0000026002266492  0.4986115335922969
  0.7493864186417167  0.7490994151003355  0.2494438492824280
  0.1237435468651577  0.3746939910265070  0.1236522096716060
  0.2516753386382694 -0.0002247055742608  0.7502253641612130
  0.1232575780283243  0.1259346255720313  0.8758710684009101
  0.1252572569820816  0.6234403715020735  0.3760511426137112
  0.0012236774626451 -0.0000728722221131  0.2500406100898544
  0.8753416666251206  0.3746322773678867  0.3750349404543120
  0.2480432845876687  0.2503608772437832  0.4998734171414149
  0.2493055056583028  0.7509113596211359 -0.0008638571169250
  0.7513654624309509 -0.0001068560829274 -0.0003320145057931
  0.4988934559462856  0.0001018009602461  0.2508235624096461
  0.3762315284990418  0.8736131023522464  0.8753082953611848
  0.1242053973277383  0.8770312513840908  0.8745464535272011
  0.6245875177733839  0.8740839424554785  0.6261449265879196
  0.8740645340384208  0.1246374786607815  0.3749682548727348
  0.7490987445869450  0.7514508097443109 -0.0002771652099316
  0.2479465372966184  0.7493930731767808  0.7519253636343083
  0.7501213743325921  0.5007935958750815  0.2517871438985870
  0.6274326990630413  0.3749931489456927  0.1245998132409593
  0.2489639786091283  0.0011059183736870  0.5003642695335058
 -0.0011382890483445  0.7522347539400911  0.4993788098154989
  0.2503086816365102  0.4992421690911877  0.2508694270760935
  0.5012288928746353  0.7503162532525556  0.4987121743672068
  0.2522183578472899  0.4981377687433468  0.5008872792583250
 -0.0007621660165632 -0.0005020631508354  0.0019431345198784
  0.8729672758099910  0.8759280226809354  0.3739597932730666
  0.4982725827379391  0.2499776167480815  0.2474661032410977
  0.2500291581200123 -0.0000407421949510  0.2502772077600411
  0.6252178579008489  0.1256395755889397  0.3740773507117944
  0.2496702522820205  0.0010082129430538 -0.0006036995592898
  0.6254624238076012  0.1258982807648111  0.1250715946635770
  0.2498327884982866  0.5012355581865583  0.7480435174713033
  0.8744961255513541  0.3759079926760374  0.1254403963964046
  0.1254790977765244  0.6245727165426934  0.1257697137591288
  0.7499680748550247  0.2486021974142504 -0.0013305015888759
  0.8745290241370450  0.6251383553946556  0.1256807387876449
  0.0003970834107576  0.2499494935375543  0.2506513389856755
  0.4999368975867445  0.4986149756904997  0.7496135227362148
  0.7515619030753640  0.7490307247323109  0.7509069980711367
  0.6257836491179949  0.3745538796521543  0.6250959741305899
  0.1249704608533155  0.8739352178298498  0.6268087473111402
  0.5003900787677019  0.2501174334749278  0.7516299697693078
  0.1246127134782919  0.3752781535268094  0.3751228478888510
  0.6243799155677233  0.1259816979282813  0.6247759129357056
  0.3756120819343060  0.3740374979020005  0.3751715303571244
  0.1245735836486039  0.1256793246735512  0.1247039165538231
  0.8759469693561527  0.8734708050799642  0.1254206517439773
  0.7505638931753398  0.2507339018745504  0.7505796553179392
 -0.0001640960781620  0.5002323978715426  0.7529173811742369
  0.8756991538888311  0.8753591371500462  0.6261261116875492
  0.3749792128774068  0.6276042645548038  0.6254562602954878
  0.7483927635087319 -0.0000008336611701  0.7497455521830497
 -0.0002174701296160  0.5013807142128793 -0.0013548958174267
  0.7495489874045401  0.0001979215346031  0.5014679575625427
  0.1251010901326874  0.8749336483327810  0.1236101200239303
  0.8761459160651802  0.1236930574941985  0.8734562957866608
  0.3759709300411397  0.1250018444412948  0.6234310941927234
  0.5002799432590475  0.4998046990550467 -0.0000060834276123
  0.4988738265709994  0.2510691126436089  0.0003498285017646
  0.4996130818467120  0.4993282669189440  0.2495741829091367
  0.3735401379506051  0.3764505634434489  0.8746606998236144
 
  0.00000000E+00  0.00000000E+00  0.00000000E+00
  0.00000000E+00  0.00000000E+00  0.00000000E+00
  0.00000000E+00  0.00000000E+00  0.00000000E+00
  0.00000000E+00  0.00000000E+00  0.00000000E+00
  0.00000000E+00  0.00000000E+00  0.00000000E+00
  0.00000000E+00  0.00000000E+00  0.00000000E+00
  0.00000000E+00  0.00000000E+00  0.00000000E+00
  0.00000000E+00  0.00000000E+00  0.00000000E+00
  0.00000000E+00  0.00000000E+00  0.00000000E+00
  0.00000000E+00  0.00000000E+00  0.00000000E+00
  0.00000000E+00  0.00000000E+00  0.00000000E+00
  0.00000000E+00  0.00000000E+00  0.00000000E+00
  0.00000000E+00  0.00000000E+00  0.00000000E+00
  0.00000000E+00  0.00000000E+00  0.00000000E+00
  0.00000000E+00  0.00000000E+00  0.00000000E+00
  0.00000000E+00  0.00000000E+00  0.00000000E+00
  0.00000000E+00  0.00000000E+00  0.00000000E+00
  0.00000000E+00  0.00000000E+00  0.00000000E+00
  0.00000000E+00  0.00000000E+00  0.00000000E+00
  0.00000000E+00  0.00000000E+00  0.00000000E+00
  0.00000000E+00  0.00000000E+00  0.00000000E+00
  0.00000000E+00  0.00000000E+00  0.00000000E+00
  0.00000000E+00  0.00000000E+00  0.00000000E+00
  0.00000000E+00  0.00000000E+00  0.00000000E+00
  0.00000000E+00  0.00000000E+00  0.00000000E+00
  0.00000000E+00  0.00000000E+00  0.00000000E+00
  0.00000000E+00  0.00000000E+00  0.00000000E+00
  0.00000000E+00  0.00000000E+00  0.00000000E+00
  0.00000000E+00  0.00000000E+00  0.00000000E+00
  0.00000000E+00  0.00000000E+00  0.00000000E+00
  0.00000000E+00  0.00000000E+00  0.00000000E+00
  0.00000000E+00  0.00000000E+00  0.00000000E+00
  0.00000000E+00  0.00000000E+00  0.00000000E+00
  0.00000000E+00  0.00000000E+00  0.00000000E+00
  0.00000000E+00  0.00000000E+00  0.00000000E+00
  0.00000000E+00  0.00000000E+00  0.00000000E+00
  0.00000000E+00  0.00000000E+00  0.00000000E+00
  0.00000000E+00  0.00000000E+00  0.00000000E+00
  0.00000000E+00  0.00000000E+00  0.00000000E+00
  0.00000000E+00  0.00000000E+00  0.00000000E+00
  0.00000000E+00  0.00000000E+00  0.00000000E+00
  0.00000000E+00  0.00000000E+00  0.00000000E+00
  0.00000000E+00  0.00000000E+00  0.00000000E+00
  0.00000000E+00  0.00000000E+00  0.00000000E+00
  0.00000000E+00  0.00000000E+00  0.00000000E+00
  0.00000000E+00  0.00000000E+00  0.00000000E+00
  0.00000000E+00  0.00000000E+00  0.00000000E+00
  0.00000000E+00  0.00000000E+00  0.00000000E+00
  0.00000000E+00  0.00000000E+00  0.00000000E+00
  0.00000000E+00  0.00000000E+00  0.00000000E+00
  0.00000000E+00  0.00000000E+00  0.00000000E+00
  0.00000000E+00  0.00000000E+00  0.00000000E+00
  0.00000000E+00  0.00000000E+00  0.00000000E+00
  0.00000000E+00  0.00000000E+00  0.00000000E+00
  0.00000000E+00  0.00000000E+00  0.00000000E+00
  0.00000000E+00  0.00000000E+00  0.00000000E+00
  0.00000000E+00  0.00000000E+00  0.00000000E+00
  0.00000000E+00  0.00000000E+00  0.00000000E+00
  0.00000000E+00  0.00000000E+00  0.00000000E+00
  0.00000000E+00  0.00000000E+00  0.00000000E+00
  0.00000000E+00  0.00000000E+00  0.00000000E+00
  0.00000000E+00  0.00000000E+00  0.00000000E+00
  0.00000000E+00  0.00000000E+00  0.00000000E+00
  0.00000000E+00  0.00000000E+00  0.00000000E+00
  0.00000000E+00  0.00000000E+00  0.00000000E+00
  0.00000000E+00  0.00000000E+00  0.00000000E+00
  0.00000000E+00  0.00000000E+00  0.00000000E+00
  0.00000000E+00  0.00000000E+00  0.00000000E+00
  0.00000000E+00  0.00000000E+00  0.00000000E+00
  0.00000000E+00  0.00000000E+00  0.00000000E+00
  0.00000000E+00  0.00000000E+00  0.00000000E+00
  0.00000000E+00  0.00000000E+00  0.00000000E+00
  0.00000000E+00  0.00000000E+00  0.00000000E+00
  0.00000000E+00  0.00000000E+00  0.00000000E+00
  0.00000000E+00  0.00000000E+00  0.00000000E+00
  0.00000000E+00  0.00000000E+00  0.00000000E+00
  0.00000000E+00  0.00000000E+00  0.00000000E+00
  0.00000000E+00  0.00000000E+00  0.00000000E+00
  0.00000000E+00  0.00000000E+00  0.00000000E+00
  0.00000000E+00  0.00000000E+00  0.00000000E+00
  0.00000000E+00  0.00000000E+00  0.00000000E+00
  0.00000000E+00  0.00000000E+00  0.00000000E+00
  0.00000000E+00  0.00000000E+00  0.00000000E+00
  0.00000000E+00  0.00000000E+00  0.00000000E+00
  0.00000000E+00  0.00000000E+00  0.00000000E+00
  0.00000000E+00  0.00000000E+00  0.00000000E+00
  0.00000000E+00  0.00000000E+00  0.00000000E+00
  0.00000000E+00  0.00000000E+00  0.00000000E+00
  0.00000000E+00  0.00000000E+00  0.00000000E+00
  0.00000000E+00  0.00000000E+00  0.00000000E+00
  0.00000000E+00  0.00000000E+00  0.00000000E+00
  0.00000000E+00  0.00000000E+00  0.00000000E+00
  0.00000000E+00  0.00000000E+00  0.00000000E+00
  0.00000000E+00  0.00000000E+00  0.00000000E+00
  0.00000000E+00  0.00000000E+00  0.00000000E+00
  0.00000000E+00  0.00000000E+00  0.00000000E+00
  0.00000000E+00  0.00000000E+00  0.00000000E+00
  0.00000000E+00  0.00000000E+00  0.00000000E+00
  0.00000000E+00  0.00000000E+00  0.00000000E+00
  0.00000000E+00  0.00000000E+00  0.00000000E+00
  0.00000000E+00  0.00000000E+00  0.00000000E+00
  0.00000000E+00  0.00000000E+00  0.00000000E+00
  0.00000000E+00  0.00000000E+00  0.00000000E+00
  0.00000000E+00  0.00000000E+00  0.00000000E+00
  0.00000000E+00  0.00000000E+00  0.00000000E+00
  0.00000000E+00  0.00000000E+00  0.00000000E+00
  0.00000000E+00  0.00000000E+00  0.00000000E+00
  0.00000000E+00  0.00000000E+00  0.00000000E+00
  0.00000000E+00  0.00000000E+00  0.00000000E+00
  0.00000000E+00  0.00000000E+00  0.00000000E+00
  0.00000000E+00  0.00000000E+00  0.00000000E+00
  0.00000000E+00  0.00000000E+00  0.00000000E+00
  0.00000000E+00  0.00000000E+00  0.00000000E+00
  0.00000000E+00  0.00000000E+00  0.00000000E+00
  0.00000000E+00  0.00000000E+00  0.00000000E+00
  0.00000000E+00  0.00000000E+00  0.00000000E+00
  0.00000000E+00  0.00000000E+00  0.00000000E+00
  0.00000000E+00  0.00000000E+00  0.00000000E+00
  0.00000000E+00  0.00000000E+00  0.00000000E+00
  0.00000000E+00  0.00000000E+00  0.00000000E+00
  0.00000000E+00  0.00000000E+00  0.00000000E+00
  0.00000000E+00  0.00000000E+00  0.00000000E+00
  0.00000000E+00  0.00000000E+00  0.00000000E+00
  0.00000000E+00  0.00000000E+00  0.00000000E+00
  0.00000000E+00  0.00000000E+00  0.00000000E+00
  0.00000000E+00  0.00000000E+00  0.00000000E+00
  0.00000000E+00  0.00000000E+00  0.00000000E+00
  0.00000000E+00  0.00000000E+00  0.00000000E+00
