Nb Ta                                   
    1.000000000000000     
    13.2714298064425531   -0.0016230676807800    0.0004876609425327
    -0.0016227694227066   13.2712397964242701    0.0001143325733289
     0.0004874569294944    0.0001143440309690   13.2704770765269178
   Nb   Ta
    20   108
Direct
  0.3752611856381015  0.6259677394951270  0.8739461604038714
  0.3743794051045477  0.3751611511014315  0.3740074876225370
  0.2505196291548283  0.5010650961823466  0.2500163923980947
  0.3745830448238759  0.3728823172800275  0.8752166918756866
  0.2504782767962530  0.2504229887709113 -0.0002199894542956
  0.3744960748331756  0.6238143077279674  0.1267684388485795
  0.6242664957991154  0.1247553127083030  0.1248478773284847
  0.6241908056768041  0.1247143365646530  0.6251312332106211
  0.1245284404609885  0.8745242867955562  0.3746753510792909
  0.0007101702661812  0.7503963515298638  0.2504365956093619
  0.5001847770936767  0.0019409265209692  0.5016463918538601
  0.6237934451677403  0.1229627121425613  0.3752370782162404
  0.8746068327938639  0.3746078068700175  0.3753802209218587
  0.3761955781412804  0.8751891789738812  0.6236468659428130
  0.6249603781612301  0.3759535707239445  0.3750820017020067
  0.5006435077463358  0.0011337163446203  0.2488195757173197
  0.1260376234348054  0.3753669199592032  0.3741538775987789
  0.2504753598665720  0.2503698065410537  0.7494533959698494
  0.4995581118126712  0.7495964415330937  0.5003973661345882
  0.2500879037039254  0.2496654391670141  0.2518012159471870
  0.6260144141430461  0.6248232316252924  0.8751461292195142
  0.1267436937368772  0.3748920301397980  0.1239356103271834
  0.8759301357293146  0.1252989206457649  0.1255949545882752
  0.8742797024921137  0.3746474759505026  0.1240843544316180
  0.3737571723459598  0.1267194828517793  0.6246720668785344
  0.5004706407461254  0.4997401838638117  0.2504490285691331
  0.3780951408628323  0.8759887873423914  0.3741840197292780
  0.0004563162057527  0.2509346262842114  0.4993234746944628
  0.5016083888424691  0.2510589458420659  0.2508513970814364
  0.4982113467954016  0.5000519685239051 -0.0002734848787653
  0.0008806667681491  0.0008742550657874  0.2500892492375758
  0.7499753801779967  0.5002519874877934  0.7497233613507582
  0.3754738410676337  0.6241379309767964  0.6227081097948916
  0.5008853432277052  0.2496020406772552  0.0003413600854227
  0.0003056896706247  0.4998959573256073  0.0004544754842419
  0.0002628803123422  0.0004646249317332  0.7501964816243182
  0.0007418255067976 -0.0003890871951130  0.4995059504361363
  0.2486837917754061  0.7514887936634890  0.4997210498058988
  0.1239128119699166  0.6247307000182706  0.1263391991384647
  0.8751064847330333  0.6244691324148145  0.6245260129613232
  0.2498027117169609 -0.0008368337201256  0.0003661351002126
  0.0002609556080441  0.4999583906726317  0.7499413939050741
  0.3733395485590308  0.1258995954221384  0.1259253529044677
  0.7502504030955237  0.7502878324229085  0.0002632017630145
  0.3749417707165553  0.6261566688463801  0.3767849874470254
  0.1259519533381287  0.1264729510628753  0.1251446732219819
  0.1247015613099134  0.3745363690523737  0.8751423992111049
  0.8743441601248853  0.1248157302089025  0.8750473244348119
 -0.0009710789518226  0.2496557287889833  0.7501061213623945
  0.1256045758289465  0.8746804454969164  0.8749118625348269
  0.2508213538909222 -0.0014823466945282  0.7492266344626073
  0.7486081328650073  0.7501358607068600  0.2500050608303668
  0.7494823407530088  0.0001274897940471  0.0009531663773212
  0.6247900821150281  0.3761678106282649  0.6261461734736702
  0.3748510046745989  0.3745608216504772  0.6255126843798080
  0.8746537314479194  0.3748347285332204  0.6256091456123525
  0.6244322334544052  0.6264577925850356  0.3756343244660740
  0.2509329169850827  0.5014271387530886  0.7510422502459804
  0.0000069930056239  0.7499171072289291 -0.0010116935195441
  0.2510944638760818  0.5018808484517385 -0.0013345356860086
  0.0004796284428985  0.0002868174866164  0.0001455326127109
  0.1240356722559195  0.8750703381830226  0.6263722616983429
  0.1257151327350783  0.1257266026848534  0.6250847215797619
  0.7504683145411214  0.5001283063822015  0.0001417801783220
  0.7492775051757237  0.0002263885448846  0.7490580749519188
  0.7502501762950613  0.0004219832003209  0.2499854368294810
  0.8749005832571422  0.6248071335476102  0.8749144096161809
  0.1246769550605379  0.8741031330945387  0.1239490242091176
  0.8755969659583285  0.6264367486835732  0.3745155767919302
  0.5000733253005077  0.0008937350854881 -0.0004084078976017
  0.7498642032344666  0.7500691802145719  0.7497287662460888
  0.8753598690781497  0.8747027417279410  0.1257799405016357
  0.2508154746145345  0.7487508026665497  0.0005661225870260
  0.8759642446150336  0.1241588328227586  0.3751578167218636
  0.8760027984086471  0.1252531219401754  0.6241887542986464
  0.2488116501849333 -0.0008834061093721  0.4998721440018474
  0.4989600308190562  0.4999774987971466  0.7510263949672843
  0.6259770674999837  0.3749058906257783  0.8750837225402347
  0.7494309301238459  0.2490981721248348  0.0007187792823959
  0.2498530087511331  0.4991649006217981  0.5003700401433563
 -0.0008874689347564  0.2499020619190118  0.0001722792563891
  0.1254571656578597  0.6246586882815909  0.6247904886085912
  0.4990081979303195  0.7489408028193310  0.0003961671771417
  0.1239951705945851  0.6251119598509864  0.8748287132910801
  0.1256725584737610  0.3748712187760143  0.6267516318597736
  0.5009940595453810  0.2497401865104043  0.7499355198746299
 -0.0009065130158875  0.2511345004087436  0.2504632755849106
  0.2512109376670546  0.7499980727455620  0.7495878633346379
  0.7502757236574913  0.0005485033644459  0.4998500364259746
  0.7494363891293507  0.2491321816552575  0.7491497341241489
  0.1263271000022828  0.1259585208055593  0.8750050654085132
  0.8747535507119490  0.8753835408079219  0.6248668447277365
  0.6248648657658364  0.1248804584521950  0.8747446687456335
  0.7502041634908275  0.4994446079816616  0.2509648935530460
  0.6254518867933964  0.8736150708936580  0.6240449059909795
  0.5001511823586209  0.2511617903147909  0.4990795157716850
  0.7513300665748811  0.7499380036531578  0.4998699887525289
  0.6247912519343481  0.8749788279827979  0.8750199784261771
  0.3741977971216601  0.1234213692597246  0.3746489696418585
  0.0005172669493767  0.4992126596963299  0.4991368507570070
  0.8745655738294567  0.8754820657062238  0.8748475635617182
  0.6261265122725017  0.6241223285735588  0.1248679453947401
  0.6241436505543461  0.6251369791224149  0.6243620227990391
  0.2500893904467095  0.2509201357897106  0.4991630912275895
  0.4991102014275305  0.7500738957426338  0.7511895538030701
 -0.0000159956953866  0.7499396247633962  0.7498559246787473
  0.8755484293281227  0.6251462300429322  0.1259773979035419
  0.8739860279852828  0.8748657237898394  0.3745053369317242
  0.3757108520321405  0.8769005800602314  0.1253529014209585
  0.3740658751379938  0.3732788467411542  0.1256315104099050
  0.7488541628041160  0.2495534783275015  0.2508155000391715
  0.0006299496789209  0.7503520403969524  0.5007249984683179
  0.2516537165107327  0.7515563408834479  0.2499650351862411
  0.1253558996055234  0.1258488853380688  0.3747959568883182
  0.8746394479436379  0.3747918598053944  0.8750069816983053
  0.4996746418922018 -0.0000595224369554  0.7499777222545267
  0.1254597707168890  0.6247350086651142  0.3740150142353081
  0.3751100132811244  0.8761839635758617  0.8763779967096430
  0.3744475922824819  0.1246668580063661  0.8748235684533692
  0.7500008833461927  0.4995611281187925  0.4991566609745995
  0.7487998781715323  0.2495265954992042  0.4992898704320065
  0.6235371521555597  0.8740291422794875  0.3754430942843677
  0.6249568528597919  0.3763934057072053  0.1238548089272621
  0.4997549368334436  0.4977473788190271  0.4989975691573361
  0.6243459905840874  0.8741902561604733  0.1253246143437241
  0.2480189564222989 -0.0017178217062576  0.2503521294978584
 -0.0009355148786115  0.4976579634155462  0.2504542483020256
  0.4993537357116243  0.7479581550486207  0.2478790068296226
 
  0.00000000E+00  0.00000000E+00  0.00000000E+00
  0.00000000E+00  0.00000000E+00  0.00000000E+00
  0.00000000E+00  0.00000000E+00  0.00000000E+00
  0.00000000E+00  0.00000000E+00  0.00000000E+00
  0.00000000E+00  0.00000000E+00  0.00000000E+00
  0.00000000E+00  0.00000000E+00  0.00000000E+00
  0.00000000E+00  0.00000000E+00  0.00000000E+00
  0.00000000E+00  0.00000000E+00  0.00000000E+00
  0.00000000E+00  0.00000000E+00  0.00000000E+00
  0.00000000E+00  0.00000000E+00  0.00000000E+00
  0.00000000E+00  0.00000000E+00  0.00000000E+00
  0.00000000E+00  0.00000000E+00  0.00000000E+00
  0.00000000E+00  0.00000000E+00  0.00000000E+00
  0.00000000E+00  0.00000000E+00  0.00000000E+00
  0.00000000E+00  0.00000000E+00  0.00000000E+00
  0.00000000E+00  0.00000000E+00  0.00000000E+00
  0.00000000E+00  0.00000000E+00  0.00000000E+00
  0.00000000E+00  0.00000000E+00  0.00000000E+00
  0.00000000E+00  0.00000000E+00  0.00000000E+00
  0.00000000E+00  0.00000000E+00  0.00000000E+00
  0.00000000E+00  0.00000000E+00  0.00000000E+00
  0.00000000E+00  0.00000000E+00  0.00000000E+00
  0.00000000E+00  0.00000000E+00  0.00000000E+00
  0.00000000E+00  0.00000000E+00  0.00000000E+00
  0.00000000E+00  0.00000000E+00  0.00000000E+00
  0.00000000E+00  0.00000000E+00  0.00000000E+00
  0.00000000E+00  0.00000000E+00  0.00000000E+00
  0.00000000E+00  0.00000000E+00  0.00000000E+00
  0.00000000E+00  0.00000000E+00  0.00000000E+00
  0.00000000E+00  0.00000000E+00  0.00000000E+00
  0.00000000E+00  0.00000000E+00  0.00000000E+00
  0.00000000E+00  0.00000000E+00  0.00000000E+00
  0.00000000E+00  0.00000000E+00  0.00000000E+00
  0.00000000E+00  0.00000000E+00  0.00000000E+00
  0.00000000E+00  0.00000000E+00  0.00000000E+00
  0.00000000E+00  0.00000000E+00  0.00000000E+00
  0.00000000E+00  0.00000000E+00  0.00000000E+00
  0.00000000E+00  0.00000000E+00  0.00000000E+00
  0.00000000E+00  0.00000000E+00  0.00000000E+00
  0.00000000E+00  0.00000000E+00  0.00000000E+00
  0.00000000E+00  0.00000000E+00  0.00000000E+00
  0.00000000E+00  0.00000000E+00  0.00000000E+00
  0.00000000E+00  0.00000000E+00  0.00000000E+00
  0.00000000E+00  0.00000000E+00  0.00000000E+00
  0.00000000E+00  0.00000000E+00  0.00000000E+00
  0.00000000E+00  0.00000000E+00  0.00000000E+00
  0.00000000E+00  0.00000000E+00  0.00000000E+00
  0.00000000E+00  0.00000000E+00  0.00000000E+00
  0.00000000E+00  0.00000000E+00  0.00000000E+00
  0.00000000E+00  0.00000000E+00  0.00000000E+00
  0.00000000E+00  0.00000000E+00  0.00000000E+00
  0.00000000E+00  0.00000000E+00  0.00000000E+00
  0.00000000E+00  0.00000000E+00  0.00000000E+00
  0.00000000E+00  0.00000000E+00  0.00000000E+00
  0.00000000E+00  0.00000000E+00  0.00000000E+00
  0.00000000E+00  0.00000000E+00  0.00000000E+00
  0.00000000E+00  0.00000000E+00  0.00000000E+00
  0.00000000E+00  0.00000000E+00  0.00000000E+00
  0.00000000E+00  0.00000000E+00  0.00000000E+00
  0.00000000E+00  0.00000000E+00  0.00000000E+00
  0.00000000E+00  0.00000000E+00  0.00000000E+00
  0.00000000E+00  0.00000000E+00  0.00000000E+00
  0.00000000E+00  0.00000000E+00  0.00000000E+00
  0.00000000E+00  0.00000000E+00  0.00000000E+00
  0.00000000E+00  0.00000000E+00  0.00000000E+00
  0.00000000E+00  0.00000000E+00  0.00000000E+00
  0.00000000E+00  0.00000000E+00  0.00000000E+00
  0.00000000E+00  0.00000000E+00  0.00000000E+00
  0.00000000E+00  0.00000000E+00  0.00000000E+00
  0.00000000E+00  0.00000000E+00  0.00000000E+00
  0.00000000E+00  0.00000000E+00  0.00000000E+00
  0.00000000E+00  0.00000000E+00  0.00000000E+00
  0.00000000E+00  0.00000000E+00  0.00000000E+00
  0.00000000E+00  0.00000000E+00  0.00000000E+00
  0.00000000E+00  0.00000000E+00  0.00000000E+00
  0.00000000E+00  0.00000000E+00  0.00000000E+00
  0.00000000E+00  0.00000000E+00  0.00000000E+00
  0.00000000E+00  0.00000000E+00  0.00000000E+00
  0.00000000E+00  0.00000000E+00  0.00000000E+00
  0.00000000E+00  0.00000000E+00  0.00000000E+00
  0.00000000E+00  0.00000000E+00  0.00000000E+00
  0.00000000E+00  0.00000000E+00  0.00000000E+00
  0.00000000E+00  0.00000000E+00  0.00000000E+00
  0.00000000E+00  0.00000000E+00  0.00000000E+00
  0.00000000E+00  0.00000000E+00  0.00000000E+00
  0.00000000E+00  0.00000000E+00  0.00000000E+00
  0.00000000E+00  0.00000000E+00  0.00000000E+00
  0.00000000E+00  0.00000000E+00  0.00000000E+00
  0.00000000E+00  0.00000000E+00  0.00000000E+00
  0.00000000E+00  0.00000000E+00  0.00000000E+00
  0.00000000E+00  0.00000000E+00  0.00000000E+00
  0.00000000E+00  0.00000000E+00  0.00000000E+00
  0.00000000E+00  0.00000000E+00  0.00000000E+00
  0.00000000E+00  0.00000000E+00  0.00000000E+00
  0.00000000E+00  0.00000000E+00  0.00000000E+00
  0.00000000E+00  0.00000000E+00  0.00000000E+00
  0.00000000E+00  0.00000000E+00  0.00000000E+00
  0.00000000E+00  0.00000000E+00  0.00000000E+00
  0.00000000E+00  0.00000000E+00  0.00000000E+00
  0.00000000E+00  0.00000000E+00  0.00000000E+00
  0.00000000E+00  0.00000000E+00  0.00000000E+00
  0.00000000E+00  0.00000000E+00  0.00000000E+00
  0.00000000E+00  0.00000000E+00  0.00000000E+00
  0.00000000E+00  0.00000000E+00  0.00000000E+00
  0.00000000E+00  0.00000000E+00  0.00000000E+00
  0.00000000E+00  0.00000000E+00  0.00000000E+00
  0.00000000E+00  0.00000000E+00  0.00000000E+00
  0.00000000E+00  0.00000000E+00  0.00000000E+00
  0.00000000E+00  0.00000000E+00  0.00000000E+00
  0.00000000E+00  0.00000000E+00  0.00000000E+00
  0.00000000E+00  0.00000000E+00  0.00000000E+00
  0.00000000E+00  0.00000000E+00  0.00000000E+00
  0.00000000E+00  0.00000000E+00  0.00000000E+00
  0.00000000E+00  0.00000000E+00  0.00000000E+00
  0.00000000E+00  0.00000000E+00  0.00000000E+00
  0.00000000E+00  0.00000000E+00  0.00000000E+00
  0.00000000E+00  0.00000000E+00  0.00000000E+00
  0.00000000E+00  0.00000000E+00  0.00000000E+00
  0.00000000E+00  0.00000000E+00  0.00000000E+00
  0.00000000E+00  0.00000000E+00  0.00000000E+00
  0.00000000E+00  0.00000000E+00  0.00000000E+00
  0.00000000E+00  0.00000000E+00  0.00000000E+00
  0.00000000E+00  0.00000000E+00  0.00000000E+00
  0.00000000E+00  0.00000000E+00  0.00000000E+00
  0.00000000E+00  0.00000000E+00  0.00000000E+00
  0.00000000E+00  0.00000000E+00  0.00000000E+00
  0.00000000E+00  0.00000000E+00  0.00000000E+00
  0.00000000E+00  0.00000000E+00  0.00000000E+00
