Nb Ta                                   
    1.000000000000000     
    13.2402885177621794    0.0042598438141365   -0.0033666996405263
     0.0042591420428898   13.2383256027681266   -0.0005581881212322
    -0.0033661521588079   -0.0005579125816510   13.2389691483765723
   Nb   Ta
   108    20
Direct
  0.8757600129908030  0.3757826641115531  0.1253572401911385
  0.1234325313361557  0.8735453804713945  0.8752699297627743
  0.8758510478315135  0.6250349908488333  0.3730031170868654
  0.1254249343664694  0.1252085144492429  0.1251959972869252
  0.6242341252125971  0.6248677335642766  0.3775522844449162
  0.3753640948641067  0.1253912689487946  0.8750414059763275
  0.1253816215072998  0.8758127428619048  0.6248282253985080
  0.7500625089903795  0.0000015717547564  0.7490957269645090
  0.8732796870518945  0.8736081909023150  0.1234792696082583
  0.2505507064704846  0.5003865061791588  0.0011671350504530
  0.1250343684435899  0.3762599502730829  0.3744230116910608
  0.3729171578180201  0.3753886988660423  0.8755484857436202
  0.8776016792987686  0.6270726147561131  0.8767664118332883
  0.3751179147163869  0.6245657381801509  0.1253378581226705
  0.1249270017471825  0.3744779600894800  0.6272036343742622
  0.3757487053391167  0.8751714558718012  0.1262674528775532
 -0.0004193520708693 -0.0001409682922086  0.2495681729466126
  0.7520674744291638  0.5000401301301609  0.4991993356487710
  0.2508554906865242 -0.0001813865173080  0.0000138361028337
  0.6256357102226016  0.1255861338133445  0.3729599849514565
  0.2500341824572559  0.4994500151073220  0.2489277016736705
  0.1234656453830827  0.6246686265378052  0.1250801926063872
  0.3733270296618571  0.6248557135452332  0.3755435702654495
  0.2487557845580327  0.4983064733878085  0.5002092435168842
  0.8750763192447552  0.1250166605696728  0.6241378431758279
  0.0004215300300926  0.7500396374659530  0.7475370483355634
  0.5021002252907641  0.5007198969665678  0.2495824931671784
  0.0014253348256239  0.7509621570956608  0.0003230204532601
  0.1241477637789810  0.1246735469580025  0.6246000107278185
  0.2512074478940219  0.2497670590737589  0.7488295926072494
  0.3749587774124195  0.3763029582063467  0.6249586355053666
  0.1256134691985339  0.8742165530435898  0.3752313267562684
  0.8735506734908309  0.1234470029942471  0.8746289993436525
  0.4986380060926961  0.2492028383325471 -0.0012917551255648
  0.2498964393722214  0.2496390617148918  0.0002389661490803
  0.3777432211309401  0.6252386132267035  0.6242490118176168
  0.6240464786557079  0.3731343775162392  0.8755464515443624
  0.6254241913587959  0.3771551513044055  0.6239821248665288
  0.7482967119993384  0.2496702223941839  0.5000226203137875
  0.5017439030163547  0.5024189295711395  0.0001618622610914
  0.0006289667581070  0.0007908203156675  0.0004569613042666
  0.7505115521066167  0.2518026039447590  0.2496773518361687
  0.2494474969340588  0.0001593651142326  0.2494828868419229
  0.3736978713536068  0.8750203734322350  0.8736739640025367
  0.4997250612614447  0.2500654159540520  0.2517510747373786
  0.3740068296986533  0.1234844281734524  0.6257289141018216
  0.4994932776272542  0.4983802805362472  0.4992477961084847
  0.3744711772027314  0.8745754383492566  0.3753127356188089
  0.6258014171044634  0.6268368073070104  0.1253672868206624
  0.4993691086389155  0.7520528988287791  0.4994083335261895
  0.2489540513699406 -0.0001307259575195  0.7511475163875007
  0.0003551099603372  0.0004300472488333  0.7503035251381686
  0.6262736201856773  0.1247362554867830  0.6266203756182855
  0.8733101325517409  0.1247499970800888  0.1254440242457911
  0.4996125614836689  0.7504909946080800  0.7518952928823294
  0.8756128811640762  0.1253443131270373  0.3759599687864748
  0.2494265526714730  0.2503595498321401  0.2512175659380340
  0.4993041601841204  0.7492712790771003  0.2490657960993979
  0.7520494883946531  0.7504962182190986  0.4995922318034094
  0.1242560389032286  0.1246892826242962  0.3753842017466211
  0.3752075041205870  0.8745368750755564  0.6247448604334930
  0.1251289469417269  0.1268106176669411  0.8749368212668235
  0.6248733215856133  0.8747312460208528  0.3734518163921135
  0.3765067176105588  0.1256670794106503  0.1256210085266154
  0.3751792734429444  0.3756519234337172  0.3743795392434247
  0.6236762569161771  0.3729026260405464  0.1248208825645744
  0.7490981492860896  0.2519803329064746  0.7500131938129332
  0.7500965911522640  0.7483162913218834  0.7501595123476378
  0.2509214747334504  0.0011583522519874  0.4996039311979918
  0.2516134232690560  0.7500427397004090  0.0003556014970000
  0.7515492362509597  0.0005441661113484  0.2505242288390596
  0.1263984853408000  0.6250524063336012  0.6255417421266787
  0.8751774048661762  0.8757603253279684  0.3752375664462335
  0.8746187951064509  0.8758085836734307  0.6265376044821265
  0.0021295929850405  0.2510456651372407  0.4997802075127637
  0.5013737475671465  0.4982170896085689  0.7509629180826161
  0.8723760513296953  0.6253662176626238  0.6251742847607661
 -0.0012034555426158  0.4991389485861703  0.2511571359836017
 -0.0002959568013487  0.2489858660344831  0.7502100300790505
  0.2489854466253289  0.7502218942695293  0.5005627520313704
  0.7477791310432885  0.7482495866362648 -0.0005835624858626
  0.1253237260846256  0.3749548627769473  0.1235245509882842
  0.6247915150946232  0.3747725935910367  0.3758051736310484
  0.2502350390812772  0.7500857664247573  0.2488395328344722
  0.7503189457832083 -0.0000609760385136  0.0003209321467957
  0.5001700538825071  0.0006725190718533  0.7497796155188543
  0.8775642317591750  0.3740952236809933  0.8749173273882099
  0.0002513926795905  0.7515945386300719  0.2514791800393986
  0.6247109491794834  0.8728635520992238  0.6250882908184286
  0.6240764867960022  0.6253469191017760  0.8732280504331055
 -0.0013800063165757  0.4992707370017094  0.0002260464538856
  0.0003397738677231  0.2495543946594052  0.2498474820867189
  0.7498596433116052  0.7483900049570467  0.2509761898773265
  0.8751123705532791  0.3741049654742563  0.3753771904421933
  0.7513147337468465  0.2521567885865644  0.0003870881897045
  0.3756052946934673  0.3749138714428389  0.1250303515225965
  0.2498669873125802  0.7500004934491854  0.7500620901224302
  0.3733036235012934  0.6243216005453115  0.8745333300320327
  0.4995734995904806  0.0000031850608577  0.2504951348972683
 -0.0002411836542722 -0.0019974762117143  0.4998585293264965
  0.2507530770883771  0.5002582223102207  0.7492333680782148
  0.3744868623707968  0.1246126062433439  0.3738097588017891
 -0.0025380023780547  0.5004204292362529  0.7480505398758162
  0.1252145238531152  0.8751844310963720  0.1247469274044839
 -0.0000007294232437  0.2486437720041617  0.0001947207055726
  0.6271935326375850  0.8767760038967395  0.8750803555962093
  0.8745071763404575  0.3736353549452273  0.6245437797527749
  0.7483722023867704 -0.0003059479217705  0.5000299526343236
  0.1253718152510657  0.3765609632858994  0.8744748278184939
  0.4985890187544711 -0.0024396310299571 -0.0005371649884763
  0.8755330020459432  0.8750439492882243  0.8747490021619747
  0.6256372466574079  0.1253791697978527  0.8765555709995303
  0.6241144147847791  0.6247521766725133  0.6239884370210333
  0.2512431948289941  0.2501400292208622  0.4997442441322016
  0.6249445750882334  0.1241114107253802  0.1238054433905231
  0.4992637514828511  0.7518730441866750 -0.0005853402072314
  0.1251223631102039  0.6229308922368317  0.8749389975972486
  0.7494452736219001  0.4997589870139855 -0.0003937161280444
  0.4981931543945073  0.2473549399926785  0.5019826316225955
  0.1262300310183460  0.6249693926684512  0.3741479099230169
 -0.0002690430476786  0.5019752195780097  0.5006335522243869
  0.7506209043922140  0.4997370616188647  0.7531417586232323
  0.8757377259338516  0.6258767602851620  0.1252273196650974
  0.6258663546612956  0.8767030986542155  0.1261963191233507
 -0.0002083188304962  0.7490234150743565  0.5006903712669214
  0.4995548333039880  0.2502290555796391  0.7476847641866540
  0.5008597677252389  0.0016297177478508  0.5000438259963368
  0.7491661655115069  0.4995620485015043  0.2483384012631708
 
  0.00000000E+00  0.00000000E+00  0.00000000E+00
  0.00000000E+00  0.00000000E+00  0.00000000E+00
  0.00000000E+00  0.00000000E+00  0.00000000E+00
  0.00000000E+00  0.00000000E+00  0.00000000E+00
  0.00000000E+00  0.00000000E+00  0.00000000E+00
  0.00000000E+00  0.00000000E+00  0.00000000E+00
  0.00000000E+00  0.00000000E+00  0.00000000E+00
  0.00000000E+00  0.00000000E+00  0.00000000E+00
  0.00000000E+00  0.00000000E+00  0.00000000E+00
  0.00000000E+00  0.00000000E+00  0.00000000E+00
  0.00000000E+00  0.00000000E+00  0.00000000E+00
  0.00000000E+00  0.00000000E+00  0.00000000E+00
  0.00000000E+00  0.00000000E+00  0.00000000E+00
  0.00000000E+00  0.00000000E+00  0.00000000E+00
  0.00000000E+00  0.00000000E+00  0.00000000E+00
  0.00000000E+00  0.00000000E+00  0.00000000E+00
  0.00000000E+00  0.00000000E+00  0.00000000E+00
  0.00000000E+00  0.00000000E+00  0.00000000E+00
  0.00000000E+00  0.00000000E+00  0.00000000E+00
  0.00000000E+00  0.00000000E+00  0.00000000E+00
  0.00000000E+00  0.00000000E+00  0.00000000E+00
  0.00000000E+00  0.00000000E+00  0.00000000E+00
  0.00000000E+00  0.00000000E+00  0.00000000E+00
  0.00000000E+00  0.00000000E+00  0.00000000E+00
  0.00000000E+00  0.00000000E+00  0.00000000E+00
  0.00000000E+00  0.00000000E+00  0.00000000E+00
  0.00000000E+00  0.00000000E+00  0.00000000E+00
  0.00000000E+00  0.00000000E+00  0.00000000E+00
  0.00000000E+00  0.00000000E+00  0.00000000E+00
  0.00000000E+00  0.00000000E+00  0.00000000E+00
  0.00000000E+00  0.00000000E+00  0.00000000E+00
  0.00000000E+00  0.00000000E+00  0.00000000E+00
  0.00000000E+00  0.00000000E+00  0.00000000E+00
  0.00000000E+00  0.00000000E+00  0.00000000E+00
  0.00000000E+00  0.00000000E+00  0.00000000E+00
  0.00000000E+00  0.00000000E+00  0.00000000E+00
  0.00000000E+00  0.00000000E+00  0.00000000E+00
  0.00000000E+00  0.00000000E+00  0.00000000E+00
  0.00000000E+00  0.00000000E+00  0.00000000E+00
  0.00000000E+00  0.00000000E+00  0.00000000E+00
  0.00000000E+00  0.00000000E+00  0.00000000E+00
  0.00000000E+00  0.00000000E+00  0.00000000E+00
  0.00000000E+00  0.00000000E+00  0.00000000E+00
  0.00000000E+00  0.00000000E+00  0.00000000E+00
  0.00000000E+00  0.00000000E+00  0.00000000E+00
  0.00000000E+00  0.00000000E+00  0.00000000E+00
  0.00000000E+00  0.00000000E+00  0.00000000E+00
  0.00000000E+00  0.00000000E+00  0.00000000E+00
  0.00000000E+00  0.00000000E+00  0.00000000E+00
  0.00000000E+00  0.00000000E+00  0.00000000E+00
  0.00000000E+00  0.00000000E+00  0.00000000E+00
  0.00000000E+00  0.00000000E+00  0.00000000E+00
  0.00000000E+00  0.00000000E+00  0.00000000E+00
  0.00000000E+00  0.00000000E+00  0.00000000E+00
  0.00000000E+00  0.00000000E+00  0.00000000E+00
  0.00000000E+00  0.00000000E+00  0.00000000E+00
  0.00000000E+00  0.00000000E+00  0.00000000E+00
  0.00000000E+00  0.00000000E+00  0.00000000E+00
  0.00000000E+00  0.00000000E+00  0.00000000E+00
  0.00000000E+00  0.00000000E+00  0.00000000E+00
  0.00000000E+00  0.00000000E+00  0.00000000E+00
  0.00000000E+00  0.00000000E+00  0.00000000E+00
  0.00000000E+00  0.00000000E+00  0.00000000E+00
  0.00000000E+00  0.00000000E+00  0.00000000E+00
  0.00000000E+00  0.00000000E+00  0.00000000E+00
  0.00000000E+00  0.00000000E+00  0.00000000E+00
  0.00000000E+00  0.00000000E+00  0.00000000E+00
  0.00000000E+00  0.00000000E+00  0.00000000E+00
  0.00000000E+00  0.00000000E+00  0.00000000E+00
  0.00000000E+00  0.00000000E+00  0.00000000E+00
  0.00000000E+00  0.00000000E+00  0.00000000E+00
  0.00000000E+00  0.00000000E+00  0.00000000E+00
  0.00000000E+00  0.00000000E+00  0.00000000E+00
  0.00000000E+00  0.00000000E+00  0.00000000E+00
  0.00000000E+00  0.00000000E+00  0.00000000E+00
  0.00000000E+00  0.00000000E+00  0.00000000E+00
  0.00000000E+00  0.00000000E+00  0.00000000E+00
  0.00000000E+00  0.00000000E+00  0.00000000E+00
  0.00000000E+00  0.00000000E+00  0.00000000E+00
  0.00000000E+00  0.00000000E+00  0.00000000E+00
  0.00000000E+00  0.00000000E+00  0.00000000E+00
  0.00000000E+00  0.00000000E+00  0.00000000E+00
  0.00000000E+00  0.00000000E+00  0.00000000E+00
  0.00000000E+00  0.00000000E+00  0.00000000E+00
  0.00000000E+00  0.00000000E+00  0.00000000E+00
  0.00000000E+00  0.00000000E+00  0.00000000E+00
  0.00000000E+00  0.00000000E+00  0.00000000E+00
  0.00000000E+00  0.00000000E+00  0.00000000E+00
  0.00000000E+00  0.00000000E+00  0.00000000E+00
  0.00000000E+00  0.00000000E+00  0.00000000E+00
  0.00000000E+00  0.00000000E+00  0.00000000E+00
  0.00000000E+00  0.00000000E+00  0.00000000E+00
  0.00000000E+00  0.00000000E+00  0.00000000E+00
  0.00000000E+00  0.00000000E+00  0.00000000E+00
  0.00000000E+00  0.00000000E+00  0.00000000E+00
  0.00000000E+00  0.00000000E+00  0.00000000E+00
  0.00000000E+00  0.00000000E+00  0.00000000E+00
  0.00000000E+00  0.00000000E+00  0.00000000E+00
  0.00000000E+00  0.00000000E+00  0.00000000E+00
  0.00000000E+00  0.00000000E+00  0.00000000E+00
  0.00000000E+00  0.00000000E+00  0.00000000E+00
  0.00000000E+00  0.00000000E+00  0.00000000E+00
  0.00000000E+00  0.00000000E+00  0.00000000E+00
  0.00000000E+00  0.00000000E+00  0.00000000E+00
  0.00000000E+00  0.00000000E+00  0.00000000E+00
  0.00000000E+00  0.00000000E+00  0.00000000E+00
  0.00000000E+00  0.00000000E+00  0.00000000E+00
  0.00000000E+00  0.00000000E+00  0.00000000E+00
  0.00000000E+00  0.00000000E+00  0.00000000E+00
  0.00000000E+00  0.00000000E+00  0.00000000E+00
  0.00000000E+00  0.00000000E+00  0.00000000E+00
  0.00000000E+00  0.00000000E+00  0.00000000E+00
  0.00000000E+00  0.00000000E+00  0.00000000E+00
  0.00000000E+00  0.00000000E+00  0.00000000E+00
  0.00000000E+00  0.00000000E+00  0.00000000E+00
  0.00000000E+00  0.00000000E+00  0.00000000E+00
  0.00000000E+00  0.00000000E+00  0.00000000E+00
  0.00000000E+00  0.00000000E+00  0.00000000E+00
  0.00000000E+00  0.00000000E+00  0.00000000E+00
  0.00000000E+00  0.00000000E+00  0.00000000E+00
  0.00000000E+00  0.00000000E+00  0.00000000E+00
  0.00000000E+00  0.00000000E+00  0.00000000E+00
  0.00000000E+00  0.00000000E+00  0.00000000E+00
  0.00000000E+00  0.00000000E+00  0.00000000E+00
  0.00000000E+00  0.00000000E+00  0.00000000E+00
  0.00000000E+00  0.00000000E+00  0.00000000E+00
  0.00000000E+00  0.00000000E+00  0.00000000E+00
  0.00000000E+00  0.00000000E+00  0.00000000E+00
