Hf Ta                                   
    1.000000000000000     
    13.5725237184134588   -0.0331166388190406   -0.0099769028890975
    -6.8939344679069308    9.5959002864689804    0.0101876259845471
    -0.0114863283453374    0.0309197053569411   19.1840978052709481
  Hf             Ta           
              40              88
Direct
  0.3150801050960583  0.3837558641221201  0.8076008048390136
  0.0560080664622536  0.8723006292986518  0.0588432545460795
  0.8172934703310704  0.6259580429902691  0.8129971838190320
  0.9430239684013356  0.3767418358659604  0.6894256208621816
  0.8118222727588278  0.6345633758868123  0.5628977687956270
  0.5746864986698355  0.1388996924683041  0.8100623006766703
  0.9394521666802066  0.8769653602143820  0.6868474245209844
  0.3107999058626904  0.6159251890182673  0.3120340224907804
  0.5668942773795288  0.1258469253350767  0.0584344883113267
  0.4350224976547075  0.0840420256122452  0.1891342691888973
  0.3139700336047735  0.6237443266916517  0.0592454209909079
  0.5650970850259246  0.8786846155938239  0.3147592098784119
  0.3228378929252363  0.1236710044819836  0.0576552266967105
  0.5752811040147998  0.1430492107414903  0.3186377196407351
  0.1859789446177908  0.3782585102849896  0.1910609493038711
  0.3181209689801872  0.3677720601879212  0.0693273468416037
  0.1769046098984769  0.8841448468362020  0.1940808024064521
  0.6876779576417569  0.6306658434265303  0.1853528556649359
  0.3138496059392149  0.8735078919778022  0.8118602029123809
  0.9380564754562186  0.3735540582032103  0.4320092720848797
  0.6699316408231227  0.6151840130143460  0.6924267482911705
  0.4429797852892269  0.1397298253197863  0.4461519048535471
  0.4246508847602237  0.1198409167089184  0.6857680241228322
  0.1844336654320811  0.3726698525423787  0.9400951014052670
  0.4385758200962496  0.3598658393428506  0.1962957650265110
  0.1892699178758824  0.8719603695618720  0.4335833919275349
  0.1819774757426988  0.1294371709890713  0.4366786063502254
  0.9361439504788390  0.6191080882552156  0.1876742237515704
  0.3106687684485093  0.1278797841552244  0.8198741106197102
  0.0569828719742396  0.1260152297730651  0.5670782560238142
  0.6793817682849806  0.3654954511855497  0.1869670461262210
  0.5693923790206062  0.1212145727499251  0.5675373965013102
  0.8113241038489108  0.8770020157131350  0.3144730292525193
  0.3126990090449313  0.1220641420028381  0.3107376327692047
  0.1799735918198066  0.3752832969944462  0.6843446117059480
  0.6944702856340708  0.3740527166339127  0.6900089833949337
  0.4390226961073647  0.3669449464377214  0.9350453458289151
  0.8259380997659910  0.3888173876091293  0.5582033255973059
  0.8148531806959891  0.8716452779377856  0.0622420506636392
  0.1784348958460963  0.6323375823572746  0.1853943934496121
  0.9535654337186441  0.6326684188059224  0.6853598046506708
  0.5527622177635387  0.3691667011035960  0.5605518250613222
  0.8123822415174111  0.6239806350809179  0.3161265385405343
  0.5574862459172319  0.6237534025128942  0.5616863680494718
  0.9328114053324051  0.6239698232178399  0.4381253125953948
  0.4420369336086952  0.8514937238966424  0.1801840463754927
  0.6836300824733395  0.8733212514921810  0.4421281208797881
  0.6853044118152263  0.6308387152585461  0.4357884401546746
  0.3128521515205225  0.3803423251963488  0.5599654868172488
  0.1937607872788684  0.6262621541735199  0.4416537625476453
  0.8129657420351468  0.1238286471204011  0.8153121742090412
  0.6919393189210710  0.3809613846822489  0.4357583666582298
  0.6853620897715157  0.8825656987388755  0.1839553047485957
  0.5722787110501122  0.3916913992240819  0.0588250590688263
  0.4543389615128968  0.6266296269570607  0.1850481081876620
  0.0454622794006799  0.8731981028971256  0.3177456719827178
  0.5622820631290314  0.3890878976167150  0.8055748723244782
  0.4422519020484077  0.8740029314929769  0.6840768797254282
  0.4389030044923610  0.1040066378705004  0.9342503975463231
  0.4371181996621709  0.6275148090447348  0.4401199901298645
  0.6941377503941561  0.1256985778161790  0.9354097837859185
  0.9310000161686216  0.8667377438381404  0.9306756930089758
  0.6886092208142318  0.3750919606502230  0.9359509696790529
  0.0673783306662074  0.6314927730622630  0.3189755996479955
  0.4430567076391514  0.6313149535154917  0.9320008083759486
  0.1657078057834438  0.1049020999996949  0.9399502599630343
  0.1800050031523726  0.1321473052086133  0.1828350398797123
  0.0570143660114165  0.3711420051001708  0.3116628529974192
  0.3227316659320539  0.8704534531247134  0.3085070333609284
  0.8170205723250539  0.1377352375122790  0.3125636441318192
  0.0603476424532111  0.1327456178978831  0.3092429273832543
  0.4428726640689868  0.8733401606877588  0.9385476481589946
  0.6838964610589630  0.8718907647587500  0.6882509118434386
  0.8015378738917476  0.8755190640976921  0.5600451283593698
  0.1889062946139970  0.6296715890605774  0.9322274984195864
  0.4382429721463593  0.6285988086760719  0.6881386791126254
  0.9413056094231790  0.3737371439694059  0.9382691592318938
  0.0601211870718670  0.1347822750997827  0.0609355193078623
  0.9221339667959125  0.1166101497072168  0.6940218300436705
  0.5711165155621357  0.8752026986952579  0.0580382207238014
  0.0607069465776938  0.6214787173330196  0.8118976978391251
  0.0725981131186867  0.6373072021817273  0.5607519882334840
  0.4277670946016537  0.3724961652091306  0.6808951663686464
  0.9513406458687858  0.8867180205716817  0.1923535877589431
  0.8193688575689236  0.3786861854081854  0.0585915839714495
  0.1933981294293844  0.1280375759589394  0.6900498846645262
  0.4402902429723178  0.3874757447134183  0.4415009748774534
  0.5658485015922129  0.6342531717328831  0.8166861425946695
  0.3127359317758365  0.6256309696163872  0.5638949875023243
  0.8122704996210490  0.8794683863298336  0.8134885474454674
  0.5605789420638984  0.6274687250297307  0.0556272268893808
  0.9394620592734785  0.6208679639245600  0.9375125365267283
  0.0635206342027387  0.3856764388001007  0.5575057011353972
  0.3109192752156258  0.6254520041144798  0.8105028477255394
  0.6899303443068291  0.6278932668619379  0.9391726495773245
  0.5698938054654399  0.3900565768565709  0.3231701679856133
  0.6888399374078866  0.1195483124361215  0.1872486722811664
  0.6875766099486068  0.8743250608785393  0.9356103346843061
  0.3066541971082493  0.3664344194989423  0.3229829674044537
  0.9320574561388543  0.1192496757963046  0.9377182906008763
  0.0653870905878016  0.8743479286924228  0.8145964327368943
  0.5598094161053425  0.8676989063473455  0.5624508659788945
  0.8127201018939878  0.1234149051902336  0.5617046016223838
  0.0627679859897706  0.3749168550056179  0.8154549253110022
  0.3041159883206176  0.1300691582514433  0.5653659296024272
  0.9327527085889016  0.3646881404167176  0.1854423275839024
  0.3093976890635886  0.8681543124756821  0.0592754293201775
  0.9303717811658698  0.8691079922461714  0.4436112121967921
  0.0515109817400528  0.3703633650488480  0.0625568430849964
  0.0633262263208388  0.6204031573592486  0.0546414861754164
  0.0685896905737473  0.8772373996742425  0.5607507607414149
  0.9322334187284462  0.1229932156442472  0.1871730298076742
  0.1880845744832768  0.8737793749622408  0.9372258413419380
  0.3120316682601822  0.8748454977058219  0.5648562190590893
  0.5510797699915145  0.6157711872643638  0.3157157089903511
  0.1942504594881327  0.6392414367459789  0.6880239652655905
  0.8102397536874659  0.1244316234855619  0.0614386242518939
  0.6865553508791989  0.1156085996966623  0.4396477351510971
  0.8259922069591428  0.3936132576116400  0.3083081178156005
  0.9324978311712038  0.1187472381748370  0.4357929686271241
  0.1798228235849288  0.8734502093003262  0.6861696409795830
  0.1826800210567155  0.3790202333484923  0.4387486621477101
  0.4351545266653757  0.8748160642162636  0.4407753828859509
  0.0580194099480610  0.1194018127261981  0.8140035029309104
  0.8090171658576700  0.6095712693417531  0.0558419318380257
  0.5615286056766035  0.8735103319758580  0.8112689087517726
  0.6937399664936357  0.1088859693770242  0.6891202210876256
  0.8249659031268662  0.3766883650789201  0.8215449388448988
 
  0.00000000E+00  0.00000000E+00  0.00000000E+00
  0.00000000E+00  0.00000000E+00  0.00000000E+00
  0.00000000E+00  0.00000000E+00  0.00000000E+00
  0.00000000E+00  0.00000000E+00  0.00000000E+00
  0.00000000E+00  0.00000000E+00  0.00000000E+00
  0.00000000E+00  0.00000000E+00  0.00000000E+00
  0.00000000E+00  0.00000000E+00  0.00000000E+00
  0.00000000E+00  0.00000000E+00  0.00000000E+00
  0.00000000E+00  0.00000000E+00  0.00000000E+00
  0.00000000E+00  0.00000000E+00  0.00000000E+00
  0.00000000E+00  0.00000000E+00  0.00000000E+00
  0.00000000E+00  0.00000000E+00  0.00000000E+00
  0.00000000E+00  0.00000000E+00  0.00000000E+00
  0.00000000E+00  0.00000000E+00  0.00000000E+00
  0.00000000E+00  0.00000000E+00  0.00000000E+00
  0.00000000E+00  0.00000000E+00  0.00000000E+00
  0.00000000E+00  0.00000000E+00  0.00000000E+00
  0.00000000E+00  0.00000000E+00  0.00000000E+00
  0.00000000E+00  0.00000000E+00  0.00000000E+00
  0.00000000E+00  0.00000000E+00  0.00000000E+00
  0.00000000E+00  0.00000000E+00  0.00000000E+00
  0.00000000E+00  0.00000000E+00  0.00000000E+00
  0.00000000E+00  0.00000000E+00  0.00000000E+00
  0.00000000E+00  0.00000000E+00  0.00000000E+00
  0.00000000E+00  0.00000000E+00  0.00000000E+00
  0.00000000E+00  0.00000000E+00  0.00000000E+00
  0.00000000E+00  0.00000000E+00  0.00000000E+00
  0.00000000E+00  0.00000000E+00  0.00000000E+00
  0.00000000E+00  0.00000000E+00  0.00000000E+00
  0.00000000E+00  0.00000000E+00  0.00000000E+00
  0.00000000E+00  0.00000000E+00  0.00000000E+00
  0.00000000E+00  0.00000000E+00  0.00000000E+00
  0.00000000E+00  0.00000000E+00  0.00000000E+00
  0.00000000E+00  0.00000000E+00  0.00000000E+00
  0.00000000E+00  0.00000000E+00  0.00000000E+00
  0.00000000E+00  0.00000000E+00  0.00000000E+00
  0.00000000E+00  0.00000000E+00  0.00000000E+00
  0.00000000E+00  0.00000000E+00  0.00000000E+00
  0.00000000E+00  0.00000000E+00  0.00000000E+00
  0.00000000E+00  0.00000000E+00  0.00000000E+00
  0.00000000E+00  0.00000000E+00  0.00000000E+00
  0.00000000E+00  0.00000000E+00  0.00000000E+00
  0.00000000E+00  0.00000000E+00  0.00000000E+00
  0.00000000E+00  0.00000000E+00  0.00000000E+00
  0.00000000E+00  0.00000000E+00  0.00000000E+00
  0.00000000E+00  0.00000000E+00  0.00000000E+00
  0.00000000E+00  0.00000000E+00  0.00000000E+00
  0.00000000E+00  0.00000000E+00  0.00000000E+00
  0.00000000E+00  0.00000000E+00  0.00000000E+00
  0.00000000E+00  0.00000000E+00  0.00000000E+00
  0.00000000E+00  0.00000000E+00  0.00000000E+00
  0.00000000E+00  0.00000000E+00  0.00000000E+00
  0.00000000E+00  0.00000000E+00  0.00000000E+00
  0.00000000E+00  0.00000000E+00  0.00000000E+00
  0.00000000E+00  0.00000000E+00  0.00000000E+00
  0.00000000E+00  0.00000000E+00  0.00000000E+00
  0.00000000E+00  0.00000000E+00  0.00000000E+00
  0.00000000E+00  0.00000000E+00  0.00000000E+00
  0.00000000E+00  0.00000000E+00  0.00000000E+00
  0.00000000E+00  0.00000000E+00  0.00000000E+00
  0.00000000E+00  0.00000000E+00  0.00000000E+00
  0.00000000E+00  0.00000000E+00  0.00000000E+00
  0.00000000E+00  0.00000000E+00  0.00000000E+00
  0.00000000E+00  0.00000000E+00  0.00000000E+00
  0.00000000E+00  0.00000000E+00  0.00000000E+00
  0.00000000E+00  0.00000000E+00  0.00000000E+00
  0.00000000E+00  0.00000000E+00  0.00000000E+00
  0.00000000E+00  0.00000000E+00  0.00000000E+00
  0.00000000E+00  0.00000000E+00  0.00000000E+00
  0.00000000E+00  0.00000000E+00  0.00000000E+00
  0.00000000E+00  0.00000000E+00  0.00000000E+00
  0.00000000E+00  0.00000000E+00  0.00000000E+00
  0.00000000E+00  0.00000000E+00  0.00000000E+00
  0.00000000E+00  0.00000000E+00  0.00000000E+00
  0.00000000E+00  0.00000000E+00  0.00000000E+00
  0.00000000E+00  0.00000000E+00  0.00000000E+00
  0.00000000E+00  0.00000000E+00  0.00000000E+00
  0.00000000E+00  0.00000000E+00  0.00000000E+00
  0.00000000E+00  0.00000000E+00  0.00000000E+00
  0.00000000E+00  0.00000000E+00  0.00000000E+00
  0.00000000E+00  0.00000000E+00  0.00000000E+00
  0.00000000E+00  0.00000000E+00  0.00000000E+00
  0.00000000E+00  0.00000000E+00  0.00000000E+00
  0.00000000E+00  0.00000000E+00  0.00000000E+00
  0.00000000E+00  0.00000000E+00  0.00000000E+00
  0.00000000E+00  0.00000000E+00  0.00000000E+00
  0.00000000E+00  0.00000000E+00  0.00000000E+00
  0.00000000E+00  0.00000000E+00  0.00000000E+00
  0.00000000E+00  0.00000000E+00  0.00000000E+00
  0.00000000E+00  0.00000000E+00  0.00000000E+00
  0.00000000E+00  0.00000000E+00  0.00000000E+00
  0.00000000E+00  0.00000000E+00  0.00000000E+00
  0.00000000E+00  0.00000000E+00  0.00000000E+00
  0.00000000E+00  0.00000000E+00  0.00000000E+00
  0.00000000E+00  0.00000000E+00  0.00000000E+00
  0.00000000E+00  0.00000000E+00  0.00000000E+00
  0.00000000E+00  0.00000000E+00  0.00000000E+00
  0.00000000E+00  0.00000000E+00  0.00000000E+00
  0.00000000E+00  0.00000000E+00  0.00000000E+00
  0.00000000E+00  0.00000000E+00  0.00000000E+00
  0.00000000E+00  0.00000000E+00  0.00000000E+00
  0.00000000E+00  0.00000000E+00  0.00000000E+00
  0.00000000E+00  0.00000000E+00  0.00000000E+00
  0.00000000E+00  0.00000000E+00  0.00000000E+00
  0.00000000E+00  0.00000000E+00  0.00000000E+00
  0.00000000E+00  0.00000000E+00  0.00000000E+00
  0.00000000E+00  0.00000000E+00  0.00000000E+00
  0.00000000E+00  0.00000000E+00  0.00000000E+00
  0.00000000E+00  0.00000000E+00  0.00000000E+00
  0.00000000E+00  0.00000000E+00  0.00000000E+00
  0.00000000E+00  0.00000000E+00  0.00000000E+00
  0.00000000E+00  0.00000000E+00  0.00000000E+00
  0.00000000E+00  0.00000000E+00  0.00000000E+00
  0.00000000E+00  0.00000000E+00  0.00000000E+00
  0.00000000E+00  0.00000000E+00  0.00000000E+00
  0.00000000E+00  0.00000000E+00  0.00000000E+00
  0.00000000E+00  0.00000000E+00  0.00000000E+00
  0.00000000E+00  0.00000000E+00  0.00000000E+00
  0.00000000E+00  0.00000000E+00  0.00000000E+00
  0.00000000E+00  0.00000000E+00  0.00000000E+00
  0.00000000E+00  0.00000000E+00  0.00000000E+00
  0.00000000E+00  0.00000000E+00  0.00000000E+00
  0.00000000E+00  0.00000000E+00  0.00000000E+00
  0.00000000E+00  0.00000000E+00  0.00000000E+00
  0.00000000E+00  0.00000000E+00  0.00000000E+00
  0.00000000E+00  0.00000000E+00  0.00000000E+00
  0.00000000E+00  0.00000000E+00  0.00000000E+00
  0.00000000E+00  0.00000000E+00  0.00000000E+00
