Nb Ti                                   
    1.000000000000000     
    11.3039743115404985   -1.0091020313529950    0.0573549278519278
    -6.5813578346098636   11.3271058328398748   -0.1152940316665877
    -0.0639703390404990    0.0900757966327973   18.5731891309648738
  Nb              Ti            
    76    52
Direct
     0.3789934811752275    0.8113673247675227    0.6876435971796101
     0.8718544913450506    0.8089625238329469    0.4370563290666181
     0.3755869028393036    0.3127871104977201    0.1822613890858283
     0.8766171195975307    0.3110200430468132    0.1898338928025210
     0.1273782845986180    0.8051390249621849    0.1879664250251169
     0.8753240704026577    0.8142811171982528    0.9364743699758287
     0.3826399576753557    0.8101220894060027    0.9360349479728250
     0.1171718881688316    0.1835305009513614    0.5607635243457639
     0.1215006022273939    0.6813837495070002    0.3136532669733350
     0.8806452925369603    0.1918827669513714    0.3134433686337244
     0.8728026445861338    0.4350189947963132    0.5613907939071064
     0.6183947216453429    0.6845373971012830    0.0631144173810931
     0.6215985209393654    0.3072212621122037    0.9382746457644995
     0.6200947091266317    0.0662847315684287    0.1882530521006022
     0.6257264489429867    0.8092301972173117    0.4337604590348832
     0.3810433024397774    0.8103620820737193    0.4369650013749816
     0.3823704014495470    0.0644043196503867    0.6873698524370379
     0.6210665977666776    0.3141972276105636    0.6872727704003990
     0.3841114508726953    0.8144361418231120    0.1881667533238683
     0.3798466682322352    0.3202527595126742    0.4334614416465391
     0.8786297226332624    0.9411419125633497    0.8115793007324765
     0.3715741693710955    0.1831258008310199    0.8122992642694621
     0.8750028037979926    0.3135652459035258    0.4362279782512569
     0.1227499931456398    0.9364824131626751    0.5642234621035008
     0.6283000473695924    0.1900648059317020    0.0630093910138354
     0.3827053430433376    0.4418192122987070    0.8108244916814435
     0.6244648720198470    0.8144674519818772    0.6878285760451033
     0.1248320544624474    0.5621012990295891    0.4376821768286873
     0.6296399376888697    0.5646647534656352    0.9389307387141015
     0.8698470788175036    0.3122777949203538    0.6879249874757303
     0.6196150156741996    0.0644371156506093    0.4376506805760476
     0.6299916982831791    0.8141414899617899    0.9410363143736145
     0.1274020392963658    0.9378609429376924    0.3080718452002351
     0.8762239512913754    0.6885061257482945    0.3125519198408496
     0.3758326848371510    0.6896991491121479    0.3123492105703038
     0.8756845822502215    0.5656757064191349    0.6873490633678152
     0.1208819283043185    0.1872188055932746    0.3144468782256646
     0.1309324993556591    0.4386166611771963    0.8126432845179284
     0.1321574197708991    0.8172107227906977    0.6858826293394945
     0.3708008779355565    0.1880329339316369    0.3129842168430038
     0.6253050197142390    0.4339728390533830    0.8124981662353591
     0.8805911668827475    0.1913094859991322    0.0664730206076101
     0.1224301604580465    0.0574664964142474    0.9390095509414081
     0.6238830631366259    0.5608739838632602    0.4397839598658027
     0.1221107321227870    0.3119692057456747    0.9347077761446735
     0.1230814451126287    0.6868604478845531    0.8115893200401845
     0.3738070280385464    0.3158332898226606    0.9396344703443191
     0.1238767261253286    0.4348044980501590    0.0596167301008623
     0.8705927526260551    0.5639559024563269    0.1884404507577689
     0.1232647661146148    0.6920617729369238    0.0625846641497575
     0.8721156433179804    0.5561676001304219    0.9385223549151323
     0.6262795964169661    0.4332371577771655    0.5625121703862054
     0.3759330735065973    0.1861297399783046    0.0651292211768507
     0.8809402805935331    0.9374226307922973    0.5616631144177237
     0.8835327487965976    0.9391312118547012    0.3136477427031046
     0.8734344450508085    0.4349418638681488    0.3097386950773838
     0.3784363919437573    0.0661551449477435    0.4406339345720848
     0.6261589439002395    0.6881036499730318    0.3103744334972057
     0.1228011320072752    0.9391248150388325    0.8105997906762674
     0.6250795844786782    0.6914051761531694    0.8112983303643356
     0.3730916930612618    0.4402086095392607    0.0634771510441332
     0.6269489956543921    0.8097664845449644    0.1837548265930622
     0.6200410899620137    0.1849829150949467    0.3121883884061097
     0.1273909875293905    0.5677743214956449    0.9388568466905465
     0.8720786401265980    0.0555001997123444    0.6885921734708774
     0.3746655651220644    0.6900472984076961    0.8114594818035553
     0.1182143301282504    0.3068157378406089    0.6852951575934159
     0.3707487060417124    0.3153190683317011    0.6903662244517733
     0.1231255493260123    0.5619839923901191    0.6870867713384547
     0.1287164245766772    0.4409144250018758    0.5633898282639079
     0.1198966636794588    0.6838350143826076    0.5605940498992718
     0.3705660986833112    0.0643473588192854    0.9395180101833176
     0.8760519197073862    0.4356399854423950    0.8124423880722353
     0.8748628439065640    0.6871691209753648    0.8128321238608599
     0.8783992582812105    0.4416729221879073    0.0661761103304413
     0.3741581943473297    0.6904597283179570    0.5610231730141152
     0.6252762639237106    0.3115273525077710    0.1884629684270260
     0.6117330129788037    0.0606581441794457    0.9394094096191430
     0.6232861076986818    0.4345295153268543    0.0627744151821515
     0.1264131422306112    0.0645818873313918    0.6860182665700161
     0.8740213727044682    0.9316179708432534    0.0616704450687353
     0.1281428992779447    0.0637915639371098    0.4376331305063845
     0.8773484467948736    0.0657634145674295    0.9394653016394734
     0.3790151214571135    0.4358499395199204    0.3062399074137066
     0.6304948635204323    0.4385114770118292    0.3171853722033108
     0.3742747790262209    0.9340842387410313    0.3156217156801195
     0.6210927890762972    0.6930279069199731    0.5618876275625152
     0.1302422388517703    0.4410395942484107    0.3134230366315694
     0.8631437429707696    0.0564665479649972    0.1889882281847910
     0.8714468345181616    0.6890300416242200    0.0606002296669212
     0.6248819862476662    0.5609983329074796    0.6866866122174068
     0.8771521133773208    0.8128922781335793    0.6862243528938325
     0.8824712129773016    0.8154771849076669    0.1885355841743428
     0.8750441159869614    0.1908827045388598    0.5641695597110939
     0.1256110086331272    0.5631729958681275    0.1862510052665697
     0.8784994392178107    0.1902296323678580    0.8113695896897850
     0.8685649613252985    0.0592237340657509    0.4374911990097334
     0.3730995350268437    0.4312214478274531    0.5605969870850281
     0.6338897188483784    0.9456520477077935    0.0647511478157096
     0.3742480065136634    0.5640084160132336    0.6850196261877954
     0.1211036415112016    0.3080705061216590    0.4402174488064741
     0.6308663043831154    0.9363436810580068    0.5585608391094001
     0.1288209909836162    0.9364405340599213    0.0684409161273787
     0.3760626373054058    0.5627097405958004    0.9364563144309466
     0.3707976380331550    0.6899224816369063    0.0630446167932725
     0.8734921166802125    0.5599173455661401    0.4348537663309244
     0.1220912714488968    0.0728496942584989    0.1880823086453160
     0.6146654710778009    0.1828720981264127    0.5650526696766937
     0.1291583140320303    0.1890606113637996    0.8132660867473820
     0.3717548556680693    0.5593898659871405    0.4355264067579036
     0.6210589482325513    0.5597311912032417    0.1890889611311684
     0.3643835831352636    0.0574652702657562    0.1892092209679125
     0.1309710987919296    0.8174760488244310    0.4371275282457896
     0.3794489379435154    0.9355873477243470    0.0592618104624668
     0.6292596857704631    0.9392270421700858    0.8162253094787915
     0.8754090882318680    0.3131932465080375    0.9394116700396421
     0.6245998814694711    0.1873824447322730    0.8107056245623029
     0.1245804759201378    0.3096309033942991    0.1877513470107843
     0.3752429577239256    0.5657013750614770    0.1885943303236988
     0.6342836724935552    0.0620999335245891    0.6884367701742174
     0.3678730164332446    0.1919618137804677    0.5623264878592099
     0.6353936359729052    0.9430173715399145    0.3113264768795055
     0.3692986903699090    0.9299378021048380    0.5608231744969920
     0.6226741415638034    0.3084579184710247    0.4392742961999713
     0.1265053280584866    0.8144359243318471    0.9375598169492932
     0.3721986197763155    0.9358149879070757    0.8149705479019433
     0.8693096398054024    0.6836377346787295    0.5611809323390601
     0.1246545556051345    0.1885317607190693    0.0585812927515459
 
  0.00000000E+00  0.00000000E+00  0.00000000E+00
  0.00000000E+00  0.00000000E+00  0.00000000E+00
  0.00000000E+00  0.00000000E+00  0.00000000E+00
  0.00000000E+00  0.00000000E+00  0.00000000E+00
  0.00000000E+00  0.00000000E+00  0.00000000E+00
  0.00000000E+00  0.00000000E+00  0.00000000E+00
  0.00000000E+00  0.00000000E+00  0.00000000E+00
  0.00000000E+00  0.00000000E+00  0.00000000E+00
  0.00000000E+00  0.00000000E+00  0.00000000E+00
  0.00000000E+00  0.00000000E+00  0.00000000E+00
  0.00000000E+00  0.00000000E+00  0.00000000E+00
  0.00000000E+00  0.00000000E+00  0.00000000E+00
  0.00000000E+00  0.00000000E+00  0.00000000E+00
  0.00000000E+00  0.00000000E+00  0.00000000E+00
  0.00000000E+00  0.00000000E+00  0.00000000E+00
  0.00000000E+00  0.00000000E+00  0.00000000E+00
  0.00000000E+00  0.00000000E+00  0.00000000E+00
  0.00000000E+00  0.00000000E+00  0.00000000E+00
  0.00000000E+00  0.00000000E+00  0.00000000E+00
  0.00000000E+00  0.00000000E+00  0.00000000E+00
  0.00000000E+00  0.00000000E+00  0.00000000E+00
  0.00000000E+00  0.00000000E+00  0.00000000E+00
  0.00000000E+00  0.00000000E+00  0.00000000E+00
  0.00000000E+00  0.00000000E+00  0.00000000E+00
  0.00000000E+00  0.00000000E+00  0.00000000E+00
  0.00000000E+00  0.00000000E+00  0.00000000E+00
  0.00000000E+00  0.00000000E+00  0.00000000E+00
  0.00000000E+00  0.00000000E+00  0.00000000E+00
  0.00000000E+00  0.00000000E+00  0.00000000E+00
  0.00000000E+00  0.00000000E+00  0.00000000E+00
  0.00000000E+00  0.00000000E+00  0.00000000E+00
  0.00000000E+00  0.00000000E+00  0.00000000E+00
  0.00000000E+00  0.00000000E+00  0.00000000E+00
  0.00000000E+00  0.00000000E+00  0.00000000E+00
  0.00000000E+00  0.00000000E+00  0.00000000E+00
  0.00000000E+00  0.00000000E+00  0.00000000E+00
  0.00000000E+00  0.00000000E+00  0.00000000E+00
  0.00000000E+00  0.00000000E+00  0.00000000E+00
  0.00000000E+00  0.00000000E+00  0.00000000E+00
  0.00000000E+00  0.00000000E+00  0.00000000E+00
  0.00000000E+00  0.00000000E+00  0.00000000E+00
  0.00000000E+00  0.00000000E+00  0.00000000E+00
  0.00000000E+00  0.00000000E+00  0.00000000E+00
  0.00000000E+00  0.00000000E+00  0.00000000E+00
  0.00000000E+00  0.00000000E+00  0.00000000E+00
  0.00000000E+00  0.00000000E+00  0.00000000E+00
  0.00000000E+00  0.00000000E+00  0.00000000E+00
  0.00000000E+00  0.00000000E+00  0.00000000E+00
  0.00000000E+00  0.00000000E+00  0.00000000E+00
  0.00000000E+00  0.00000000E+00  0.00000000E+00
  0.00000000E+00  0.00000000E+00  0.00000000E+00
  0.00000000E+00  0.00000000E+00  0.00000000E+00
  0.00000000E+00  0.00000000E+00  0.00000000E+00
  0.00000000E+00  0.00000000E+00  0.00000000E+00
  0.00000000E+00  0.00000000E+00  0.00000000E+00
  0.00000000E+00  0.00000000E+00  0.00000000E+00
  0.00000000E+00  0.00000000E+00  0.00000000E+00
  0.00000000E+00  0.00000000E+00  0.00000000E+00
  0.00000000E+00  0.00000000E+00  0.00000000E+00
  0.00000000E+00  0.00000000E+00  0.00000000E+00
  0.00000000E+00  0.00000000E+00  0.00000000E+00
  0.00000000E+00  0.00000000E+00  0.00000000E+00
  0.00000000E+00  0.00000000E+00  0.00000000E+00
  0.00000000E+00  0.00000000E+00  0.00000000E+00
  0.00000000E+00  0.00000000E+00  0.00000000E+00
  0.00000000E+00  0.00000000E+00  0.00000000E+00
  0.00000000E+00  0.00000000E+00  0.00000000E+00
  0.00000000E+00  0.00000000E+00  0.00000000E+00
  0.00000000E+00  0.00000000E+00  0.00000000E+00
  0.00000000E+00  0.00000000E+00  0.00000000E+00
  0.00000000E+00  0.00000000E+00  0.00000000E+00
  0.00000000E+00  0.00000000E+00  0.00000000E+00
  0.00000000E+00  0.00000000E+00  0.00000000E+00
  0.00000000E+00  0.00000000E+00  0.00000000E+00
  0.00000000E+00  0.00000000E+00  0.00000000E+00
  0.00000000E+00  0.00000000E+00  0.00000000E+00
  0.00000000E+00  0.00000000E+00  0.00000000E+00
  0.00000000E+00  0.00000000E+00  0.00000000E+00
  0.00000000E+00  0.00000000E+00  0.00000000E+00
  0.00000000E+00  0.00000000E+00  0.00000000E+00
  0.00000000E+00  0.00000000E+00  0.00000000E+00
  0.00000000E+00  0.00000000E+00  0.00000000E+00
  0.00000000E+00  0.00000000E+00  0.00000000E+00
  0.00000000E+00  0.00000000E+00  0.00000000E+00
  0.00000000E+00  0.00000000E+00  0.00000000E+00
  0.00000000E+00  0.00000000E+00  0.00000000E+00
  0.00000000E+00  0.00000000E+00  0.00000000E+00
  0.00000000E+00  0.00000000E+00  0.00000000E+00
  0.00000000E+00  0.00000000E+00  0.00000000E+00
  0.00000000E+00  0.00000000E+00  0.00000000E+00
  0.00000000E+00  0.00000000E+00  0.00000000E+00
  0.00000000E+00  0.00000000E+00  0.00000000E+00
  0.00000000E+00  0.00000000E+00  0.00000000E+00
  0.00000000E+00  0.00000000E+00  0.00000000E+00
  0.00000000E+00  0.00000000E+00  0.00000000E+00
  0.00000000E+00  0.00000000E+00  0.00000000E+00
  0.00000000E+00  0.00000000E+00  0.00000000E+00
  0.00000000E+00  0.00000000E+00  0.00000000E+00
  0.00000000E+00  0.00000000E+00  0.00000000E+00
  0.00000000E+00  0.00000000E+00  0.00000000E+00
  0.00000000E+00  0.00000000E+00  0.00000000E+00
  0.00000000E+00  0.00000000E+00  0.00000000E+00
  0.00000000E+00  0.00000000E+00  0.00000000E+00
  0.00000000E+00  0.00000000E+00  0.00000000E+00
  0.00000000E+00  0.00000000E+00  0.00000000E+00
  0.00000000E+00  0.00000000E+00  0.00000000E+00
  0.00000000E+00  0.00000000E+00  0.00000000E+00
  0.00000000E+00  0.00000000E+00  0.00000000E+00
  0.00000000E+00  0.00000000E+00  0.00000000E+00
  0.00000000E+00  0.00000000E+00  0.00000000E+00
  0.00000000E+00  0.00000000E+00  0.00000000E+00
  0.00000000E+00  0.00000000E+00  0.00000000E+00
  0.00000000E+00  0.00000000E+00  0.00000000E+00
  0.00000000E+00  0.00000000E+00  0.00000000E+00
  0.00000000E+00  0.00000000E+00  0.00000000E+00
  0.00000000E+00  0.00000000E+00  0.00000000E+00
  0.00000000E+00  0.00000000E+00  0.00000000E+00
  0.00000000E+00  0.00000000E+00  0.00000000E+00
  0.00000000E+00  0.00000000E+00  0.00000000E+00
  0.00000000E+00  0.00000000E+00  0.00000000E+00
  0.00000000E+00  0.00000000E+00  0.00000000E+00
  0.00000000E+00  0.00000000E+00  0.00000000E+00
  0.00000000E+00  0.00000000E+00  0.00000000E+00
  0.00000000E+00  0.00000000E+00  0.00000000E+00
  0.00000000E+00  0.00000000E+00  0.00000000E+00
  0.00000000E+00  0.00000000E+00  0.00000000E+00
  0.00000000E+00  0.00000000E+00  0.00000000E+00
  0.00000000E+00  0.00000000E+00  0.00000000E+00
