Hf Ti                                   
    1.000000000000000     
    12.3760266713892459   -0.0168027463764590    0.0037165726130665
    -6.2025506103046295   10.7423140178351151   -0.0004987837498869
     0.0059006563491656    0.0025484069245323   19.5335242164802878
  Hf              Ti            
    72    56
Direct
     0.1712391598854924    0.0848470664957666    0.4378858753150141
     0.1691759347189885    0.5833242736262275    0.4372778514264950
     0.5790964009670070    0.9185250897833541    0.0570077113961509
     0.0870963016204032    0.1730050206358251    0.3110168396423085
     0.5807363232929782    0.4125095861003986    0.0617413001102327
     0.6714366645371557    0.5859584601742561    0.4389145501518074
     0.5749597241762973    0.4068766670085489    0.5632280796088724
     0.0921377453680001    0.6674688977221920    0.0612920967956850
     0.5792142862058494    0.4147472284350829    0.8104777469928766
     0.1712801834382380    0.0820024733502019    0.6887201501778158
     0.4114986109370987    0.3287765297075805    0.1908436362168636
     0.0861005904614848    0.4209793900919779    0.8122894266688049
     0.9192947564979982    0.0852059193202803    0.4368807527987552
     0.3276252144713103    0.1689390057274447    0.0595359349342442
     0.9187866161257395    0.3309637260501583    0.4356323956497527
     0.6719591823347120    0.8393337160415683    0.6883877531776870
     0.8315314953446915    0.4108710283849722    0.0642260289488910
     0.8422811043201329    0.6733714749054874    0.5667362808192603
     0.0851119559928211    0.1632111942438362    0.8131186512213243
     0.3267660971862575    0.9144698432989641    0.8120245373321667
     0.5801176531525797    0.1657099261181122    0.3121068680464897
     0.4128398743191315    0.5813485623317309    0.1867703769609252
     0.1699455130704499    0.3342947334042409    0.9370344616945258
     0.9213887414423572    0.3328362739950785    0.1894025966141065
     0.4160388881780588    0.8331907471337147    0.6862210377039878
     0.9158074499277458    0.5869125623679249    0.4370575182734000
     0.6646326337815691    0.8354644807376140    0.1874942985513821
     0.0882387053398735    0.6677361953179707    0.3095846789148335
     0.9196195943495983    0.5823411109599116    0.9349214254669492
     0.8348305829179380    0.9216589167254668    0.0637612979819816
     0.8400048042078071    0.9195343500135413    0.5636148134258058
     0.0880446327791499    0.6686668274414594    0.5637323499892976
     0.6703620436594410    0.0854277172028929    0.1857418892624862
     0.5832983982816827    0.6674626519350469    0.8150690454330672
     0.3337430520418379    0.4198450199344920    0.0589657455307917
     0.5813434963755719    0.1670064208982669    0.8112426097511450
     0.5815154469067345    0.6648515411112987    0.3129572180363915
     0.6701456561506501    0.5851978745189892    0.1878332828614357
     0.8333446358977197    0.6682656474307319    0.0604315180840746
     0.4129544722225497    0.5743440648316699    0.4410664720348724
     0.6604278068186048    0.8340743689694261    0.4386842174999454
     0.4080048367767701    0.5748128394782689    0.6887546696318754
     0.6620466795524662    0.0833395359300294    0.4381470221573838
     0.3348496655308693    0.6684411132783826    0.3136017577070568
     0.8285794832131811    0.4145445583818915    0.3130464394437663
     0.1745867766062850    0.8394702072749112    0.4388076016306348
     0.4076621116967015    0.0784424685677835    0.1857674856146278
     0.5822959099147760    0.9159708010513591    0.8180667619219768
     0.1566099502796328    0.8320276663215664    0.6878539368879697
     0.8318210236384440    0.1670952036659789    0.8105729104442635
     0.1652141812120370    0.3334078896877583    0.1853238464910318
     0.4090334379745968    0.8321701535475183    0.1865445804734872
     0.5802399323097603    0.6684362933512024    0.0571907537296948
     0.9148595796277703    0.8344340587907085    0.9345882414245372
     0.9185868375538390    0.5886470008767638    0.1874104922651662
     0.1667659973940474    0.5859605428540245    0.6902889836178051
     0.5816895524460151    0.4134894570656166    0.3157935597134277
     0.9105020211928950    0.0796942190742634    0.9371612750060462
     0.0925970530674052    0.4176949461194992    0.5643818462185558
     0.6655287812572124    0.3327088817439929    0.9363217227402814
     0.0857893778082306    0.9167656767339313    0.3097319721481983
     0.5787617922777107    0.6657806735437791    0.5648655711162198
     0.6657118232706462    0.5798423055726895    0.6873364287272650
     0.8300526716147605    0.4131300175655887    0.5646979721177957
     0.6612179376120618    0.0840276236119868    0.6856027160609017
     0.0905609741104354    0.1707552347438937    0.5645570981173111
     0.4163689614385184    0.0775316097260214    0.9390694852478254
     0.8376307550947826    0.6677788722487750    0.8093400147610140
     0.9171887058805217    0.3340792298046569    0.9377042263932736
     0.8350380855734336    0.9171310951534480    0.3116264152942891
     0.0877615799839176    0.9190739678661600    0.0622355647216486
     0.8336201847331268    0.1656561312819310    0.5651031043014039
     0.3362052772957186    0.1612358136030847    0.5623974857142117
     0.4059170076200222    0.8218806467766061    0.9376644409163107
     0.0848747644668043    0.4194775786349966    0.0616438520857728
     0.1610079897877228    0.0831415140017791    0.1854598828993018
     0.3326093152541639    0.1677310603545674    0.8145781060845648
     0.9177204872966762    0.5760969434609353    0.6898090155088765
     0.1726939811016946    0.3346318817130718    0.4374740322335017
     0.6679492449239882    0.0880784673943322    0.9401871530370781
     0.1662325195948577    0.5790441731477722    0.1850850493460474
     0.5809821394467928    0.9189238794948251    0.3127032981818363
     0.6683826364901657    0.8322531519881808    0.9364113753131839
     0.6616369187800716    0.5802676866673268    0.9360887045701793
     0.0854551418142860    0.9190870361563169    0.5621953138337843
     0.9171865581316195    0.3343713956587359    0.6882829556212147
     0.5746670010241964    0.1638321425508324    0.5628678809384000
     0.4089527929395872    0.3245232229132564    0.6876276730916430
     0.3300205877133874    0.4135107316817137    0.3161046901994523
     0.0789277232481507    0.1652678558475529    0.0617710354730298
     0.3307262851091608    0.9108573416507253    0.0600105887082077
     0.3304695416171365    0.6656906372160276    0.8153650128342121
     0.0846780270211945    0.9168501482395004    0.8148616861748870
     0.6677883334367031    0.3313936861199959    0.6871676409365947
     0.0848247972790310    0.6682157886740238    0.8145777083524030
     0.3299952927577499    0.4069103452910192    0.5646217532483332
     0.8362615288471557    0.4187203293438477    0.8077693965469538
     0.3405839854625589    0.9276521863167166    0.5629863903480919
     0.8354692524801217    0.9176979191998291    0.8109790789960303
     0.5868138641555127    0.1674440658723065    0.0625118428120298
     0.5755889889523591    0.9161520351185400    0.5618999999812870
     0.1682541411632204    0.8325140582407341    0.9367069151451118
     0.9237201841047633    0.8441590333597221    0.6893845289034917
     0.9194519900461662    0.8326235166215729    0.4379243412997699
     0.9214144155305459    0.0855221443539772    0.6890264685901811
     0.4183998105961181    0.0930168772469357    0.6855019001202303
     0.3368613945578381    0.9211094474177904    0.3147703317508251
     0.8368362695383793    0.6727190972864149    0.3123326771403222
     0.4136852477036941    0.5870462539659866    0.9339086248734829
     0.3364924763271538    0.6752682903115554    0.5616176389675026
     0.8331822899192742    0.1615572244770842    0.3109009164686330
     0.4195969988177156    0.0887119556026693    0.4397062996745613
     0.4186943643422899    0.8400546620038235    0.4394994106186391
     0.9211765619578672    0.0843393940047289    0.1866872188321825
     0.4166814810740233    0.3382049302194373    0.9334601844073704
     0.9192822311900128    0.8340106666317719    0.1880106206040029
     0.1708491734403077    0.8354836971631182    0.1862274493517098
     0.3318910596795561    0.4128650179780604    0.8118162613454504
     0.3311161184835031    0.1632327617160615    0.3143223277565497
     0.1660764259590922    0.3291200934142865    0.6896204523646929
     0.6631149355126762    0.3299328090625651    0.1876058700504633
     0.1677311827425443    0.0829210882794648    0.9362049233780138
     0.4105147322825152    0.3272328388747551    0.4392441356244358
     0.0899496326210503    0.4183341411329213    0.3125074773713626
     0.1742200172155381    0.5873946438440600    0.9373835844000071
     0.8405121983518739    0.1692947302317702    0.0634805791800154
     0.3295301093486456    0.6624376875578935    0.0588682494885647
     0.6589943310985914    0.3260572625144766    0.4397517906753711
 
  0.00000000E+00  0.00000000E+00  0.00000000E+00
  0.00000000E+00  0.00000000E+00  0.00000000E+00
  0.00000000E+00  0.00000000E+00  0.00000000E+00
  0.00000000E+00  0.00000000E+00  0.00000000E+00
  0.00000000E+00  0.00000000E+00  0.00000000E+00
  0.00000000E+00  0.00000000E+00  0.00000000E+00
  0.00000000E+00  0.00000000E+00  0.00000000E+00
  0.00000000E+00  0.00000000E+00  0.00000000E+00
  0.00000000E+00  0.00000000E+00  0.00000000E+00
  0.00000000E+00  0.00000000E+00  0.00000000E+00
  0.00000000E+00  0.00000000E+00  0.00000000E+00
  0.00000000E+00  0.00000000E+00  0.00000000E+00
  0.00000000E+00  0.00000000E+00  0.00000000E+00
  0.00000000E+00  0.00000000E+00  0.00000000E+00
  0.00000000E+00  0.00000000E+00  0.00000000E+00
  0.00000000E+00  0.00000000E+00  0.00000000E+00
  0.00000000E+00  0.00000000E+00  0.00000000E+00
  0.00000000E+00  0.00000000E+00  0.00000000E+00
  0.00000000E+00  0.00000000E+00  0.00000000E+00
  0.00000000E+00  0.00000000E+00  0.00000000E+00
  0.00000000E+00  0.00000000E+00  0.00000000E+00
  0.00000000E+00  0.00000000E+00  0.00000000E+00
  0.00000000E+00  0.00000000E+00  0.00000000E+00
  0.00000000E+00  0.00000000E+00  0.00000000E+00
  0.00000000E+00  0.00000000E+00  0.00000000E+00
  0.00000000E+00  0.00000000E+00  0.00000000E+00
  0.00000000E+00  0.00000000E+00  0.00000000E+00
  0.00000000E+00  0.00000000E+00  0.00000000E+00
  0.00000000E+00  0.00000000E+00  0.00000000E+00
  0.00000000E+00  0.00000000E+00  0.00000000E+00
  0.00000000E+00  0.00000000E+00  0.00000000E+00
  0.00000000E+00  0.00000000E+00  0.00000000E+00
  0.00000000E+00  0.00000000E+00  0.00000000E+00
  0.00000000E+00  0.00000000E+00  0.00000000E+00
  0.00000000E+00  0.00000000E+00  0.00000000E+00
  0.00000000E+00  0.00000000E+00  0.00000000E+00
  0.00000000E+00  0.00000000E+00  0.00000000E+00
  0.00000000E+00  0.00000000E+00  0.00000000E+00
  0.00000000E+00  0.00000000E+00  0.00000000E+00
  0.00000000E+00  0.00000000E+00  0.00000000E+00
  0.00000000E+00  0.00000000E+00  0.00000000E+00
  0.00000000E+00  0.00000000E+00  0.00000000E+00
  0.00000000E+00  0.00000000E+00  0.00000000E+00
  0.00000000E+00  0.00000000E+00  0.00000000E+00
  0.00000000E+00  0.00000000E+00  0.00000000E+00
  0.00000000E+00  0.00000000E+00  0.00000000E+00
  0.00000000E+00  0.00000000E+00  0.00000000E+00
  0.00000000E+00  0.00000000E+00  0.00000000E+00
  0.00000000E+00  0.00000000E+00  0.00000000E+00
  0.00000000E+00  0.00000000E+00  0.00000000E+00
  0.00000000E+00  0.00000000E+00  0.00000000E+00
  0.00000000E+00  0.00000000E+00  0.00000000E+00
  0.00000000E+00  0.00000000E+00  0.00000000E+00
  0.00000000E+00  0.00000000E+00  0.00000000E+00
  0.00000000E+00  0.00000000E+00  0.00000000E+00
  0.00000000E+00  0.00000000E+00  0.00000000E+00
  0.00000000E+00  0.00000000E+00  0.00000000E+00
  0.00000000E+00  0.00000000E+00  0.00000000E+00
  0.00000000E+00  0.00000000E+00  0.00000000E+00
  0.00000000E+00  0.00000000E+00  0.00000000E+00
  0.00000000E+00  0.00000000E+00  0.00000000E+00
  0.00000000E+00  0.00000000E+00  0.00000000E+00
  0.00000000E+00  0.00000000E+00  0.00000000E+00
  0.00000000E+00  0.00000000E+00  0.00000000E+00
  0.00000000E+00  0.00000000E+00  0.00000000E+00
  0.00000000E+00  0.00000000E+00  0.00000000E+00
  0.00000000E+00  0.00000000E+00  0.00000000E+00
  0.00000000E+00  0.00000000E+00  0.00000000E+00
  0.00000000E+00  0.00000000E+00  0.00000000E+00
  0.00000000E+00  0.00000000E+00  0.00000000E+00
  0.00000000E+00  0.00000000E+00  0.00000000E+00
  0.00000000E+00  0.00000000E+00  0.00000000E+00
  0.00000000E+00  0.00000000E+00  0.00000000E+00
  0.00000000E+00  0.00000000E+00  0.00000000E+00
  0.00000000E+00  0.00000000E+00  0.00000000E+00
  0.00000000E+00  0.00000000E+00  0.00000000E+00
  0.00000000E+00  0.00000000E+00  0.00000000E+00
  0.00000000E+00  0.00000000E+00  0.00000000E+00
  0.00000000E+00  0.00000000E+00  0.00000000E+00
  0.00000000E+00  0.00000000E+00  0.00000000E+00
  0.00000000E+00  0.00000000E+00  0.00000000E+00
  0.00000000E+00  0.00000000E+00  0.00000000E+00
  0.00000000E+00  0.00000000E+00  0.00000000E+00
  0.00000000E+00  0.00000000E+00  0.00000000E+00
  0.00000000E+00  0.00000000E+00  0.00000000E+00
  0.00000000E+00  0.00000000E+00  0.00000000E+00
  0.00000000E+00  0.00000000E+00  0.00000000E+00
  0.00000000E+00  0.00000000E+00  0.00000000E+00
  0.00000000E+00  0.00000000E+00  0.00000000E+00
  0.00000000E+00  0.00000000E+00  0.00000000E+00
  0.00000000E+00  0.00000000E+00  0.00000000E+00
  0.00000000E+00  0.00000000E+00  0.00000000E+00
  0.00000000E+00  0.00000000E+00  0.00000000E+00
  0.00000000E+00  0.00000000E+00  0.00000000E+00
  0.00000000E+00  0.00000000E+00  0.00000000E+00
  0.00000000E+00  0.00000000E+00  0.00000000E+00
  0.00000000E+00  0.00000000E+00  0.00000000E+00
  0.00000000E+00  0.00000000E+00  0.00000000E+00
  0.00000000E+00  0.00000000E+00  0.00000000E+00
  0.00000000E+00  0.00000000E+00  0.00000000E+00
  0.00000000E+00  0.00000000E+00  0.00000000E+00
  0.00000000E+00  0.00000000E+00  0.00000000E+00
  0.00000000E+00  0.00000000E+00  0.00000000E+00
  0.00000000E+00  0.00000000E+00  0.00000000E+00
  0.00000000E+00  0.00000000E+00  0.00000000E+00
  0.00000000E+00  0.00000000E+00  0.00000000E+00
  0.00000000E+00  0.00000000E+00  0.00000000E+00
  0.00000000E+00  0.00000000E+00  0.00000000E+00
  0.00000000E+00  0.00000000E+00  0.00000000E+00
  0.00000000E+00  0.00000000E+00  0.00000000E+00
  0.00000000E+00  0.00000000E+00  0.00000000E+00
  0.00000000E+00  0.00000000E+00  0.00000000E+00
  0.00000000E+00  0.00000000E+00  0.00000000E+00
  0.00000000E+00  0.00000000E+00  0.00000000E+00
  0.00000000E+00  0.00000000E+00  0.00000000E+00
  0.00000000E+00  0.00000000E+00  0.00000000E+00
  0.00000000E+00  0.00000000E+00  0.00000000E+00
  0.00000000E+00  0.00000000E+00  0.00000000E+00
  0.00000000E+00  0.00000000E+00  0.00000000E+00
  0.00000000E+00  0.00000000E+00  0.00000000E+00
  0.00000000E+00  0.00000000E+00  0.00000000E+00
  0.00000000E+00  0.00000000E+00  0.00000000E+00
  0.00000000E+00  0.00000000E+00  0.00000000E+00
  0.00000000E+00  0.00000000E+00  0.00000000E+00
  0.00000000E+00  0.00000000E+00  0.00000000E+00
  0.00000000E+00  0.00000000E+00  0.00000000E+00
  0.00000000E+00  0.00000000E+00  0.00000000E+00
  0.00000000E+00  0.00000000E+00  0.00000000E+00
