Hf Nb                                   
    1.000000000000000     
    12.2682390419755816   -0.8583994598692519   -0.0020924795543826
    -6.8745771941538090   11.8998311461832049   -0.0089406622865524
    -0.0106727197570823   -0.0114756488447586   19.5914154246468826
  Hf             Nb           
             100              28
Direct
  0.1317392911491599  0.8157074062029310  0.4429126557776497
  0.6583059191428244  0.3315110369811862  0.6896936822715340
  0.8551870907738640  0.1817493233560282  0.3103429114468710
  0.3949598666806964  0.0582999338206272  0.4441859130358023
  0.1452591723523568  0.5852183663673063  0.1912187289200008
  0.3521651480315654  0.1830903558088674  0.8113199198997756
  0.8514850586893180  0.4327416138380653  0.8133369224718920
  0.0978939065590522  0.4234743544567553  0.0658628454211718
  0.8315071502910308  0.6705939160136533  0.0636565659979110
  0.1376244691757621  0.3133866539055673  0.6891269470716582
  0.9010362703189913  0.8228015613213183  0.1910660809868853
  0.8457063391319261  0.9247264558792091  0.3146528484713547
  0.5891962593554714  0.1708152080937220  0.5646660641602937
  0.1570284911885599  0.8267807725273401  0.1916372728216549
  0.8300932793542020  0.9029886588604944  0.8115246725514336
  0.6435972487153897  0.3249764695426928  0.9365717919028481
  0.8795695980010878  0.0551750197895938  0.6853408281319090
  0.3595831259475626  0.1751225114293940  0.3206348024982542
  0.3946885951806273  0.5774296949431847  0.4392351127841723
  0.0927461082449913  0.4183976012857794  0.8141529071695628
  0.0896976922407039  0.1604149066120390  0.0649277552510719
  0.6370739652046251  0.0600205866329965  0.9438942062078473
  0.8904323681311501  0.8231421338521343  0.6826424019323181
  0.1682963304221921  0.8449356354410570  0.9356962588319840
  0.6463328043634710  0.5690701204933258  0.6939378675898664
  0.0934499854319092  0.1750181624816397  0.5612979996056608
  0.1655417930721121  0.0697505840372386  0.1876438117786634
  0.8837134293574341  0.0660167469448477  0.4437591371648077
  0.3870859845729937  0.8109286058971701  0.9299816384645926
  0.3964125788739024  0.5683665566268885  0.6810218682777603
  0.9166283420698929  0.3321117555825984  0.4359366396434819
  0.0910991950013913  0.9194717601431919  0.3148452957443146
  0.6337519409855026  0.5705290701768404  0.1864122879502215
  0.6561675531287298  0.0836017845038577  0.6890688920127971
  0.3675548446254284  0.9424058553068199  0.0567933612197806
  0.1618888291519726  0.0806914506563226  0.9383177614079599
  0.3786997997026280  0.3253791897818781  0.2007114778987273
  0.8901677686585998  0.5640251697197707  0.4274296762914379
  0.6369489757535519  0.3362760614930859  0.1791832155528007
  0.3528393779781087  0.4229509524430028  0.8089134104068251
  0.6046675749336249  0.4253725438825286  0.5627596631650008
  0.3859750835619210  0.5701582407332626  0.9386566905042968
  0.3473590521876445  0.9208623790210900  0.3139333277819865
  0.8933453959644515  0.0696602579508480  0.1850535990502539
  0.1527660225133570  0.8325569594495024  0.6781362052890657
  0.1015743935872549  0.9263464079581069  0.8093202127179346
  0.4097288041463420  0.8356109901706561  0.4425796758544976
  0.9063359964903850  0.5901880849379144  0.9363976265287003
  0.3711415675506312  0.5605646030635423  0.1887777676522766
  0.5986029484310706  0.9262972707039617  0.8112653496866070
  0.1465798908367323  0.0761697856983632  0.6842371514432201
  0.3945061459080398  0.8229199209178913  0.6939830060709411
  0.8928585895031600  0.5786346676812710  0.1933824505720911
  0.8690071340053239  0.4308051705278081  0.5661098382564345
  0.4014193047723047  0.3286017545318701  0.6804218152016045
  0.6382104918501410  0.8159631263037628  0.9378231902325292
  0.3484756061338807  0.6849731532496572  0.5650652365477887
  0.3496417999463251  0.6861580476646528  0.3128996726033338
  0.1005322803785273  0.6853639933851633  0.0616021715695842
  0.6410449421285955  0.8109683545866238  0.1916632114985240
  0.1230961836839929  0.4261077270580289  0.5547711681099308
  0.8313730073367065  0.9077980719294449  0.0633693630982880
  0.8902741557836917  0.0661024229499092  0.9349241292655979
  0.1431299863399693  0.5677936498746022  0.9418093644611671
  0.6467018490779363  0.5821652897179971  0.9308056868133148
  0.1199659233598375  0.1907093755265705  0.3018879285567670
  0.6290743885950545  0.9308549095296363  0.5633312422958136
  0.6015209091001308  0.9293853766009733  0.3170773148096567
  0.6276320675236902  0.1805142905444051  0.0716768774935390
  0.3375435420417323  0.4082930240760083  0.0660044212145072
  0.3442624483187816  0.1781245172184424  0.5562045901068358
  0.8816040244594567  0.3188920660041548  0.1821500351341534
  0.1349531475032157  0.0634387169731232  0.4390029960232273
  0.6214392451564836  0.6917995982697247  0.5631419366090119
  0.6024779720024434  0.1739099568254657  0.8149215086859052
  0.8730687015624141  0.6870536099770694  0.5559083760023482
  0.1459671325615934  0.3154701704184442  0.9384908962458374
  0.4215455124019177  0.0791089241822775  0.1915902105885476
  0.5692615035938896  0.6632068779580171  0.0634586430508221
  0.1410968709408554  0.5641428500596886  0.6852695979329565
  0.8879055647966905  0.3107666503486485  0.9390963389526045
  0.8424965071023969  0.4376471963817863  0.0591932196952194
  0.4104946874604410  0.3366403752566741  0.9376437175922122
  0.3742213844919497  0.1807890655750501  0.0612205864867965
  0.9086405154357283  0.8296335769404128  0.9370814790915374
  0.6590040920843842  0.0932352302877220  0.4367761429014740
  0.6457643531709826  0.3145690313675482  0.4356739915722832
  0.0836356326307009  0.1607017440899916  0.8128671965912674
  0.0960273183008767  0.9211237881859270  0.0631024684073995
  0.1227348383405058  0.4292118248991568  0.3094361496989816
  0.1647230579940319  0.3144483820011357  0.4337410201814523
  0.6160688376434328  0.4306061443314881  0.3128173205690855
  0.9114894865216490  0.5882975700531062  0.6868882297785698
  0.6445441468906435  0.5727660561453189  0.4373780295499735
  0.8534004725101477  0.1934899666234405  0.5695165013309892
  0.3976823880677250  0.0731148184094138  0.6868449556361571
  0.1499867333838102  0.5880488119794504  0.4381889089633124
  0.4108153276832940  0.8300394963574405  0.1826975972154250
  0.1181155089422717  0.6871798893795665  0.8122238901714168
  0.8425465898151654  0.6731206662284792  0.8110464206496217
  0.6193066636911229  0.1906117843807191  0.3071234990017563
  0.1038987147556450  0.6743410547699920  0.5664109171436194
  0.8663164812157509  0.4248274740236231  0.3103788765468738
  0.5972071955802037  0.4209146580124307  0.8127702789911112
  0.6533256448534366  0.0750819689657117  0.1972397064991792
  0.3441922395078241  0.6788695505733481  0.0600032404780565
  0.8955266045465535  0.3195027165343706  0.6993682393138282
  0.6128974740469730  0.9342914168485996  0.0703203880171668
  0.8482736604651244  0.1620466320858010  0.0585298995860841
  0.3699483679021504  0.4293242246681021  0.5534919432167817
  0.8812870779303786  0.8169822066429084  0.4338445708114591
  0.3556265163659838  0.6700368791177234  0.8093878461587056
  0.5969182829064672  0.4316657864626511  0.0524398852304118
  0.0855856611076148  0.6691466444223583  0.3144717672513078
  0.5822223647649746  0.6732641097862198  0.8082331399452821
  0.6146900099709747  0.6796142116948929  0.3178311210700112
  0.8503295384249272  0.6828107657770660  0.3157487841704327
  0.4049252592873359  0.3301815821459967  0.4380738322116597
  0.1355785152963482  0.3163902391224688  0.1795741346222802
  0.3750815499540586  0.4362412584341597  0.3233773861823813
  0.6461300105693962  0.8163282990091739  0.4311990645457832
  0.3554979224005316  0.9340676273606288  0.8146574317103014
  0.6326566241247477  0.8109713376815850  0.6952527452027966
  0.3531089022242305  0.9203870510824631  0.5681619748319284
  0.8512491558547327  0.1770382037785236  0.8105932578383016
  0.4026985846930615  0.0762595500176629  0.9268834649783078
  0.1124869724624360  0.9361624945503211  0.5614094599573803
  0.8798198666460766  0.9240696938460190  0.5563703937005733
 
  0.00000000E+00  0.00000000E+00  0.00000000E+00
  0.00000000E+00  0.00000000E+00  0.00000000E+00
  0.00000000E+00  0.00000000E+00  0.00000000E+00
  0.00000000E+00  0.00000000E+00  0.00000000E+00
  0.00000000E+00  0.00000000E+00  0.00000000E+00
  0.00000000E+00  0.00000000E+00  0.00000000E+00
  0.00000000E+00  0.00000000E+00  0.00000000E+00
  0.00000000E+00  0.00000000E+00  0.00000000E+00
  0.00000000E+00  0.00000000E+00  0.00000000E+00
  0.00000000E+00  0.00000000E+00  0.00000000E+00
  0.00000000E+00  0.00000000E+00  0.00000000E+00
  0.00000000E+00  0.00000000E+00  0.00000000E+00
  0.00000000E+00  0.00000000E+00  0.00000000E+00
  0.00000000E+00  0.00000000E+00  0.00000000E+00
  0.00000000E+00  0.00000000E+00  0.00000000E+00
  0.00000000E+00  0.00000000E+00  0.00000000E+00
  0.00000000E+00  0.00000000E+00  0.00000000E+00
  0.00000000E+00  0.00000000E+00  0.00000000E+00
  0.00000000E+00  0.00000000E+00  0.00000000E+00
  0.00000000E+00  0.00000000E+00  0.00000000E+00
  0.00000000E+00  0.00000000E+00  0.00000000E+00
  0.00000000E+00  0.00000000E+00  0.00000000E+00
  0.00000000E+00  0.00000000E+00  0.00000000E+00
  0.00000000E+00  0.00000000E+00  0.00000000E+00
  0.00000000E+00  0.00000000E+00  0.00000000E+00
  0.00000000E+00  0.00000000E+00  0.00000000E+00
  0.00000000E+00  0.00000000E+00  0.00000000E+00
  0.00000000E+00  0.00000000E+00  0.00000000E+00
  0.00000000E+00  0.00000000E+00  0.00000000E+00
  0.00000000E+00  0.00000000E+00  0.00000000E+00
  0.00000000E+00  0.00000000E+00  0.00000000E+00
  0.00000000E+00  0.00000000E+00  0.00000000E+00
  0.00000000E+00  0.00000000E+00  0.00000000E+00
  0.00000000E+00  0.00000000E+00  0.00000000E+00
  0.00000000E+00  0.00000000E+00  0.00000000E+00
  0.00000000E+00  0.00000000E+00  0.00000000E+00
  0.00000000E+00  0.00000000E+00  0.00000000E+00
  0.00000000E+00  0.00000000E+00  0.00000000E+00
  0.00000000E+00  0.00000000E+00  0.00000000E+00
  0.00000000E+00  0.00000000E+00  0.00000000E+00
  0.00000000E+00  0.00000000E+00  0.00000000E+00
  0.00000000E+00  0.00000000E+00  0.00000000E+00
  0.00000000E+00  0.00000000E+00  0.00000000E+00
  0.00000000E+00  0.00000000E+00  0.00000000E+00
  0.00000000E+00  0.00000000E+00  0.00000000E+00
  0.00000000E+00  0.00000000E+00  0.00000000E+00
  0.00000000E+00  0.00000000E+00  0.00000000E+00
  0.00000000E+00  0.00000000E+00  0.00000000E+00
  0.00000000E+00  0.00000000E+00  0.00000000E+00
  0.00000000E+00  0.00000000E+00  0.00000000E+00
  0.00000000E+00  0.00000000E+00  0.00000000E+00
  0.00000000E+00  0.00000000E+00  0.00000000E+00
  0.00000000E+00  0.00000000E+00  0.00000000E+00
  0.00000000E+00  0.00000000E+00  0.00000000E+00
  0.00000000E+00  0.00000000E+00  0.00000000E+00
  0.00000000E+00  0.00000000E+00  0.00000000E+00
  0.00000000E+00  0.00000000E+00  0.00000000E+00
  0.00000000E+00  0.00000000E+00  0.00000000E+00
  0.00000000E+00  0.00000000E+00  0.00000000E+00
  0.00000000E+00  0.00000000E+00  0.00000000E+00
  0.00000000E+00  0.00000000E+00  0.00000000E+00
  0.00000000E+00  0.00000000E+00  0.00000000E+00
  0.00000000E+00  0.00000000E+00  0.00000000E+00
  0.00000000E+00  0.00000000E+00  0.00000000E+00
  0.00000000E+00  0.00000000E+00  0.00000000E+00
  0.00000000E+00  0.00000000E+00  0.00000000E+00
  0.00000000E+00  0.00000000E+00  0.00000000E+00
  0.00000000E+00  0.00000000E+00  0.00000000E+00
  0.00000000E+00  0.00000000E+00  0.00000000E+00
  0.00000000E+00  0.00000000E+00  0.00000000E+00
  0.00000000E+00  0.00000000E+00  0.00000000E+00
  0.00000000E+00  0.00000000E+00  0.00000000E+00
  0.00000000E+00  0.00000000E+00  0.00000000E+00
  0.00000000E+00  0.00000000E+00  0.00000000E+00
  0.00000000E+00  0.00000000E+00  0.00000000E+00
  0.00000000E+00  0.00000000E+00  0.00000000E+00
  0.00000000E+00  0.00000000E+00  0.00000000E+00
  0.00000000E+00  0.00000000E+00  0.00000000E+00
  0.00000000E+00  0.00000000E+00  0.00000000E+00
  0.00000000E+00  0.00000000E+00  0.00000000E+00
  0.00000000E+00  0.00000000E+00  0.00000000E+00
  0.00000000E+00  0.00000000E+00  0.00000000E+00
  0.00000000E+00  0.00000000E+00  0.00000000E+00
  0.00000000E+00  0.00000000E+00  0.00000000E+00
  0.00000000E+00  0.00000000E+00  0.00000000E+00
  0.00000000E+00  0.00000000E+00  0.00000000E+00
  0.00000000E+00  0.00000000E+00  0.00000000E+00
  0.00000000E+00  0.00000000E+00  0.00000000E+00
  0.00000000E+00  0.00000000E+00  0.00000000E+00
  0.00000000E+00  0.00000000E+00  0.00000000E+00
  0.00000000E+00  0.00000000E+00  0.00000000E+00
  0.00000000E+00  0.00000000E+00  0.00000000E+00
  0.00000000E+00  0.00000000E+00  0.00000000E+00
  0.00000000E+00  0.00000000E+00  0.00000000E+00
  0.00000000E+00  0.00000000E+00  0.00000000E+00
  0.00000000E+00  0.00000000E+00  0.00000000E+00
  0.00000000E+00  0.00000000E+00  0.00000000E+00
  0.00000000E+00  0.00000000E+00  0.00000000E+00
  0.00000000E+00  0.00000000E+00  0.00000000E+00
  0.00000000E+00  0.00000000E+00  0.00000000E+00
  0.00000000E+00  0.00000000E+00  0.00000000E+00
  0.00000000E+00  0.00000000E+00  0.00000000E+00
  0.00000000E+00  0.00000000E+00  0.00000000E+00
  0.00000000E+00  0.00000000E+00  0.00000000E+00
  0.00000000E+00  0.00000000E+00  0.00000000E+00
  0.00000000E+00  0.00000000E+00  0.00000000E+00
  0.00000000E+00  0.00000000E+00  0.00000000E+00
  0.00000000E+00  0.00000000E+00  0.00000000E+00
  0.00000000E+00  0.00000000E+00  0.00000000E+00
  0.00000000E+00  0.00000000E+00  0.00000000E+00
  0.00000000E+00  0.00000000E+00  0.00000000E+00
  0.00000000E+00  0.00000000E+00  0.00000000E+00
  0.00000000E+00  0.00000000E+00  0.00000000E+00
  0.00000000E+00  0.00000000E+00  0.00000000E+00
  0.00000000E+00  0.00000000E+00  0.00000000E+00
  0.00000000E+00  0.00000000E+00  0.00000000E+00
  0.00000000E+00  0.00000000E+00  0.00000000E+00
  0.00000000E+00  0.00000000E+00  0.00000000E+00
  0.00000000E+00  0.00000000E+00  0.00000000E+00
  0.00000000E+00  0.00000000E+00  0.00000000E+00
  0.00000000E+00  0.00000000E+00  0.00000000E+00
  0.00000000E+00  0.00000000E+00  0.00000000E+00
  0.00000000E+00  0.00000000E+00  0.00000000E+00
  0.00000000E+00  0.00000000E+00  0.00000000E+00
  0.00000000E+00  0.00000000E+00  0.00000000E+00
  0.00000000E+00  0.00000000E+00  0.00000000E+00
  0.00000000E+00  0.00000000E+00  0.00000000E+00
  0.00000000E+00  0.00000000E+00  0.00000000E+00
