Nb Ta                                   
    1.000000000000000     
    13.2595207310262886    0.0005241719665575    0.0015956982439375
     0.0005242401840165   13.2609196433079291   -0.0021945664886214
     0.0015956156057107   -0.0021939462559923   13.2593895660354697
   Nb   Ta
    56    72
Direct
 -0.0000952588019169 -0.0001478455285521  0.5011552795362495
  0.1264367965253310  0.6239491913979959  0.8748573748586893
  0.4989448295648892  0.5004730475813854  0.7477161325458481
  0.6238853254087603  0.6255952651701916  0.3735041549476470
  0.3750698289047690  0.3758948294130923  0.8754933157164992
  0.0002906260608788  0.7499694856490059  0.4991933564850985
  0.3742952607494823  0.1252956912649487  0.3739133249454881
  0.7511455905278008  0.7492529789972753  0.2506328413291999
  0.1247082042588406  0.3756902772088937  0.3740856147238777
  0.7497746971283028  0.7505110917733787  0.7506572920737166
  0.2507923118965343  0.5018307840196037 -0.0005098268812894
 -0.0006005777866724 -0.0000908369969049  0.0000102315706529
  0.5005327745924398  0.2506276467178342 -0.0011834075560341
  0.6271047023110575  0.6243765511104860  0.6262199004648684
  0.6253582225785718  0.1268702733859554  0.3745045154363451
  0.8784361540986710  0.3757625379963555  0.1240274051062842
  0.7503076779860736  0.2491631133184114  0.7509294689925360
  0.7515054852231166  0.2490717166246311  0.4984374766494698
  0.8726471143331092  0.6252424707026778  0.8750885049267906
  0.6259247253217988  0.8729037033796408  0.1270447749776557
  0.7511215271091238  0.5011573803287136  0.7507949679918122
  0.3763124029885474  0.6247809805008518  0.1254028471522728
  0.4983986495188150  0.2493055507746908  0.5001771771723809
  0.0007938066542994  0.4985690224781577  0.4994173527187724
  0.5002013017085006  0.7485269870979538  0.5017948877170557
  0.2489011739407153  0.0000955091878332  0.7487132001726685
  0.3731877642725683  0.3737120093656224  0.1247768144340240
  0.2511856896331686 -0.0004159526646140  0.0009600405309887
  0.1248539792320722  0.8744397285141686  0.6240239033142742
  0.2514360622269665  0.0012579021102241  0.2509372410444733
  0.1244308206806314  0.6228876306378195  0.1264513711175050
  0.1258687470559446  0.1247630789040919  0.8752125623847118
 -0.0015375539858910  0.5003823629982150  0.2510560029019472
  0.2513118582745599  0.4986207621181764  0.2510914258905776
  0.1259537951728891  0.1249875966277699  0.1256770187074123
  0.6233436104526315  0.3748175810295011  0.1251692372327199
 -0.0005342896321427  0.2492822990434018  0.0004963068906871
  0.2499523430583849  0.2498228586964356 -0.0000675308123751
  0.4992037320352597  0.2505970640846722  0.2501509287733092
  0.4982449384218015  0.7523823333181983 -0.0003207009140832
  0.7485016931410042  0.5012238924593377  0.4982576437432678
  0.5004873422737514  0.4991327004916579  0.0025596833026585
  0.4992706648951807  0.7503555036582987  0.2493897755975398
  0.7507921616652030  0.7500783338857779 -0.0009535958347992
  0.3747760594994686  0.8721080182656069  0.3754276070933223
  0.6252393920829740  0.8731748784410344  0.8741576182625708
  0.3766137145751104  0.3757652660816819  0.3752581579220817
 -0.0018978157124261  0.5025442316719174 -0.0015266964701012
  0.1270100803356753  0.6263737286416524  0.3758764577422921
  0.2488144219140353  0.7494335206726789  0.2476323860126811
  0.3729726054806990  0.8760865490651989  0.1243668233703704
  0.8736325281540031  0.3751713781645813  0.3766100459299810
  0.7499399614515361  0.7492590501360231  0.4997715556841454
  0.2499270038360188  0.7504682011910252  0.5014877901475314
  0.3742305014162231  0.6254284185385197  0.6244066603558955
  0.8749879852583208  0.6259334129655969  0.3750559805568752
  0.7501049458882002  0.2520501415410869  0.0022881148916789
  0.0010818772097705  0.2514481169520656  0.4997908519425325
  0.2518319978699147  0.4984530599709497  0.5003588716212568
  0.8745393911511848  0.1255401545079682  0.6246499118084420
  0.3762703354099339  0.1255933559027621  0.1237170583978042
  0.5014838000563139  0.4998274911616509  0.2508045820715889
  0.1250135524227461  0.3760710151965436  0.1232275523056778
  0.7472350314394109  0.0001004385537975  0.0000154456164485
  0.6259251241696123  0.3740050129026530  0.6247408321240943
  0.7487880013862450  0.0011508877984863  0.2500969488746121
  0.8762431607169050  0.6251273636013444  0.6242291913980336
  0.2498914284534733  0.2514861493717487  0.7505033854729850
  0.6226299963626002  0.6228246192821932  0.8768575822351667
  0.0015272349561243  0.7497827199261354  0.7519517593023208
 -0.0009936391138861  0.0000146326789708  0.2491495367695278
  0.6249415714461264  0.3742881702318263  0.3767848184149888
  0.2490868255933666  0.7478413570932857  0.7508286053740996
  0.6233749109158104  0.1263615445876295  0.1245868440113556
  0.1257259453295137  0.8763201281870546  0.8766093536030887
  0.4995249854180817  0.7509593805820053  0.7493571957030603
  0.8738609070036469  0.1256138065792709  0.8754308496812863
  0.8754313293707511  0.3733221738916793  0.8732784309011760
  0.8737114059576014  0.3759803285224604  0.6262371211443891
  0.2484167260221610  0.7486722003106636 -0.0003184379461551
  0.0004133558739407  0.7502214291038453  0.2490059078243568
  0.1237481792096033  0.1225952527338058  0.3759843301176262
  0.6258265991971249  0.8730110976813530  0.3763250991428230
  0.0003168125853582  0.2496863109382337  0.2510260961323147
  0.6258054306275032  0.6259673247113329  0.1236368400659217
  0.5023577894506605 -0.0004879303469536  0.7507046085635499
  0.5022249642041692 -0.0021268213961217 -0.0000013262681249
  0.2495667413605226  0.5003673981086679  0.7493342357594536
  0.6250512128623610  0.1274039901629112  0.8754846906075729
  0.3775631125929736  0.6255341388067120  0.8759154327102071
  0.3744232461377727  0.6263051408746108  0.3739596416203999
  0.2481738491997431  0.2503713438759668  0.2515954905145705
  0.8739739790903418  0.8736013366458590  0.6243055536491329
  0.4995105439167535  0.5014440969124874  0.4991801043345082
 -0.0008887353871796 -0.0001875513730305  0.7493195380275000
  0.7481509087777377  0.0006141805749848  0.4997202901382107
  0.8732316867580265  0.6263267597518117  0.1254909614619261
  0.7521848880840981  0.2514026316767467  0.2479554109621609
  0.8763919558811972  0.8757528503509708  0.8755419643409096
  0.1249298730997432  0.3756831227301338  0.6258992062965034
  0.3724880452749840  0.8757908739232763  0.8735473510285099
  0.7504283850523843  0.4975498291215577  0.0017500954851471
  0.1240151105503537  0.3747890028741784  0.8770423534236336
  0.1247872944507245  0.8758793855619564  0.1251594335439052
  0.2525153149713233  0.0002232466419341  0.4992023107889645
  0.6249596814154561  0.1264228858934958  0.6257106648885083
  0.2488564998546394  0.2508325947075971  0.4985456164334335
  0.3757238560039745  0.3739601349482820  0.6248255676921214
  0.3747044473177962  0.1249023545574712  0.6264868149568968
  0.8764085830722840  0.1236363506297558  0.3753218329924667
  0.4981495607082286  0.2494135489161075  0.7510532673993217
  0.8756134835634507  0.8744226700726110  0.1244956588564080
  0.6257995831732599  0.3762236251795955  0.8728299722566056
  0.7485976017901943  0.4982593068868678  0.2487515842675597
  0.8749699440766557  0.8757411568146130  0.3753427184684909
  0.3754080120802824  0.1230611356756831  0.8761623498525820
  0.1232402537119204  0.6237423924033442  0.6232549855867361
  0.6251791847623734  0.8751241625418520  0.6228437078080142
  0.3758657208229860  0.8760182316967990  0.6263137829788599
  0.0006875609324190  0.5007507069902327  0.7510774227101176
  0.1256570841747000  0.1257453476276230  0.6234115472858974
  0.0020232314861760  0.7484327598054057 -0.0003767067719466
  0.7495414619777985 -0.0006606732249401  0.7501870172907601
  0.5008590048208656 -0.0007663777160586  0.2508281409309018
  0.1245398762513061  0.8759297856279176  0.3733033813975246
  0.4996535544779472  0.0004972184570439  0.4985491297931973
  0.0017574858017215  0.2493217571057354  0.7489583493805542
  0.8745737884982725  0.1236844917527208  0.1243904888668050
 
  0.00000000E+00  0.00000000E+00  0.00000000E+00
  0.00000000E+00  0.00000000E+00  0.00000000E+00
  0.00000000E+00  0.00000000E+00  0.00000000E+00
  0.00000000E+00  0.00000000E+00  0.00000000E+00
  0.00000000E+00  0.00000000E+00  0.00000000E+00
  0.00000000E+00  0.00000000E+00  0.00000000E+00
  0.00000000E+00  0.00000000E+00  0.00000000E+00
  0.00000000E+00  0.00000000E+00  0.00000000E+00
  0.00000000E+00  0.00000000E+00  0.00000000E+00
  0.00000000E+00  0.00000000E+00  0.00000000E+00
  0.00000000E+00  0.00000000E+00  0.00000000E+00
  0.00000000E+00  0.00000000E+00  0.00000000E+00
  0.00000000E+00  0.00000000E+00  0.00000000E+00
  0.00000000E+00  0.00000000E+00  0.00000000E+00
  0.00000000E+00  0.00000000E+00  0.00000000E+00
  0.00000000E+00  0.00000000E+00  0.00000000E+00
  0.00000000E+00  0.00000000E+00  0.00000000E+00
  0.00000000E+00  0.00000000E+00  0.00000000E+00
  0.00000000E+00  0.00000000E+00  0.00000000E+00
  0.00000000E+00  0.00000000E+00  0.00000000E+00
  0.00000000E+00  0.00000000E+00  0.00000000E+00
  0.00000000E+00  0.00000000E+00  0.00000000E+00
  0.00000000E+00  0.00000000E+00  0.00000000E+00
  0.00000000E+00  0.00000000E+00  0.00000000E+00
  0.00000000E+00  0.00000000E+00  0.00000000E+00
  0.00000000E+00  0.00000000E+00  0.00000000E+00
  0.00000000E+00  0.00000000E+00  0.00000000E+00
  0.00000000E+00  0.00000000E+00  0.00000000E+00
  0.00000000E+00  0.00000000E+00  0.00000000E+00
  0.00000000E+00  0.00000000E+00  0.00000000E+00
  0.00000000E+00  0.00000000E+00  0.00000000E+00
  0.00000000E+00  0.00000000E+00  0.00000000E+00
  0.00000000E+00  0.00000000E+00  0.00000000E+00
  0.00000000E+00  0.00000000E+00  0.00000000E+00
  0.00000000E+00  0.00000000E+00  0.00000000E+00
  0.00000000E+00  0.00000000E+00  0.00000000E+00
  0.00000000E+00  0.00000000E+00  0.00000000E+00
  0.00000000E+00  0.00000000E+00  0.00000000E+00
  0.00000000E+00  0.00000000E+00  0.00000000E+00
  0.00000000E+00  0.00000000E+00  0.00000000E+00
  0.00000000E+00  0.00000000E+00  0.00000000E+00
  0.00000000E+00  0.00000000E+00  0.00000000E+00
  0.00000000E+00  0.00000000E+00  0.00000000E+00
  0.00000000E+00  0.00000000E+00  0.00000000E+00
  0.00000000E+00  0.00000000E+00  0.00000000E+00
  0.00000000E+00  0.00000000E+00  0.00000000E+00
  0.00000000E+00  0.00000000E+00  0.00000000E+00
  0.00000000E+00  0.00000000E+00  0.00000000E+00
  0.00000000E+00  0.00000000E+00  0.00000000E+00
  0.00000000E+00  0.00000000E+00  0.00000000E+00
  0.00000000E+00  0.00000000E+00  0.00000000E+00
  0.00000000E+00  0.00000000E+00  0.00000000E+00
  0.00000000E+00  0.00000000E+00  0.00000000E+00
  0.00000000E+00  0.00000000E+00  0.00000000E+00
  0.00000000E+00  0.00000000E+00  0.00000000E+00
  0.00000000E+00  0.00000000E+00  0.00000000E+00
  0.00000000E+00  0.00000000E+00  0.00000000E+00
  0.00000000E+00  0.00000000E+00  0.00000000E+00
  0.00000000E+00  0.00000000E+00  0.00000000E+00
  0.00000000E+00  0.00000000E+00  0.00000000E+00
  0.00000000E+00  0.00000000E+00  0.00000000E+00
  0.00000000E+00  0.00000000E+00  0.00000000E+00
  0.00000000E+00  0.00000000E+00  0.00000000E+00
  0.00000000E+00  0.00000000E+00  0.00000000E+00
  0.00000000E+00  0.00000000E+00  0.00000000E+00
  0.00000000E+00  0.00000000E+00  0.00000000E+00
  0.00000000E+00  0.00000000E+00  0.00000000E+00
  0.00000000E+00  0.00000000E+00  0.00000000E+00
  0.00000000E+00  0.00000000E+00  0.00000000E+00
  0.00000000E+00  0.00000000E+00  0.00000000E+00
  0.00000000E+00  0.00000000E+00  0.00000000E+00
  0.00000000E+00  0.00000000E+00  0.00000000E+00
  0.00000000E+00  0.00000000E+00  0.00000000E+00
  0.00000000E+00  0.00000000E+00  0.00000000E+00
  0.00000000E+00  0.00000000E+00  0.00000000E+00
  0.00000000E+00  0.00000000E+00  0.00000000E+00
  0.00000000E+00  0.00000000E+00  0.00000000E+00
  0.00000000E+00  0.00000000E+00  0.00000000E+00
  0.00000000E+00  0.00000000E+00  0.00000000E+00
  0.00000000E+00  0.00000000E+00  0.00000000E+00
  0.00000000E+00  0.00000000E+00  0.00000000E+00
  0.00000000E+00  0.00000000E+00  0.00000000E+00
  0.00000000E+00  0.00000000E+00  0.00000000E+00
  0.00000000E+00  0.00000000E+00  0.00000000E+00
  0.00000000E+00  0.00000000E+00  0.00000000E+00
  0.00000000E+00  0.00000000E+00  0.00000000E+00
  0.00000000E+00  0.00000000E+00  0.00000000E+00
  0.00000000E+00  0.00000000E+00  0.00000000E+00
  0.00000000E+00  0.00000000E+00  0.00000000E+00
  0.00000000E+00  0.00000000E+00  0.00000000E+00
  0.00000000E+00  0.00000000E+00  0.00000000E+00
  0.00000000E+00  0.00000000E+00  0.00000000E+00
  0.00000000E+00  0.00000000E+00  0.00000000E+00
  0.00000000E+00  0.00000000E+00  0.00000000E+00
  0.00000000E+00  0.00000000E+00  0.00000000E+00
  0.00000000E+00  0.00000000E+00  0.00000000E+00
  0.00000000E+00  0.00000000E+00  0.00000000E+00
  0.00000000E+00  0.00000000E+00  0.00000000E+00
  0.00000000E+00  0.00000000E+00  0.00000000E+00
  0.00000000E+00  0.00000000E+00  0.00000000E+00
  0.00000000E+00  0.00000000E+00  0.00000000E+00
  0.00000000E+00  0.00000000E+00  0.00000000E+00
  0.00000000E+00  0.00000000E+00  0.00000000E+00
  0.00000000E+00  0.00000000E+00  0.00000000E+00
  0.00000000E+00  0.00000000E+00  0.00000000E+00
  0.00000000E+00  0.00000000E+00  0.00000000E+00
  0.00000000E+00  0.00000000E+00  0.00000000E+00
  0.00000000E+00  0.00000000E+00  0.00000000E+00
  0.00000000E+00  0.00000000E+00  0.00000000E+00
  0.00000000E+00  0.00000000E+00  0.00000000E+00
  0.00000000E+00  0.00000000E+00  0.00000000E+00
  0.00000000E+00  0.00000000E+00  0.00000000E+00
  0.00000000E+00  0.00000000E+00  0.00000000E+00
  0.00000000E+00  0.00000000E+00  0.00000000E+00
  0.00000000E+00  0.00000000E+00  0.00000000E+00
  0.00000000E+00  0.00000000E+00  0.00000000E+00
  0.00000000E+00  0.00000000E+00  0.00000000E+00
  0.00000000E+00  0.00000000E+00  0.00000000E+00
  0.00000000E+00  0.00000000E+00  0.00000000E+00
  0.00000000E+00  0.00000000E+00  0.00000000E+00
  0.00000000E+00  0.00000000E+00  0.00000000E+00
  0.00000000E+00  0.00000000E+00  0.00000000E+00
  0.00000000E+00  0.00000000E+00  0.00000000E+00
  0.00000000E+00  0.00000000E+00  0.00000000E+00
  0.00000000E+00  0.00000000E+00  0.00000000E+00
  0.00000000E+00  0.00000000E+00  0.00000000E+00
  0.00000000E+00  0.00000000E+00  0.00000000E+00
  0.00000000E+00  0.00000000E+00  0.00000000E+00
