Hf Ti                                   
    1.000000000000000     
    12.7863192144652480   -0.0085889451403014   -0.0001059770178686
    -6.4005968121729380   11.0674024923891814    0.0003160678358001
    -0.0001677225043590    0.0004805050593557   20.1820306652355406
  Hf              Ti            
   124     4
Direct
     0.1664605603147680    0.8318061871399194    0.9377199159832793
     0.5832630798578284    0.9163408890497614    0.3125224647382887
     0.8344574245112555    0.6688325272327085    0.0612493156410434
     0.1669904131777043    0.3331653777152039    0.1874886824884509
     0.5828256052655461    0.6660540418388678    0.8121912916779542
     0.1668816990337273    0.3339246233366203    0.9375310754806513
     0.5812772348005086    0.1658485206820265    0.0635543689213644
     0.1666461716333016    0.8339375106479326    0.6881597564801325
     0.9169547026851212    0.3337315694159480    0.6876813712652106
     0.3332012907239832    0.6668735207856784    0.3125503968543403
     0.6664346128484279    0.5833557720144373    0.6874830270666944
     0.6665050774933161    0.3330058929281858    0.4374372090614672
     0.1664997444431906    0.0831314520446769    0.6879386412508157
     0.4177097446986893    0.5857253989117620    0.9375661501638211
     0.9163206372355434    0.0828722276181588    0.1870869781823976
     0.5831331292489008    0.6665419174466665    0.3125824011278381
     0.6669795644279800    0.8336589406911852    0.4374850683910353
     0.8335000269114730    0.6667885954883701    0.5626845807560246
     0.8328714590053101    0.4165099329884861    0.0624852323838548
     0.4153606007691805    0.8312423060149146    0.4384635739153279
     0.6643879907190409    0.0822475225075360    0.1871753875978873
     0.1669228045287624    0.0835838794219535    0.4372084042640308
     0.1664097360704394    0.3329841434297204    0.6876265210369200
     0.0855924537607308    0.6676030204639383    0.5625747615697807
     0.3335949726486643    0.4164916506957303    0.3123107229005067
     0.5835196605044828    0.4169245265806811    0.3124881281431863
     0.5836475167007659    0.1670261790014601    0.8127726055247628
     0.6667908932559248    0.5832252351053895    0.1873193897979929
     0.1678596229961614    0.5857571162279169    0.9374276878143248
     0.9169853404099033    0.5832303018561873    0.4375699677732464
     0.3345538406033896    0.1655268358048578    0.3112531418593761
     0.5837707214421126    0.4167834082452528    0.8128348607189322
     0.1679408903974773    0.0822093386366960    0.1870777658541780
     0.0855736983057698    0.4179674816391059    0.5626241408101511
     0.0834013527473689    0.4169660750255614    0.3123952417105005
     0.9170245211769961    0.0818929091614296    0.9377123428800339
     0.9164601541675981    0.0831311987735820    0.6879283277653302
     0.4174416288873619    0.3318898181219980    0.1870940243337061
     0.9166468750397556    0.8334310668080139    0.4375323157599467
     0.0816593352930018    0.9156333860761634    0.8142497032205193
     0.0836868205219777    0.9165793301171201    0.5627057907343322
     0.4165797799295503    0.0827660825360629    0.6876058616858165
     0.4169355424507610    0.0816188141252819    0.9379188885338762
     0.3345591159351263    0.9186829119597834    0.3112808139047434
     0.8330385047765853    0.4161776972365722    0.3121138115120162
     0.6671385879010087    0.8339929138879025    0.6881785851628013
     0.4167307486007249    0.5836151063078666    0.1873546315700877
     0.9160708982281435    0.3330543241003937    0.1871123472874469
     0.4166207100509942    0.3337052497155741    0.6876882187509212
     0.4155962855409955    0.8312672353175944    0.6871140243056795
     0.4175016065805380    0.8357529237072204    0.1868702149037462
     0.5819868130516767    0.9143577239236453    0.5627256511789014
     0.8329912201372666    0.9165232935003600    0.5627727760656830
     0.0840522828040574    0.1670891594792410    0.0626080670220587
     0.1650592006288086    0.0820792781307352    0.9377749896555901
     0.1691146880950913    0.5845648746434713    0.6865333932976756
     0.1668230086474596    0.8336864627418523    0.4371867230347525
     0.0839269951839458    0.4172870890983522    0.8125727565706165
     0.6661756200982732    0.5832929657750433    0.4378339988510527
     0.3343662538773077    0.6692583331354791    0.0615282962891761
     0.6657110325828410    0.8317402044298302    0.9373898043952017
     0.9178853971424639    0.5858659789471836    0.9376139236793849
     0.3335124053249752    0.4172732184601881    0.8126567697140709
     0.3326107451212043    0.4180205947768357    0.5625422774427355
     0.8326123524395129    0.1658715141993413    0.0621439736733685
     0.6645763257437264    0.0820215252892599    0.9376952140320822
     0.5811283150851438    0.1654276572161294    0.3112417784844037
     0.9169826162446949    0.8334963217198106    0.1867140151622971
     0.6679871959295370    0.5858818616841109    0.9373584226527317
     0.5815849740112747    0.9154119854471897    0.0608894662753674
     0.0831759191607084    0.9164012653797522    0.3122010122583613
     0.5830794591953282    0.1658570351991433    0.5624652335859520
     0.8344890585186724    0.6687651482541302    0.8135595229031635
     0.6665628074837486    0.8338016089173306    0.1869505060011486
     0.9166937468655368    0.8334994772584537    0.6882953081611006
     0.4165417904107494    0.3334156559175124    0.9377040369321941
     0.0835499578691389    0.1669631974394159    0.8128456783441623
     0.6643282108557804    0.3319482757045637    0.1874305819749970
     0.0833790246631490    0.1666824764512315    0.5625152220674894
     0.8330305292362782    0.1667749565651476    0.3121793381992050
     0.0811365748271077    0.9153409959137031    0.0608497519256186
     0.5840330746296954    0.4173068287519370    0.0621192246522644
     0.3344787903400585    0.6688195918965195    0.8132746844493325
     0.8341900927124397    0.9156317739282206    0.8141286783421777
     0.3352194121979069    0.9177560446911507    0.0622061907341279
     0.6660800945759080    0.0831864369366695    0.4375227268539232
     0.9169125565632934    0.3338356315163692    0.9374957851182414
     0.3340830990623750    0.1645499338393649    0.0630758938168608
     0.1663692729213550    0.3330330274777582    0.4373364888431670
     0.0837212293643122    0.1665409217309627    0.3120225937545747
     0.8331472817327218    0.4169274670653473    0.8128611410699490
     0.6660921972820844    0.0827610056269134    0.6876173031917374
     0.5831692154085797    0.6661881700345387    0.0625401485386321
     0.8339991642333182    0.4168844247448503    0.5625491844949453
     0.6665874139380265    0.3332548352811183    0.6873770500079791
     0.3332026105145442    0.4165453206168530    0.0624851515831981
     0.4154577286162537    0.5844738532752694    0.4384847996019747
     0.4152972658986916    0.5845770961582659    0.6865676246475394
     0.0835713953730667    0.6665630121899256    0.0628634769553618
     0.1683555152999701    0.8360821159096192    0.1869382338188237
     0.9166208805916432    0.0834056478531790    0.4372645946333858
     0.8341775490645884    0.9155478963992248    0.0609598970727101
     0.5819959590857091    0.6676455931215202    0.5626603493591795
     0.6666963916265841    0.3333974858404885    0.9377813558159211
     0.8328343890526912    0.1657383585328371    0.8130633965426969
     0.0833092400132317    0.6660831956937185    0.8122784450446380
     0.9167530624619982    0.5833308118161147    0.6874943046515177
     0.5811685905803052    0.9156117236147381    0.8138840016133483
     0.8333096604503268    0.6664891051990894    0.3125234649135171
     0.9163382275397475    0.5836771730658182    0.1873161804315514
     0.3330723887611445    0.1665060819271312    0.5625830908840408
     0.8334706718184101    0.1664080605395106    0.5626265848420793
     0.0838535488847334    0.4170284462774851    0.0623873814426450
     0.9170018433778079    0.3338089204361370    0.4377087880663643
     0.3329634902998843    0.1658043260213018    0.8131160531622273
     0.3343643075987193    0.9154374683657346    0.8139039573305293
     0.1688162799911042    0.5844164636355670    0.4386323593838487
     0.0839665672339859    0.6669269163765077    0.3122689966266299
     0.4167175935189478    0.0830107726785403    0.4372427105750286
     0.8332695095411325    0.9165688922501533    0.3121440009751567
     0.5829240291263142    0.4167660007680667    0.5625701208056852
     0.1671481554018099    0.5840954932097914    0.1873560100325719
     0.4164472959630222    0.3334572148943565    0.4375086702358202
     0.3324307784845685    0.9142750026519176    0.5626607275637110
     0.9164097027973426    0.8330631900901592    0.9374418139109189
     0.4163746386485926    0.0830327905706766    0.1872345536964448
     0.4162455037498287    0.8334040342235380    0.9375635306760032
     0.3333832711779898    0.6664812680906134    0.5625996578896759
 
  0.00000000E+00  0.00000000E+00  0.00000000E+00
  0.00000000E+00  0.00000000E+00  0.00000000E+00
  0.00000000E+00  0.00000000E+00  0.00000000E+00
  0.00000000E+00  0.00000000E+00  0.00000000E+00
  0.00000000E+00  0.00000000E+00  0.00000000E+00
  0.00000000E+00  0.00000000E+00  0.00000000E+00
  0.00000000E+00  0.00000000E+00  0.00000000E+00
  0.00000000E+00  0.00000000E+00  0.00000000E+00
  0.00000000E+00  0.00000000E+00  0.00000000E+00
  0.00000000E+00  0.00000000E+00  0.00000000E+00
  0.00000000E+00  0.00000000E+00  0.00000000E+00
  0.00000000E+00  0.00000000E+00  0.00000000E+00
  0.00000000E+00  0.00000000E+00  0.00000000E+00
  0.00000000E+00  0.00000000E+00  0.00000000E+00
  0.00000000E+00  0.00000000E+00  0.00000000E+00
  0.00000000E+00  0.00000000E+00  0.00000000E+00
  0.00000000E+00  0.00000000E+00  0.00000000E+00
  0.00000000E+00  0.00000000E+00  0.00000000E+00
  0.00000000E+00  0.00000000E+00  0.00000000E+00
  0.00000000E+00  0.00000000E+00  0.00000000E+00
  0.00000000E+00  0.00000000E+00  0.00000000E+00
  0.00000000E+00  0.00000000E+00  0.00000000E+00
  0.00000000E+00  0.00000000E+00  0.00000000E+00
  0.00000000E+00  0.00000000E+00  0.00000000E+00
  0.00000000E+00  0.00000000E+00  0.00000000E+00
  0.00000000E+00  0.00000000E+00  0.00000000E+00
  0.00000000E+00  0.00000000E+00  0.00000000E+00
  0.00000000E+00  0.00000000E+00  0.00000000E+00
  0.00000000E+00  0.00000000E+00  0.00000000E+00
  0.00000000E+00  0.00000000E+00  0.00000000E+00
  0.00000000E+00  0.00000000E+00  0.00000000E+00
  0.00000000E+00  0.00000000E+00  0.00000000E+00
  0.00000000E+00  0.00000000E+00  0.00000000E+00
  0.00000000E+00  0.00000000E+00  0.00000000E+00
  0.00000000E+00  0.00000000E+00  0.00000000E+00
  0.00000000E+00  0.00000000E+00  0.00000000E+00
  0.00000000E+00  0.00000000E+00  0.00000000E+00
  0.00000000E+00  0.00000000E+00  0.00000000E+00
  0.00000000E+00  0.00000000E+00  0.00000000E+00
  0.00000000E+00  0.00000000E+00  0.00000000E+00
  0.00000000E+00  0.00000000E+00  0.00000000E+00
  0.00000000E+00  0.00000000E+00  0.00000000E+00
  0.00000000E+00  0.00000000E+00  0.00000000E+00
  0.00000000E+00  0.00000000E+00  0.00000000E+00
  0.00000000E+00  0.00000000E+00  0.00000000E+00
  0.00000000E+00  0.00000000E+00  0.00000000E+00
  0.00000000E+00  0.00000000E+00  0.00000000E+00
  0.00000000E+00  0.00000000E+00  0.00000000E+00
  0.00000000E+00  0.00000000E+00  0.00000000E+00
  0.00000000E+00  0.00000000E+00  0.00000000E+00
  0.00000000E+00  0.00000000E+00  0.00000000E+00
  0.00000000E+00  0.00000000E+00  0.00000000E+00
  0.00000000E+00  0.00000000E+00  0.00000000E+00
  0.00000000E+00  0.00000000E+00  0.00000000E+00
  0.00000000E+00  0.00000000E+00  0.00000000E+00
  0.00000000E+00  0.00000000E+00  0.00000000E+00
  0.00000000E+00  0.00000000E+00  0.00000000E+00
  0.00000000E+00  0.00000000E+00  0.00000000E+00
  0.00000000E+00  0.00000000E+00  0.00000000E+00
  0.00000000E+00  0.00000000E+00  0.00000000E+00
  0.00000000E+00  0.00000000E+00  0.00000000E+00
  0.00000000E+00  0.00000000E+00  0.00000000E+00
  0.00000000E+00  0.00000000E+00  0.00000000E+00
  0.00000000E+00  0.00000000E+00  0.00000000E+00
  0.00000000E+00  0.00000000E+00  0.00000000E+00
  0.00000000E+00  0.00000000E+00  0.00000000E+00
  0.00000000E+00  0.00000000E+00  0.00000000E+00
  0.00000000E+00  0.00000000E+00  0.00000000E+00
  0.00000000E+00  0.00000000E+00  0.00000000E+00
  0.00000000E+00  0.00000000E+00  0.00000000E+00
  0.00000000E+00  0.00000000E+00  0.00000000E+00
  0.00000000E+00  0.00000000E+00  0.00000000E+00
  0.00000000E+00  0.00000000E+00  0.00000000E+00
  0.00000000E+00  0.00000000E+00  0.00000000E+00
  0.00000000E+00  0.00000000E+00  0.00000000E+00
  0.00000000E+00  0.00000000E+00  0.00000000E+00
  0.00000000E+00  0.00000000E+00  0.00000000E+00
  0.00000000E+00  0.00000000E+00  0.00000000E+00
  0.00000000E+00  0.00000000E+00  0.00000000E+00
  0.00000000E+00  0.00000000E+00  0.00000000E+00
  0.00000000E+00  0.00000000E+00  0.00000000E+00
  0.00000000E+00  0.00000000E+00  0.00000000E+00
  0.00000000E+00  0.00000000E+00  0.00000000E+00
  0.00000000E+00  0.00000000E+00  0.00000000E+00
  0.00000000E+00  0.00000000E+00  0.00000000E+00
  0.00000000E+00  0.00000000E+00  0.00000000E+00
  0.00000000E+00  0.00000000E+00  0.00000000E+00
  0.00000000E+00  0.00000000E+00  0.00000000E+00
  0.00000000E+00  0.00000000E+00  0.00000000E+00
  0.00000000E+00  0.00000000E+00  0.00000000E+00
  0.00000000E+00  0.00000000E+00  0.00000000E+00
  0.00000000E+00  0.00000000E+00  0.00000000E+00
  0.00000000E+00  0.00000000E+00  0.00000000E+00
  0.00000000E+00  0.00000000E+00  0.00000000E+00
  0.00000000E+00  0.00000000E+00  0.00000000E+00
  0.00000000E+00  0.00000000E+00  0.00000000E+00
  0.00000000E+00  0.00000000E+00  0.00000000E+00
  0.00000000E+00  0.00000000E+00  0.00000000E+00
  0.00000000E+00  0.00000000E+00  0.00000000E+00
  0.00000000E+00  0.00000000E+00  0.00000000E+00
  0.00000000E+00  0.00000000E+00  0.00000000E+00
  0.00000000E+00  0.00000000E+00  0.00000000E+00
  0.00000000E+00  0.00000000E+00  0.00000000E+00
  0.00000000E+00  0.00000000E+00  0.00000000E+00
  0.00000000E+00  0.00000000E+00  0.00000000E+00
  0.00000000E+00  0.00000000E+00  0.00000000E+00
  0.00000000E+00  0.00000000E+00  0.00000000E+00
  0.00000000E+00  0.00000000E+00  0.00000000E+00
  0.00000000E+00  0.00000000E+00  0.00000000E+00
  0.00000000E+00  0.00000000E+00  0.00000000E+00
  0.00000000E+00  0.00000000E+00  0.00000000E+00
  0.00000000E+00  0.00000000E+00  0.00000000E+00
  0.00000000E+00  0.00000000E+00  0.00000000E+00
  0.00000000E+00  0.00000000E+00  0.00000000E+00
  0.00000000E+00  0.00000000E+00  0.00000000E+00
  0.00000000E+00  0.00000000E+00  0.00000000E+00
  0.00000000E+00  0.00000000E+00  0.00000000E+00
  0.00000000E+00  0.00000000E+00  0.00000000E+00
  0.00000000E+00  0.00000000E+00  0.00000000E+00
  0.00000000E+00  0.00000000E+00  0.00000000E+00
  0.00000000E+00  0.00000000E+00  0.00000000E+00
  0.00000000E+00  0.00000000E+00  0.00000000E+00
  0.00000000E+00  0.00000000E+00  0.00000000E+00
  0.00000000E+00  0.00000000E+00  0.00000000E+00
  0.00000000E+00  0.00000000E+00  0.00000000E+00
  0.00000000E+00  0.00000000E+00  0.00000000E+00
  0.00000000E+00  0.00000000E+00  0.00000000E+00
  0.00000000E+00  0.00000000E+00  0.00000000E+00
