Hf Ti                                   
    1.000000000000000     
    12.2453398716726891    0.0095521769094613   -0.0015181555253182
    -6.1144032284938037   10.5549465276902552    0.0041794200094547
    -0.0024553361823722    0.0062564420439167   19.2616313544584159
  Hf              Ti            
    52    76
Direct
     0.3295242159656751    0.1604043344582418    0.5588145749840820
     0.8348827835766963    0.9202146194908257    0.0674465141472358
     0.4157794623165141    0.8301166316810675    0.9407340525080495
     0.6616555190183139    0.0817038553243601    0.4378225439594761
     0.5859717454448862    0.1659997375508221    0.3101714649967460
     0.8288680470483546    0.6598090036838929    0.0640262946549174
     0.3305008004200555    0.1632818544008235    0.3136773559816353
     0.9175935368377639    0.5751992819973039    0.9363066061326060
     0.9214861562002262    0.0926489027079934    0.9389003831799815
     0.9216752738866688    0.5863392520975572    0.6863631869252002
     0.0884856390434581    0.6644184174099066    0.8110377178597226
     0.6667144067112486    0.0840150544238821    0.9335610664980424
     0.5760778777557301    0.6618880161542269    0.0632909558253595
     0.4086747468411177    0.0780247579074557    0.1865976475288519
     0.0843736635398333    0.4202747999584644    0.5631252057814907
     0.9201373218925810    0.3393258518242462    0.4313218426002135
     0.1704875764894866    0.8428944855870678    0.9371353982423660
     0.9189502698081744    0.8326559652826900    0.4355071859905445
     0.0882280128393933    0.6704338292003067    0.0632772841238776
     0.0776490000750156    0.6634063462867417    0.3149985697008575
     0.5799326036240297    0.6640805725597039    0.8073883707358379
     0.1735801868586700    0.8414787482290240    0.4388703128694283
     0.1707405941004022    0.3309135129830075    0.1856036531340601
     0.4170970801953505    0.0812973592907021    0.6854806339108006
     0.1745021064575903    0.5880979449482394    0.1895518428262279
     0.0819729828851279    0.4125887172869374    0.0581641764086904
     0.3414336223410009    0.9190023611352905    0.8110530749022155
     0.5760006101923514    0.9142611676707053    0.5665528563593097
     0.9225505500265356    0.8417433381340867    0.9373601734974679
     0.8290123035001730    0.6653801875595217    0.8123081429765484
     0.9177704574263628    0.3352297344155390    0.1918924742606868
     0.8354438919422795    0.1669018563865025    0.5655974998734039
     0.6690390386361824    0.3440847574375641    0.1852208882625442
     0.3311865520352897    0.4174219039894546    0.5616742387433610
     0.0777295425887564    0.1623912550119327    0.3123616509937977
     0.0806062774273315    0.1642626319303099    0.8102794946764199
     0.3296416878624678    0.4203135880066083    0.8131393442337094
     0.9196091460545718    0.0833315043931810    0.4388462129406349
     0.6643392138405286    0.5782649484112714    0.4389600584845305
     0.5788555353054013    0.1634514970773626    0.0618315807523180
     0.5836611048825238    0.6658965797342001    0.5677049087602872
     0.6663796813446495    0.8315655369352690    0.9360337806517602
     0.5844095267178976    0.6689643120473185    0.3115052732972574
     0.3353624838455938    0.4214989464949507    0.3141926766124955
     0.6655968051058401    0.8341868888430332    0.4381339133667972
     0.6687806128934191    0.0884987806609258    0.6928757440984405
     0.3334190815655446    0.1655540830218613    0.8149583997589500
     0.8296320604043445    0.4167410008973553    0.5633432354126847
     0.4197491716686348    0.3391561161300386    0.6875751432064280
     0.6571066030279609    0.3300392901590731    0.4373745899308654
     0.6640872061378088    0.3371694981392120    0.9370072817884731
     0.6701483596395705    0.0751922601983615    0.1856727856609371
     0.8298234768271372    0.4055094229402827    0.8100765778329865
     0.1689735426193213    0.3314886138832166    0.4385698537650703
     0.9145149139176909    0.8365152861316918    0.6875510908170644
     0.0824386923586585    0.9177587101345843    0.8080203576633722
     0.4165518444522182    0.3358845932839901    0.9402080317554313
     0.9203917996698103    0.0843095227990365    0.1869215292854710
     0.8380301727530618    0.9146920393624527    0.5657052341095278
     0.5828074587508520    0.9141803003391648    0.0635590969144013
     0.8364349784120731    0.4141793451313214    0.0623687951071167
     0.4176800999643325    0.0754351558382327    0.4371997869096579
     0.4189848740810596    0.8296023945057024    0.1860579673438336
     0.5743566082060759    0.4156318355814015    0.0621149801855165
     0.8293141128630014    0.1554848303377129    0.3112207606964257
     0.4100574026368392    0.5773700197334343    0.9391045207461944
     0.8402598405198832    0.6730350715982762    0.5637565000157840
     0.3334749742913716    0.4138059994813023    0.0607488875150866
     0.1600991386935376    0.0783431419714814    0.1859776284258556
     0.8306084453840192    0.9224655511651767    0.8090019474311577
     0.5783507351106058    0.9122578895409273    0.3106682137623540
     0.1715236360416910    0.0889748267411804    0.9404165439964248
     0.0862922537535517    0.6694326871941622    0.5611232619946630
     0.8296928776105582    0.4255846607540497    0.3122158063934410
     0.3327524698165190    0.6611214537177093    0.0629119854499145
     0.0896147076795787    0.1654839631350448    0.0616781732080556
     0.4121215881836616    0.5879824189551938    0.4388058313642352
     0.3283653124304365    0.6708710141625417    0.5619150343469272
     0.1664721110096801    0.8333569091258873    0.6841772745142850
     0.5825171972118980    0.1737867685126648    0.8122939529649866
     0.8312858919723568    0.6625339536110889    0.3098341168220517
     0.4153324115814109    0.0865618335413871    0.9404724137810477
     0.5822560180972094    0.4184616461822371    0.3102299755869634
     0.6641032758336868    0.8300321932235774    0.1884034033832699
     0.9237336545340852    0.3360116278357732    0.6909754948433942
     0.3294502548289112    0.1697536988774138    0.0630036101611500
     0.1749616767580258    0.5851796273289979    0.4371839020927482
     0.3381757872168462    0.6724101854884095    0.3138596142754422
     0.9168259309927113    0.5866291171514486    0.1893477760125843
     0.6715940109749442    0.5802576999752309    0.6856296946030448
     0.4105738311047786    0.8214961592848441    0.6880357735126432
     0.1633819582117959    0.8352605606114510    0.1896956748471383
     0.9190522614785075    0.8316860251969029    0.1907684188126988
     0.0894811843020928    0.9231019694434975    0.0657853831232360
     0.4198402546816160    0.3393128394713069    0.1855308938584824
     0.3337492490408919    0.6645625712190402    0.8123451672280290
     0.4186326507221204    0.3367839193464593    0.4369309230254521
     0.1718399499832111    0.3323508214399306    0.9377752746915289
     0.3329377503237412    0.9120460365085511    0.5626310628589678
     0.4181668686695829    0.5850026956416865    0.1871553439816302
     0.1604797128999612    0.3317610368319858    0.6874168632026110
     0.4122929918532444    0.8298549525336664    0.4361973106952873
     0.8398678712613826    0.1713741760718134    0.8107852946062505
     0.0924709028930857    0.4204971990122577    0.3145116011674776
     0.5872071095161532    0.4186096086425830    0.8118140690784222
     0.3353181327854012    0.9099127092118968    0.3110972249672712
     0.6676571670045228    0.3349153401357731    0.6898595344368074
     0.0839049668283260    0.1622851777230136    0.5653741600017677
     0.5839981173474460    0.4133861184638420    0.5649346086715189
     0.1652922248627887    0.0847667751476826    0.4386948328217575
     0.9156056053108590    0.3332949495189428    0.9346246219718682
     0.0846477636167943    0.9178619106307255    0.3104279257064874
     0.6658576660219804    0.5859077658309971    0.1885623649022128
     0.1725703123017595    0.5856132205181129    0.6871807297939638
     0.9160649296669001    0.5846790450470968    0.4381396512468122
     0.8362288700828724    0.1716489345699954    0.0625328434043431
     0.3293975026838935    0.9163987329112144    0.0654421477929853
     0.8297433209790740    0.9170911437431905    0.3078414915864046
     0.0789413495646082    0.9154867116941678    0.5655270868289690
     0.5807415789112519    0.1679556433709798    0.5642406804941726
     0.5814733125850976    0.9101406265271601    0.8089553394900089
     0.1737673473399351    0.5804964599959120    0.9357455197015129
     0.4075238477447373    0.5880184266538353    0.6858697108921136
     0.6772282341231134    0.8398628065636641    0.6877510019822094
     0.9180189844425211    0.0797179075933404    0.6870585316112250
     0.6547515145005588    0.5765040289376151    0.9371226429865730
     0.0805599411368440    0.4152969594407451    0.8136085026440830
     0.1634166969319791    0.0806669956944115    0.6860899002895436
 
  0.00000000E+00  0.00000000E+00  0.00000000E+00
  0.00000000E+00  0.00000000E+00  0.00000000E+00
  0.00000000E+00  0.00000000E+00  0.00000000E+00
  0.00000000E+00  0.00000000E+00  0.00000000E+00
  0.00000000E+00  0.00000000E+00  0.00000000E+00
  0.00000000E+00  0.00000000E+00  0.00000000E+00
  0.00000000E+00  0.00000000E+00  0.00000000E+00
  0.00000000E+00  0.00000000E+00  0.00000000E+00
  0.00000000E+00  0.00000000E+00  0.00000000E+00
  0.00000000E+00  0.00000000E+00  0.00000000E+00
  0.00000000E+00  0.00000000E+00  0.00000000E+00
  0.00000000E+00  0.00000000E+00  0.00000000E+00
  0.00000000E+00  0.00000000E+00  0.00000000E+00
  0.00000000E+00  0.00000000E+00  0.00000000E+00
  0.00000000E+00  0.00000000E+00  0.00000000E+00
  0.00000000E+00  0.00000000E+00  0.00000000E+00
  0.00000000E+00  0.00000000E+00  0.00000000E+00
  0.00000000E+00  0.00000000E+00  0.00000000E+00
  0.00000000E+00  0.00000000E+00  0.00000000E+00
  0.00000000E+00  0.00000000E+00  0.00000000E+00
  0.00000000E+00  0.00000000E+00  0.00000000E+00
  0.00000000E+00  0.00000000E+00  0.00000000E+00
  0.00000000E+00  0.00000000E+00  0.00000000E+00
  0.00000000E+00  0.00000000E+00  0.00000000E+00
  0.00000000E+00  0.00000000E+00  0.00000000E+00
  0.00000000E+00  0.00000000E+00  0.00000000E+00
  0.00000000E+00  0.00000000E+00  0.00000000E+00
  0.00000000E+00  0.00000000E+00  0.00000000E+00
  0.00000000E+00  0.00000000E+00  0.00000000E+00
  0.00000000E+00  0.00000000E+00  0.00000000E+00
  0.00000000E+00  0.00000000E+00  0.00000000E+00
  0.00000000E+00  0.00000000E+00  0.00000000E+00
  0.00000000E+00  0.00000000E+00  0.00000000E+00
  0.00000000E+00  0.00000000E+00  0.00000000E+00
  0.00000000E+00  0.00000000E+00  0.00000000E+00
  0.00000000E+00  0.00000000E+00  0.00000000E+00
  0.00000000E+00  0.00000000E+00  0.00000000E+00
  0.00000000E+00  0.00000000E+00  0.00000000E+00
  0.00000000E+00  0.00000000E+00  0.00000000E+00
  0.00000000E+00  0.00000000E+00  0.00000000E+00
  0.00000000E+00  0.00000000E+00  0.00000000E+00
  0.00000000E+00  0.00000000E+00  0.00000000E+00
  0.00000000E+00  0.00000000E+00  0.00000000E+00
  0.00000000E+00  0.00000000E+00  0.00000000E+00
  0.00000000E+00  0.00000000E+00  0.00000000E+00
  0.00000000E+00  0.00000000E+00  0.00000000E+00
  0.00000000E+00  0.00000000E+00  0.00000000E+00
  0.00000000E+00  0.00000000E+00  0.00000000E+00
  0.00000000E+00  0.00000000E+00  0.00000000E+00
  0.00000000E+00  0.00000000E+00  0.00000000E+00
  0.00000000E+00  0.00000000E+00  0.00000000E+00
  0.00000000E+00  0.00000000E+00  0.00000000E+00
  0.00000000E+00  0.00000000E+00  0.00000000E+00
  0.00000000E+00  0.00000000E+00  0.00000000E+00
  0.00000000E+00  0.00000000E+00  0.00000000E+00
  0.00000000E+00  0.00000000E+00  0.00000000E+00
  0.00000000E+00  0.00000000E+00  0.00000000E+00
  0.00000000E+00  0.00000000E+00  0.00000000E+00
  0.00000000E+00  0.00000000E+00  0.00000000E+00
  0.00000000E+00  0.00000000E+00  0.00000000E+00
  0.00000000E+00  0.00000000E+00  0.00000000E+00
  0.00000000E+00  0.00000000E+00  0.00000000E+00
  0.00000000E+00  0.00000000E+00  0.00000000E+00
  0.00000000E+00  0.00000000E+00  0.00000000E+00
  0.00000000E+00  0.00000000E+00  0.00000000E+00
  0.00000000E+00  0.00000000E+00  0.00000000E+00
  0.00000000E+00  0.00000000E+00  0.00000000E+00
  0.00000000E+00  0.00000000E+00  0.00000000E+00
  0.00000000E+00  0.00000000E+00  0.00000000E+00
  0.00000000E+00  0.00000000E+00  0.00000000E+00
  0.00000000E+00  0.00000000E+00  0.00000000E+00
  0.00000000E+00  0.00000000E+00  0.00000000E+00
  0.00000000E+00  0.00000000E+00  0.00000000E+00
  0.00000000E+00  0.00000000E+00  0.00000000E+00
  0.00000000E+00  0.00000000E+00  0.00000000E+00
  0.00000000E+00  0.00000000E+00  0.00000000E+00
  0.00000000E+00  0.00000000E+00  0.00000000E+00
  0.00000000E+00  0.00000000E+00  0.00000000E+00
  0.00000000E+00  0.00000000E+00  0.00000000E+00
  0.00000000E+00  0.00000000E+00  0.00000000E+00
  0.00000000E+00  0.00000000E+00  0.00000000E+00
  0.00000000E+00  0.00000000E+00  0.00000000E+00
  0.00000000E+00  0.00000000E+00  0.00000000E+00
  0.00000000E+00  0.00000000E+00  0.00000000E+00
  0.00000000E+00  0.00000000E+00  0.00000000E+00
  0.00000000E+00  0.00000000E+00  0.00000000E+00
  0.00000000E+00  0.00000000E+00  0.00000000E+00
  0.00000000E+00  0.00000000E+00  0.00000000E+00
  0.00000000E+00  0.00000000E+00  0.00000000E+00
  0.00000000E+00  0.00000000E+00  0.00000000E+00
  0.00000000E+00  0.00000000E+00  0.00000000E+00
  0.00000000E+00  0.00000000E+00  0.00000000E+00
  0.00000000E+00  0.00000000E+00  0.00000000E+00
  0.00000000E+00  0.00000000E+00  0.00000000E+00
  0.00000000E+00  0.00000000E+00  0.00000000E+00
  0.00000000E+00  0.00000000E+00  0.00000000E+00
  0.00000000E+00  0.00000000E+00  0.00000000E+00
  0.00000000E+00  0.00000000E+00  0.00000000E+00
  0.00000000E+00  0.00000000E+00  0.00000000E+00
  0.00000000E+00  0.00000000E+00  0.00000000E+00
  0.00000000E+00  0.00000000E+00  0.00000000E+00
  0.00000000E+00  0.00000000E+00  0.00000000E+00
  0.00000000E+00  0.00000000E+00  0.00000000E+00
  0.00000000E+00  0.00000000E+00  0.00000000E+00
  0.00000000E+00  0.00000000E+00  0.00000000E+00
  0.00000000E+00  0.00000000E+00  0.00000000E+00
  0.00000000E+00  0.00000000E+00  0.00000000E+00
  0.00000000E+00  0.00000000E+00  0.00000000E+00
  0.00000000E+00  0.00000000E+00  0.00000000E+00
  0.00000000E+00  0.00000000E+00  0.00000000E+00
  0.00000000E+00  0.00000000E+00  0.00000000E+00
  0.00000000E+00  0.00000000E+00  0.00000000E+00
  0.00000000E+00  0.00000000E+00  0.00000000E+00
  0.00000000E+00  0.00000000E+00  0.00000000E+00
  0.00000000E+00  0.00000000E+00  0.00000000E+00
  0.00000000E+00  0.00000000E+00  0.00000000E+00
  0.00000000E+00  0.00000000E+00  0.00000000E+00
  0.00000000E+00  0.00000000E+00  0.00000000E+00
  0.00000000E+00  0.00000000E+00  0.00000000E+00
  0.00000000E+00  0.00000000E+00  0.00000000E+00
  0.00000000E+00  0.00000000E+00  0.00000000E+00
  0.00000000E+00  0.00000000E+00  0.00000000E+00
  0.00000000E+00  0.00000000E+00  0.00000000E+00
  0.00000000E+00  0.00000000E+00  0.00000000E+00
  0.00000000E+00  0.00000000E+00  0.00000000E+00
  0.00000000E+00  0.00000000E+00  0.00000000E+00
  0.00000000E+00  0.00000000E+00  0.00000000E+00
  0.00000000E+00  0.00000000E+00  0.00000000E+00
