Nb  V                                   
    1.000000000000000     
    13.0850929806804785   -0.0192001707244692    0.0515891048911276
    -0.0192119621429384   13.0956824250968307   -0.0046435133218797
     0.0516269149376503   -0.0046461222438855   13.1002049767975812
   Nb   V 
   112    16
Direct
  0.0005528076777299  0.4980522097964778 -0.0019344005652964
  0.1274456723502076  0.8717269336577188  0.8765887996939394
 -0.0005406871159104  0.4950661533264656  0.2518749654482314
  0.2496238740655384  0.5002658858391931  0.7489073113580105
  0.4958849901401289  0.0016582348645102  0.2464434099436210
  0.7488962232343680  0.0014704232371042  0.2528354596188366
  0.2521278765990004  0.7467743592613426  0.7506778233093038
  0.1229149742380186  0.8725791684493333  0.6229611482574270
  0.0001969642788162  0.7481151494924582  0.7477344743237946
  0.8732846659801619  0.1240499475932634  0.6226282252544044
  0.3748961629608192  0.8725156670366739  0.6250650874431725
  0.2513393799883574  0.4996897516958576  0.2462681116766277
  0.6283350672868639  0.3777535400208289  0.8733292730823865
  0.7486213843868136  0.7491572092839620 -0.0012723821064495
  0.8769374207108680  0.1275182124698951  0.1280717902061299
  0.2538981039824377 -0.0025655833947726  0.0048509793813325
  0.8747235865827178  0.8737418441276754  0.6212572891240726
  0.1240070159832725  0.3717123266427924  0.3713663673987784
  0.6247554766747373  0.6228325933939504  0.8717279775411282
  0.3736366672132047  0.3776597481883968  0.6246074812774681
  0.1247490296114635  0.6239650208585216  0.6244538077098648
  0.1289537102569265  0.6247547768732513  0.8780831106342281
  0.7504341721334435  0.5002173859089143  0.5028925810869542
  0.1276590828075775  0.3735265995288639  0.1267723043252307
  0.2494400758548897 -0.0004465441087554  0.7512024201678876
  0.8750126268678463  0.8756665356732146  0.3784776458165509
  0.3742556681073790  0.3718084511022866  0.3697799818004410
  0.1249461697476627  0.1288544453335098  0.3708752039660307
  0.1317562775258674  0.6232308961936864  0.1214422016470914
  0.1290125099791097  0.1296926640253477  0.1286697998154648
  0.0021459326039082  0.0006735453862670  0.0002600111054761
  0.8762885862582743  0.6238281320106460  0.1244411524571623
  0.6235503693539893  0.8741597117149457  0.8743988402352670
  0.3743171580577598  0.1253337490961204  0.8789786659630699
  0.0021296327434211  0.7495296764848259  0.2516547080134888
  0.6270919944301522  0.8769396149490151  0.3772929435535344
  0.7519956840725324  0.2515364393672239  0.2521012576442433
  0.1298026870597392  0.8730921896876525  0.1238043633326569
  0.5003860722368021  0.2515815520871308  0.4969826741400232
  0.7516311547083442  0.2523147241289178 -0.0004479013492076
  0.8776399071425963  0.3731021529241790  0.1274291822727351
  0.5016759405412315  0.5039752177351466  0.7471361580072907
  0.3735468878877855  0.3780387880193529  0.8780075363117251
  0.7483145385398916  0.0012519416773940 -0.0000136177346416
  0.8762146488674536  0.8758034030004584  0.1257820966753181
  0.6274459566782585  0.3794871964704698  0.6264080946945489
  0.7526797083189138  0.2549968767563915  0.7512771206801813
  0.7524144128893396  0.2515073808309871  0.4987599165425491
  0.7516815352845694  0.4974351184279130  0.2528175059273073
  0.6244282035788221  0.1251625231352481  0.3745028094174430
  0.1230562805863127  0.8744931755106734  0.3756982275997643
  0.3755440950574124  0.8755199521137385  0.3721003096777440
  0.5004829336294595  0.2518211415248745  0.7504561322284211
  0.3725029429401930  0.3731008865342737  0.1266145586015992
  0.8748927304975493  0.8742870409796613  0.8735403803461520
  0.7499295666275246 -0.0000989976857937  0.7480282167436998
  0.6269205941184781  0.1242010458890714  0.6227294389990732
  0.4958216590976303  0.7501338707000802  0.2473509442390654
  0.7472481382111210  0.7453232964901171  0.7478965629072591
 -0.0003311456427869  0.2527878197596026  0.0001143181782050
  0.3716091930941730  0.6243630520261321  0.8795635899126750
  0.0035232586978442  0.7489641269310705 -0.0001122808173290
  0.4982190042074947  0.4997826714188479  0.2488439781764580
  0.4948842743178374 -0.0003657534904368  0.0051612046341162
  0.5003720316565824 -0.0012170664328113  0.7511235672065046
  0.3743598011988964  0.6236604539472353  0.3737004051099946
  0.2510963311706618  0.2504000512151446  0.0035887029270756
 -0.0017204036040772  0.4966990143170026  0.7492839189388347
  0.5001471292973300  0.5038264081468514  0.5032870924732887
  0.6253259734115832  0.6249304152859306  0.3780737581031859
  0.5003297637612213  0.7460050602370006  0.5030884248052908
  0.1240661977493394  0.6254334759033350  0.3756676115992689
  0.2538383327777613  0.0017801953056538  0.2455931795272454
  0.2541041560130068  0.7498039471226874  0.2439893526697206
  0.6270487813055032  0.8739140455676596  0.6232665792723485
  0.6250407211700885  0.3730749281614251  0.3743181159071208
  0.8771948534856815  0.6242374335779003  0.3783194573102603
  0.6213826684402847  0.8756896942220949  0.1258246654804865
  0.1253048876630409  0.1253341595319225  0.8768391386335805
  0.1237039981818168  0.1269780994087049  0.6230908868338199
  0.6224708022506030  0.3733931310089205  0.1269572472083377
  0.7513483670827622  0.4977827174853116 -0.0038914112299604
  0.7497465531459080  0.7489080332203838  0.5021627361676264
  0.7491797177314191  0.7493236225828882  0.2509671006549641
  0.2503844144779456  0.7475348198457913  0.5004979576235470
  0.4960653299717186  0.5017094019546728  0.0008843253476083
  0.5021220494713672 -0.0007866549876181  0.4982416649273563
  0.0013221456076236  0.0027407068853311  0.2504385722094045
  0.8752777059264135  0.3774702139591019  0.6259529570475150
  0.8740236045970891  0.6201119824489258  0.8719980209899456
  0.4990794022326874  0.7454707698691444  0.7474657947911474
  0.6212066093240652  0.6237176027726403  0.1239797916647458
 -0.0005895642564640  0.0004887833422622  0.7494313701448331
  0.2472392553745729  0.2526060875713863  0.4983438267931379
  0.2473043651176076  0.2527939406347874  0.7494517903182228
  0.8729707746622490  0.6244224251878580  0.6250310858200709
  0.8751971974369784  0.1282558698177839  0.8746203860854856
  0.8754288740448061  0.1273426157152095  0.3750303960350671
  0.2497981539888770  0.0005253639598691  0.4979003549030385
  0.3750845477588131  0.1293377981113372  0.3683276105058669
  0.3727621742844109  0.8717096991994159  0.8798813170268589
 -0.0018451082261582 -0.0000533002367761  0.4990306695194179
  0.4932442304682326  0.7496354125882008  0.0033849074737991
 -0.0001392698903947  0.2543112662569467  0.7488975771864876
  0.6249632757409845  0.1253772194851149  0.8755417188401862
  0.6201490945427899  0.1273934369746088  0.1287421064926659
  0.3760220594460973  0.1251740279711902  0.6235717938490384
 -0.0000798871058305  0.2537521257963125  0.4972736542989289
  0.4981051524099510  0.2486715369691145  0.0047441689439366
  0.2491926413776471  0.4997069668951949  0.5023381949160953
  0.1245752458252431  0.3780208377719243  0.8761404408106109
  0.0002462431005063  0.4977414846814751  0.5002757007855942
  0.2522823784919565  0.5051399340564998  0.0015658298346483
  0.8780052976716511  0.3719130248983367  0.3739028849546603
  0.3762502951273032  0.6248199447031370  0.6266164033576965
  0.3703672009255139  0.6267165818816134  0.1200139793301821
  0.8733423287580510  0.3778104583414258  0.8721564063354634
  0.7499554455480282  0.4996642681790258  0.7492226722734250
  0.1231244915573313  0.3764253146786417  0.6241095285214289
  0.2553604508216709  0.7478996600327231  0.0054283592814196
  0.3724706745393320  0.8707905317165407  0.1227978970510328
  0.0003032038790017  0.2526980977742796  0.2534081129450954
  0.6260752516969069  0.6230848579154468  0.6275723949908975
  0.2536708188999685  0.2480765842394810  0.2472007055264374
  0.4939307209632710  0.2471616993517454  0.2475067154518892
 -0.0000560698900661  0.7493891878361136  0.4997247894648788
  0.3738853447694596  0.1290581455512491  0.1297314146120702
  0.7501392978370326 -0.0008958213768710  0.5001758731654319
 
  0.00000000E+00  0.00000000E+00  0.00000000E+00
  0.00000000E+00  0.00000000E+00  0.00000000E+00
  0.00000000E+00  0.00000000E+00  0.00000000E+00
  0.00000000E+00  0.00000000E+00  0.00000000E+00
  0.00000000E+00  0.00000000E+00  0.00000000E+00
  0.00000000E+00  0.00000000E+00  0.00000000E+00
  0.00000000E+00  0.00000000E+00  0.00000000E+00
  0.00000000E+00  0.00000000E+00  0.00000000E+00
  0.00000000E+00  0.00000000E+00  0.00000000E+00
  0.00000000E+00  0.00000000E+00  0.00000000E+00
  0.00000000E+00  0.00000000E+00  0.00000000E+00
  0.00000000E+00  0.00000000E+00  0.00000000E+00
  0.00000000E+00  0.00000000E+00  0.00000000E+00
  0.00000000E+00  0.00000000E+00  0.00000000E+00
  0.00000000E+00  0.00000000E+00  0.00000000E+00
  0.00000000E+00  0.00000000E+00  0.00000000E+00
  0.00000000E+00  0.00000000E+00  0.00000000E+00
  0.00000000E+00  0.00000000E+00  0.00000000E+00
  0.00000000E+00  0.00000000E+00  0.00000000E+00
  0.00000000E+00  0.00000000E+00  0.00000000E+00
  0.00000000E+00  0.00000000E+00  0.00000000E+00
  0.00000000E+00  0.00000000E+00  0.00000000E+00
  0.00000000E+00  0.00000000E+00  0.00000000E+00
  0.00000000E+00  0.00000000E+00  0.00000000E+00
  0.00000000E+00  0.00000000E+00  0.00000000E+00
  0.00000000E+00  0.00000000E+00  0.00000000E+00
  0.00000000E+00  0.00000000E+00  0.00000000E+00
  0.00000000E+00  0.00000000E+00  0.00000000E+00
  0.00000000E+00  0.00000000E+00  0.00000000E+00
  0.00000000E+00  0.00000000E+00  0.00000000E+00
  0.00000000E+00  0.00000000E+00  0.00000000E+00
  0.00000000E+00  0.00000000E+00  0.00000000E+00
  0.00000000E+00  0.00000000E+00  0.00000000E+00
  0.00000000E+00  0.00000000E+00  0.00000000E+00
  0.00000000E+00  0.00000000E+00  0.00000000E+00
  0.00000000E+00  0.00000000E+00  0.00000000E+00
  0.00000000E+00  0.00000000E+00  0.00000000E+00
  0.00000000E+00  0.00000000E+00  0.00000000E+00
  0.00000000E+00  0.00000000E+00  0.00000000E+00
  0.00000000E+00  0.00000000E+00  0.00000000E+00
  0.00000000E+00  0.00000000E+00  0.00000000E+00
  0.00000000E+00  0.00000000E+00  0.00000000E+00
  0.00000000E+00  0.00000000E+00  0.00000000E+00
  0.00000000E+00  0.00000000E+00  0.00000000E+00
  0.00000000E+00  0.00000000E+00  0.00000000E+00
  0.00000000E+00  0.00000000E+00  0.00000000E+00
  0.00000000E+00  0.00000000E+00  0.00000000E+00
  0.00000000E+00  0.00000000E+00  0.00000000E+00
  0.00000000E+00  0.00000000E+00  0.00000000E+00
  0.00000000E+00  0.00000000E+00  0.00000000E+00
  0.00000000E+00  0.00000000E+00  0.00000000E+00
  0.00000000E+00  0.00000000E+00  0.00000000E+00
  0.00000000E+00  0.00000000E+00  0.00000000E+00
  0.00000000E+00  0.00000000E+00  0.00000000E+00
  0.00000000E+00  0.00000000E+00  0.00000000E+00
  0.00000000E+00  0.00000000E+00  0.00000000E+00
  0.00000000E+00  0.00000000E+00  0.00000000E+00
  0.00000000E+00  0.00000000E+00  0.00000000E+00
  0.00000000E+00  0.00000000E+00  0.00000000E+00
  0.00000000E+00  0.00000000E+00  0.00000000E+00
  0.00000000E+00  0.00000000E+00  0.00000000E+00
  0.00000000E+00  0.00000000E+00  0.00000000E+00
  0.00000000E+00  0.00000000E+00  0.00000000E+00
  0.00000000E+00  0.00000000E+00  0.00000000E+00
  0.00000000E+00  0.00000000E+00  0.00000000E+00
  0.00000000E+00  0.00000000E+00  0.00000000E+00
  0.00000000E+00  0.00000000E+00  0.00000000E+00
  0.00000000E+00  0.00000000E+00  0.00000000E+00
  0.00000000E+00  0.00000000E+00  0.00000000E+00
  0.00000000E+00  0.00000000E+00  0.00000000E+00
  0.00000000E+00  0.00000000E+00  0.00000000E+00
  0.00000000E+00  0.00000000E+00  0.00000000E+00
  0.00000000E+00  0.00000000E+00  0.00000000E+00
  0.00000000E+00  0.00000000E+00  0.00000000E+00
  0.00000000E+00  0.00000000E+00  0.00000000E+00
  0.00000000E+00  0.00000000E+00  0.00000000E+00
  0.00000000E+00  0.00000000E+00  0.00000000E+00
  0.00000000E+00  0.00000000E+00  0.00000000E+00
  0.00000000E+00  0.00000000E+00  0.00000000E+00
  0.00000000E+00  0.00000000E+00  0.00000000E+00
  0.00000000E+00  0.00000000E+00  0.00000000E+00
  0.00000000E+00  0.00000000E+00  0.00000000E+00
  0.00000000E+00  0.00000000E+00  0.00000000E+00
  0.00000000E+00  0.00000000E+00  0.00000000E+00
  0.00000000E+00  0.00000000E+00  0.00000000E+00
  0.00000000E+00  0.00000000E+00  0.00000000E+00
  0.00000000E+00  0.00000000E+00  0.00000000E+00
  0.00000000E+00  0.00000000E+00  0.00000000E+00
  0.00000000E+00  0.00000000E+00  0.00000000E+00
  0.00000000E+00  0.00000000E+00  0.00000000E+00
  0.00000000E+00  0.00000000E+00  0.00000000E+00
  0.00000000E+00  0.00000000E+00  0.00000000E+00
  0.00000000E+00  0.00000000E+00  0.00000000E+00
  0.00000000E+00  0.00000000E+00  0.00000000E+00
  0.00000000E+00  0.00000000E+00  0.00000000E+00
  0.00000000E+00  0.00000000E+00  0.00000000E+00
  0.00000000E+00  0.00000000E+00  0.00000000E+00
  0.00000000E+00  0.00000000E+00  0.00000000E+00
  0.00000000E+00  0.00000000E+00  0.00000000E+00
  0.00000000E+00  0.00000000E+00  0.00000000E+00
  0.00000000E+00  0.00000000E+00  0.00000000E+00
  0.00000000E+00  0.00000000E+00  0.00000000E+00
  0.00000000E+00  0.00000000E+00  0.00000000E+00
  0.00000000E+00  0.00000000E+00  0.00000000E+00
  0.00000000E+00  0.00000000E+00  0.00000000E+00
  0.00000000E+00  0.00000000E+00  0.00000000E+00
  0.00000000E+00  0.00000000E+00  0.00000000E+00
  0.00000000E+00  0.00000000E+00  0.00000000E+00
  0.00000000E+00  0.00000000E+00  0.00000000E+00
  0.00000000E+00  0.00000000E+00  0.00000000E+00
  0.00000000E+00  0.00000000E+00  0.00000000E+00
  0.00000000E+00  0.00000000E+00  0.00000000E+00
  0.00000000E+00  0.00000000E+00  0.00000000E+00
  0.00000000E+00  0.00000000E+00  0.00000000E+00
  0.00000000E+00  0.00000000E+00  0.00000000E+00
  0.00000000E+00  0.00000000E+00  0.00000000E+00
  0.00000000E+00  0.00000000E+00  0.00000000E+00
  0.00000000E+00  0.00000000E+00  0.00000000E+00
  0.00000000E+00  0.00000000E+00  0.00000000E+00
  0.00000000E+00  0.00000000E+00  0.00000000E+00
  0.00000000E+00  0.00000000E+00  0.00000000E+00
  0.00000000E+00  0.00000000E+00  0.00000000E+00
  0.00000000E+00  0.00000000E+00  0.00000000E+00
  0.00000000E+00  0.00000000E+00  0.00000000E+00
  0.00000000E+00  0.00000000E+00  0.00000000E+00
  0.00000000E+00  0.00000000E+00  0.00000000E+00
  0.00000000E+00  0.00000000E+00  0.00000000E+00
  0.00000000E+00  0.00000000E+00  0.00000000E+00
