Nb Ta                                   
    1.000000000000000     
    13.2511379933445106   -0.0006661764186510   -0.0000146361487885
    -0.0006656487903252   13.2469340687663522    0.0015596527866711
    -0.0000143041804568    0.0015588976952804   13.2479422002273139
   Nb   Ta
    88    40
Direct
 -0.0004868184651429  0.7513947256474823  0.7496873147346350
  0.3762642059541746  0.8764662230010288  0.3751508889686674
  0.7495795998650200  0.2493798132822119  0.2488634372313642
  0.7485252901311412  0.2493557070517305  0.7506467131306040
  0.0008758966454113  0.4999229223504422  0.7492740401276731
  0.8753272099866145  0.1255790018903833  0.6256398954386219
  0.5000932812301437  0.0002969256102578 -0.0003407239635456
  0.2520055562296043  0.7495464661605563  0.2489072586062451
  0.3747505165007836  0.6233986833874361  0.3759589134447532
  0.8769523157140172  0.6230292021037140  0.1247378046327617
  0.1242155697191416  0.3742272561468697  0.6248318532501270
  0.1248523396763042  0.8750654005723202  0.1246017939498839
  0.8748554968181792  0.8745801554536015  0.1270245268589664
  0.5003555952211505  0.5005055656905321  0.5019611593101675
  0.3764387193693833  0.3744632285904326  0.1263063127642951
 -0.0010998284623714 -0.0000073767297142  0.2505611530826480
  0.6227988173045098  0.3744451303620069  0.3749128132887496
  0.5020390894461912  0.2503803507673537 -0.0000039655513962
  0.2499288030426383  0.2510584635068803 -0.0000177576012071
 -0.0013881491260271  0.7504876186246179  0.0004803409602194
  0.4999307423753666  0.7482130454913705  0.7500886093900168
  0.6229949636485753  0.1237153549624144  0.3748751262452832
  0.6266459642966711  0.3754853576185936  0.8755361245861946
  0.7493811327025969  0.7500077669209785  0.7515780746458400
  0.8763003331128801  0.8762776070950832  0.8733672789037938
  0.0002744355571979  0.7506729095115586  0.2501669511517889
  0.6238726917931274  0.6260454699834344  0.3746756522512187
  0.8751226525483670  0.1242022582192738  0.3757988382747534
  0.5007387404197109  0.2500955712228403  0.2490238904701672
  0.2498538123694357  0.7505114142830743  0.4998045212808542
  0.3750643117540216  0.3731082547833171  0.8737520526617665
  0.1229404767310954  0.3749240140718901  0.1264020853359274
  0.8776060045514056  0.1269342837573864  0.1238673812234055
  0.2489901817646545  0.2497617199182811  0.7499537004480566
  0.5001085854637687  0.2497177188131274  0.5003347035896379
  0.6240107262177778  0.1241039592956892  0.8747159814825348
  0.1238370467101368  0.8746178666264883  0.3745179359635374
 -0.0000441955890796  0.2509780500647120  0.4998084189928587
  0.7500201624313608  0.0011258946389783  0.4990079548127310
  0.3733845269519224  0.1254209558103717  0.1249100881846340
  0.7472192563578819  0.4999680914297833  0.7492135054242791
  0.6251183762207848  0.6259998225399226  0.1239565076394144
  0.4999670543954126  0.7495984634277544  0.0005805581835442
  0.8763607785672788  0.6268654015752936  0.3752434002126243
  0.1236187147828928  0.3770917749592904  0.8754413208210601
  0.6246871729436406  0.6251295317441214  0.8758989696083136
  0.1242049174240346  0.6257984623559276  0.6274089215844944
 -0.0010564400943471  0.2492059469279835  0.2503832983789064
 -0.0001570190070211  0.7483899159655586  0.5000055570684884
  0.5014059080720545  0.2518268283376590  0.7501526345475008
  0.5005731740358217 -0.0005519463671874  0.2499963382066178
 -0.0003949745267195  0.5000937779027093  0.2515027535702640
  0.3774260831044454  0.8754392687337074  0.6247320549083547
  0.2497848137614848 -0.0007847520158093  0.2504389804159075
  0.1250774837463040  0.1244207248059113  0.8761224680896079
  0.1253778277275199  0.6252578635418665  0.3727075401564098
  0.7500289020583770  0.2513059778417037  0.4996308989614908
  0.3750660593179316  0.6247391856692140  0.1248301536057847
  0.6253693312624264  0.3748222996892653  0.6243280591069555
 -0.0000297867129875 -0.0001803225969256 -0.0009984869770902
  0.5009495940059397  0.7495669513202899  0.4988952641396382
  0.3770546030277444  0.8758076988071368  0.1253560568619203
  0.1260567872033197  0.1253235512125520  0.3736946756042025
  0.4983009403948057 -0.0003172049742917  0.5000619858599882
  0.7511519776082265  0.0002610140210142  0.7514904139730444
  0.6261842525463507  0.3760426643338773  0.1250544542255286
  0.6234239610772200  0.1229591099615066  0.6251142147619879
 -0.0000088579890284  0.2488575188161684  0.7501214414242894
 -0.0004288154959158  0.2502796362415290 -0.0002637115098271
  0.0015532100266234  0.0002091304935355  0.5010215921183342
  0.5001958781153781  0.5013789381997948  0.2500011650410345
  0.7494847385423004  0.7489939592482034  0.2494900724726249
  0.3737460798574810  0.6249943443142755  0.8746751140366893
  0.6255255008255464  0.6263138992240942  0.6257762299332132
  0.2513904184035965  0.7513791115440636  0.7501878393997750
  0.7494066213042541  0.5004958818278272  0.0009908695107650
  0.6236994623791540  0.1237832815125442  0.1250503538653584
  0.8761411821797577  0.3737237027686873  0.3746722789615081
  0.2514165695386640  0.5001596480389522  0.7501972237509936
  0.2503046014826551  0.2509646543814502  0.2500219200438111
  0.0014608225529244  0.4996439555182911 -0.0004166587601359
  0.4982597842174492  0.4995684061621927 -0.0020568553158828
  0.3744375083773634  0.6238752148698576  0.6247245473128099
  0.6244471553956344  0.8748876540444124  0.8750045182658877
  0.1233746661030959  0.8745273585295020  0.6250633638125696
  0.8766175544278066  0.6225235735912209  0.8734907569558832
  0.4989741819235592 -0.0005718309508735  0.7499560966146013
  0.3754727783989134  0.8757572502629025  0.8746016788114498
  0.6266266854544498  0.8750945359912166  0.6238449760505164
  0.7499691968611428  0.4997636226796950  0.2524225912275285
  0.6249875804011469  0.8743004300667826  0.1264798391332682
  0.8737519943598359  0.3742290160541234  0.8748890606010323
  0.8731398261654849  0.8751133592873991  0.3771185576691126
  0.7493185745443801  0.7470428233686424  0.4996768285740672
  0.2496019713582069  0.0003282910716982  0.5010444883711302
  0.1245723491313467  0.6256311681374217  0.1238919444110433
  0.3753627058968423  0.1260630905076373  0.8733221018369199
  0.7514305123018504  0.5007824899827656  0.4977865852121421
  0.8752318372490194  0.1267887341362679  0.8749051189844336
  0.0002990383366357  0.5002069258377642  0.5000562652680760
  0.7486477068465343  0.2478594923251023  0.0006957715187254
  0.0011241317772954  0.0000751161191260  0.7492747769626639
  0.3751385590722402  0.3736081595661868  0.6233698955589188
  0.3748044385287093  0.3740175606222521  0.3764047951415431
  0.7507920138103413  0.0002596896484007  0.0017466750887096
  0.1255957642815299  0.1255078202146230  0.6248399466092607
  0.2487479510261963  0.2495617452680817  0.4995764329189522
  0.2472043568415076  0.4995929537538542  0.4994022361567396
  0.3743301686168728  0.1269284835000649  0.6260373289269017
  0.4998581454362500  0.4997250072213731  0.7499615277775176
  0.2506375430502884  0.5001736660523257  0.2490532697776567
  0.8750081788388369  0.6247427305043757  0.6267256870200691
  0.2516872807626947  0.7506980192534088  0.0010775997819041
  0.7514854050986332  0.7515124430259953 -0.0005182097806240
  0.1246026213108694  0.8722602363370094  0.8754490196352098
  0.2509785823268121  0.5002468610592565  0.0016487376238699
  0.2502171882918251 -0.0012941079469047 -0.0015101673979970
  0.1255648106812152  0.6271879255292936  0.8765469035513705
  0.8726866264966936  0.8738836051787499  0.6228784410540598
  0.8744777023560575  0.3752885818656607  0.1236165912134592
  0.8740549571577463  0.3762661504796085  0.6272017383322563
  0.4996414375277669  0.7493528647807377  0.2505020533271665
  0.2482942630962827 -0.0008026964450942  0.7497059621780890
  0.7509303353324125  0.0015706192429094  0.2479231165852658
  0.1254508995688427  0.3746026874516092  0.3733671825297231
  0.3751014035610506  0.1263755186025953  0.3752367085287429
  0.6269868877174071  0.8753445058889718  0.3744450144875521
  0.1255007760468478  0.1247895474315375  0.1249811293088000
 
  0.00000000E+00  0.00000000E+00  0.00000000E+00
  0.00000000E+00  0.00000000E+00  0.00000000E+00
  0.00000000E+00  0.00000000E+00  0.00000000E+00
  0.00000000E+00  0.00000000E+00  0.00000000E+00
  0.00000000E+00  0.00000000E+00  0.00000000E+00
  0.00000000E+00  0.00000000E+00  0.00000000E+00
  0.00000000E+00  0.00000000E+00  0.00000000E+00
  0.00000000E+00  0.00000000E+00  0.00000000E+00
  0.00000000E+00  0.00000000E+00  0.00000000E+00
  0.00000000E+00  0.00000000E+00  0.00000000E+00
  0.00000000E+00  0.00000000E+00  0.00000000E+00
  0.00000000E+00  0.00000000E+00  0.00000000E+00
  0.00000000E+00  0.00000000E+00  0.00000000E+00
  0.00000000E+00  0.00000000E+00  0.00000000E+00
  0.00000000E+00  0.00000000E+00  0.00000000E+00
  0.00000000E+00  0.00000000E+00  0.00000000E+00
  0.00000000E+00  0.00000000E+00  0.00000000E+00
  0.00000000E+00  0.00000000E+00  0.00000000E+00
  0.00000000E+00  0.00000000E+00  0.00000000E+00
  0.00000000E+00  0.00000000E+00  0.00000000E+00
  0.00000000E+00  0.00000000E+00  0.00000000E+00
  0.00000000E+00  0.00000000E+00  0.00000000E+00
  0.00000000E+00  0.00000000E+00  0.00000000E+00
  0.00000000E+00  0.00000000E+00  0.00000000E+00
  0.00000000E+00  0.00000000E+00  0.00000000E+00
  0.00000000E+00  0.00000000E+00  0.00000000E+00
  0.00000000E+00  0.00000000E+00  0.00000000E+00
  0.00000000E+00  0.00000000E+00  0.00000000E+00
  0.00000000E+00  0.00000000E+00  0.00000000E+00
  0.00000000E+00  0.00000000E+00  0.00000000E+00
  0.00000000E+00  0.00000000E+00  0.00000000E+00
  0.00000000E+00  0.00000000E+00  0.00000000E+00
  0.00000000E+00  0.00000000E+00  0.00000000E+00
  0.00000000E+00  0.00000000E+00  0.00000000E+00
  0.00000000E+00  0.00000000E+00  0.00000000E+00
  0.00000000E+00  0.00000000E+00  0.00000000E+00
  0.00000000E+00  0.00000000E+00  0.00000000E+00
  0.00000000E+00  0.00000000E+00  0.00000000E+00
  0.00000000E+00  0.00000000E+00  0.00000000E+00
  0.00000000E+00  0.00000000E+00  0.00000000E+00
  0.00000000E+00  0.00000000E+00  0.00000000E+00
  0.00000000E+00  0.00000000E+00  0.00000000E+00
  0.00000000E+00  0.00000000E+00  0.00000000E+00
  0.00000000E+00  0.00000000E+00  0.00000000E+00
  0.00000000E+00  0.00000000E+00  0.00000000E+00
  0.00000000E+00  0.00000000E+00  0.00000000E+00
  0.00000000E+00  0.00000000E+00  0.00000000E+00
  0.00000000E+00  0.00000000E+00  0.00000000E+00
  0.00000000E+00  0.00000000E+00  0.00000000E+00
  0.00000000E+00  0.00000000E+00  0.00000000E+00
  0.00000000E+00  0.00000000E+00  0.00000000E+00
  0.00000000E+00  0.00000000E+00  0.00000000E+00
  0.00000000E+00  0.00000000E+00  0.00000000E+00
  0.00000000E+00  0.00000000E+00  0.00000000E+00
  0.00000000E+00  0.00000000E+00  0.00000000E+00
  0.00000000E+00  0.00000000E+00  0.00000000E+00
  0.00000000E+00  0.00000000E+00  0.00000000E+00
  0.00000000E+00  0.00000000E+00  0.00000000E+00
  0.00000000E+00  0.00000000E+00  0.00000000E+00
  0.00000000E+00  0.00000000E+00  0.00000000E+00
  0.00000000E+00  0.00000000E+00  0.00000000E+00
  0.00000000E+00  0.00000000E+00  0.00000000E+00
  0.00000000E+00  0.00000000E+00  0.00000000E+00
  0.00000000E+00  0.00000000E+00  0.00000000E+00
  0.00000000E+00  0.00000000E+00  0.00000000E+00
  0.00000000E+00  0.00000000E+00  0.00000000E+00
  0.00000000E+00  0.00000000E+00  0.00000000E+00
  0.00000000E+00  0.00000000E+00  0.00000000E+00
  0.00000000E+00  0.00000000E+00  0.00000000E+00
  0.00000000E+00  0.00000000E+00  0.00000000E+00
  0.00000000E+00  0.00000000E+00  0.00000000E+00
  0.00000000E+00  0.00000000E+00  0.00000000E+00
  0.00000000E+00  0.00000000E+00  0.00000000E+00
  0.00000000E+00  0.00000000E+00  0.00000000E+00
  0.00000000E+00  0.00000000E+00  0.00000000E+00
  0.00000000E+00  0.00000000E+00  0.00000000E+00
  0.00000000E+00  0.00000000E+00  0.00000000E+00
  0.00000000E+00  0.00000000E+00  0.00000000E+00
  0.00000000E+00  0.00000000E+00  0.00000000E+00
  0.00000000E+00  0.00000000E+00  0.00000000E+00
  0.00000000E+00  0.00000000E+00  0.00000000E+00
  0.00000000E+00  0.00000000E+00  0.00000000E+00
  0.00000000E+00  0.00000000E+00  0.00000000E+00
  0.00000000E+00  0.00000000E+00  0.00000000E+00
  0.00000000E+00  0.00000000E+00  0.00000000E+00
  0.00000000E+00  0.00000000E+00  0.00000000E+00
  0.00000000E+00  0.00000000E+00  0.00000000E+00
  0.00000000E+00  0.00000000E+00  0.00000000E+00
  0.00000000E+00  0.00000000E+00  0.00000000E+00
  0.00000000E+00  0.00000000E+00  0.00000000E+00
  0.00000000E+00  0.00000000E+00  0.00000000E+00
  0.00000000E+00  0.00000000E+00  0.00000000E+00
  0.00000000E+00  0.00000000E+00  0.00000000E+00
  0.00000000E+00  0.00000000E+00  0.00000000E+00
  0.00000000E+00  0.00000000E+00  0.00000000E+00
  0.00000000E+00  0.00000000E+00  0.00000000E+00
  0.00000000E+00  0.00000000E+00  0.00000000E+00
  0.00000000E+00  0.00000000E+00  0.00000000E+00
  0.00000000E+00  0.00000000E+00  0.00000000E+00
  0.00000000E+00  0.00000000E+00  0.00000000E+00
  0.00000000E+00  0.00000000E+00  0.00000000E+00
  0.00000000E+00  0.00000000E+00  0.00000000E+00
  0.00000000E+00  0.00000000E+00  0.00000000E+00
  0.00000000E+00  0.00000000E+00  0.00000000E+00
  0.00000000E+00  0.00000000E+00  0.00000000E+00
  0.00000000E+00  0.00000000E+00  0.00000000E+00
  0.00000000E+00  0.00000000E+00  0.00000000E+00
  0.00000000E+00  0.00000000E+00  0.00000000E+00
  0.00000000E+00  0.00000000E+00  0.00000000E+00
  0.00000000E+00  0.00000000E+00  0.00000000E+00
  0.00000000E+00  0.00000000E+00  0.00000000E+00
  0.00000000E+00  0.00000000E+00  0.00000000E+00
  0.00000000E+00  0.00000000E+00  0.00000000E+00
  0.00000000E+00  0.00000000E+00  0.00000000E+00
  0.00000000E+00  0.00000000E+00  0.00000000E+00
  0.00000000E+00  0.00000000E+00  0.00000000E+00
  0.00000000E+00  0.00000000E+00  0.00000000E+00
  0.00000000E+00  0.00000000E+00  0.00000000E+00
  0.00000000E+00  0.00000000E+00  0.00000000E+00
  0.00000000E+00  0.00000000E+00  0.00000000E+00
  0.00000000E+00  0.00000000E+00  0.00000000E+00
  0.00000000E+00  0.00000000E+00  0.00000000E+00
  0.00000000E+00  0.00000000E+00  0.00000000E+00
  0.00000000E+00  0.00000000E+00  0.00000000E+00
  0.00000000E+00  0.00000000E+00  0.00000000E+00
  0.00000000E+00  0.00000000E+00  0.00000000E+00
  0.00000000E+00  0.00000000E+00  0.00000000E+00
  0.00000000E+00  0.00000000E+00  0.00000000E+00
