Hf Nb                                   
    1.000000000000000     
    11.6188984118160707    1.0759251572522077    0.0360061381597942
    -4.9131166401003155   10.5819273873725823    0.0999615905049319
    -0.1113846647058889   -0.2191688769423869   19.0985440872419332
  Hf             Nb           
              36              92
Direct
  0.6857515095055911  0.5607884454070229  0.4407493698420665
  0.9339433303203644  0.8125408456799295  0.4439205857333487
  0.8107679945565426  0.1880180620217673  0.3139256830101539
  0.9409639613824082  0.3110480288740159  0.6870499435462758
  0.6955230819651275  0.5567363715055055  0.1833433384814083
  0.5556852119927338  0.1956397039635818  0.8137528582984556
  0.0660771578660270  0.9357404320659869  0.0652213219145758
  0.1885104066462787  0.8092697314908147  0.6877254327757292
  0.3067714999697997  0.1874359450085535  0.0663756768895226
  0.3128824061003879  0.4377718025122378  0.8164212761661027
  0.1943917191220307  0.5687975609659994  0.4379009247274079
  0.8357050827633195  0.9447599007646525  0.8122801604562644
  0.8022286719971586  0.4412644230703144  0.3131840739905863
  0.4348497532391693  0.0629514902827244  0.4374361824172889
  0.4277115404415964  0.8074615744420219  0.9400879141629680
  0.5667629693802170  0.6887812671827248  0.5615539964159812
  0.0688911520940316  0.1897259456186482  0.8136422914271153
  0.4386832989753397  0.3121498795763002  0.9330361008763460
  0.1971033583518687  0.8236642056831585  0.4371551146963129
  0.8091570669342342  0.9313819249128832  0.5624872514218955
  0.0523001710552090  0.4310614478370285  0.3134060088935927
  0.1862167928486628  0.0637168539135746  0.9309624069012544
  0.3121764938382169  0.4342866627744924  0.3118193866531526
  0.5664390020541293  0.1880147480970488  0.0608565609915687
  0.0742873290119390  0.1775461631239505  0.3013918987044957
  0.5653770162535738  0.9359977732419608  0.8102719224336987
  0.8094437338204148  0.7009132795332088  0.3109852404816981
  0.9325378440072466  0.0783313744625695  0.4321494203219859
  0.1923715067052006  0.5645130077387179  0.9374641210509181
  0.8120877516451308  0.6823834250510473  0.8135054632149100
  0.1808154529100376  0.3073213120416782  0.4392236050253360
  0.0565009727703220  0.1834563467766685  0.5687472279057867
  0.6926950838143022  0.8153647922065101  0.9381035471451128
  0.8077645067721427  0.1880505104187731  0.8168695374157962
  0.4364047766661776  0.5632378117921593  0.1843029870433558
  0.1846534628553960  0.8127601687096574  0.1836910889674299
  0.8025485972322520  0.1890289489507944  0.5626512421769341
  0.0599557504220665  0.6820548088061675  0.5618663239020834
  0.8195475023945283  0.6761969111274954  0.5717908916302327
  0.4458762454938173  0.3113254160604111  0.1889707040636425
  0.8168640024096848  0.1915072111933226  0.0644739618243054
  0.9342301029244605  0.0548552490728482  0.6874842515426214
  0.1767614245556442  0.0586725740305562  0.4392974308299432
  0.3240400409839468  0.9351198556423204  0.0569054936950256
  0.3156327132376519  0.4427982582654351  0.5633716270835490
  0.8118472592275029  0.4368608583443914  0.5666147509147282
  0.5594444063516385  0.4407327552774646  0.0616591914838028
  0.8070002682752817  0.9393015705552131  0.3080947944350596
  0.0617640016548894  0.9249818812095821  0.3109719559462453
  0.4406369188903669  0.8042746634386704  0.4383873391764990
  0.4425413932066632  0.8098931823511935  0.6823768943115271
  0.9427212825558779  0.3193239574543495  0.9405364186465226
  0.4369810620853103  0.0581116278935723  0.6854348217558517
  0.3104487311449514  0.1788782984811593  0.7984945374058877
  0.6837933775186020  0.0617339794615043  0.1854285148490172
  0.6845158070388139  0.8123972618065489  0.1879151213065059
  0.6882157593488616  0.5581379394020510  0.9413211707188721
  0.9456352478768850  0.8173765853417587  0.9369721225273674
  0.9292978915719899  0.0666140540995269  0.9452114452873493
  0.9405029024644768  0.5616480529491696  0.4395424653654790
  0.3114001472479301  0.4428484405350859  0.0568437007906063
  0.1889962946780226  0.0671646197767423  0.6827541989623738
  0.6822905735888035  0.0687351274445751  0.9454536278724663
  0.4578343452572729  0.5697150895760658  0.9405831915727986
  0.4322033804956069  0.0590772834626811  0.1873268525892607
  0.3182760497291924  0.9424988141642660  0.5657460523859354
  0.0624430112798637  0.6859101544484543  0.3137663626555355
  0.9337175797146180  0.3093394556209593  0.1839217748704318
  0.7013645165008564  0.3177165742189189  0.9370932959331116
  0.5659293790936225  0.9341355365608726  0.0646009420888752
  0.1811142021362577  0.3092043216762292  0.9474689243733345
  0.0746407414534916  0.9339030403215934  0.5678227954443130
  0.9493407862893484  0.5644011061493697  0.1865674691727245
  0.6864345725272197  0.3147755109154792  0.6865820984836325
  0.4419929310682398  0.3190593301193537  0.4369966844520262
  0.4356959953100543  0.5538930775988068  0.4397220093787596
  0.5558313925936895  0.9431372766382285  0.5617731941345161
  0.2014786405779168  0.3201028896134567  0.6849564707704904
  0.9390323914017611  0.5670913117503732  0.6909323507677826
  0.5594163756236777  0.1880046380273392  0.3090443499761684
  0.3161342127550293  0.1889398468980661  0.5594213999701351
  0.1846120260014752  0.0680598621062777  0.1939231285506763
  0.5630440523483503  0.1892372236077326  0.5650461771718259
  0.0567040212720792  0.1901762596015737  0.0635583917094304
  0.5510242436876388  0.6790095915723403  0.8112925167818763
  0.6811183454370722  0.0580382071557774  0.4403078356662909
  0.0664473714699762  0.6808548930548963  0.8167916187548402
  0.4386701709380981  0.0561920039049229  0.9357334425525243
  0.5512901553082443  0.6880864810982694  0.3145666007942538
  0.6880954622637956  0.3023102811607576  0.1893094221976963
  0.3100308534107641  0.6918746688628667  0.5669560191079944
  0.9342079620557014  0.8151410911082505  0.6865754899531978
  0.6916231664371082  0.0633667341770882  0.6819167968099626
  0.8092749135519964  0.4372720663567489  0.0648292551066073
  0.0674832516544262  0.4441226807967412  0.5655532667054675
  0.5557213311430614  0.4352035768587076  0.3100742863495458
  0.1866688424194318  0.5558365067092971  0.6883453999531597
  0.3115877740329878  0.6945664960592278  0.3069727540073510
  0.4355767119424255  0.5624595402406095  0.6863139731872737
  0.1932227453779077  0.3168841086106933  0.1783271782748355
  0.9338569695742253  0.5623463727751566  0.9377325744517298
  0.5752145322942859  0.4522761223454382  0.8084831105309610
  0.4391616964675477  0.3131980633129618  0.6856237134355022
  0.9271121520666127  0.3266455953307039  0.4471237111651557
  0.6850268060534861  0.5611536942216545  0.6848087289079000
  0.3172418939837566  0.9394288487219108  0.3075496191671035
  0.3215292886642169  0.1801173574761860  0.3155330131726928
  0.3130609122639242  0.6945991947806410  0.8046832429424285
  0.0710998044712635  0.9227034004938675  0.8056372817752748
  0.8116181191805315  0.9390233889442832  0.0670081226481046
  0.0586410099648047  0.6786799522609875  0.0585709632901284
  0.8131959046639349  0.4363693814747535  0.8109747550782718
  0.5582727016563882  0.4294660166410288  0.5663748359180424
  0.1765186537026651  0.8101755880039144  0.9394556308051147
  0.5677803153251760  0.6899316467301825  0.0633090410958307
  0.6790826560684590  0.3012711936430452  0.4399750784121885
  0.0584262284603776  0.4387017466533559  0.0636922713402601
  0.6799676211061532  0.8177655257682624  0.4287137535814038
  0.6836071923879986  0.8089763153751534  0.6932024394939484
  0.3133773143186527  0.9401760385107616  0.8140689247326310
  0.8182180091913180  0.6921320198437698  0.0588760463118326
  0.9269662951893123  0.8084752123384240  0.1851946589699500
  0.4423589491713930  0.8188375010031644  0.1874775920366262
  0.1835406097936182  0.5578991198228440  0.1858372734964427
  0.3117413296750524  0.6870322710539944  0.0698176194365216
  0.9304883078236499  0.0564311792249213  0.1833477845005247
  0.5612070710817746  0.9412061209964445  0.3117291948775548
  0.0544818238260394  0.4419271417292183  0.8126543268668153
 
  0.00000000E+00  0.00000000E+00  0.00000000E+00
  0.00000000E+00  0.00000000E+00  0.00000000E+00
  0.00000000E+00  0.00000000E+00  0.00000000E+00
  0.00000000E+00  0.00000000E+00  0.00000000E+00
  0.00000000E+00  0.00000000E+00  0.00000000E+00
  0.00000000E+00  0.00000000E+00  0.00000000E+00
  0.00000000E+00  0.00000000E+00  0.00000000E+00
  0.00000000E+00  0.00000000E+00  0.00000000E+00
  0.00000000E+00  0.00000000E+00  0.00000000E+00
  0.00000000E+00  0.00000000E+00  0.00000000E+00
  0.00000000E+00  0.00000000E+00  0.00000000E+00
  0.00000000E+00  0.00000000E+00  0.00000000E+00
  0.00000000E+00  0.00000000E+00  0.00000000E+00
  0.00000000E+00  0.00000000E+00  0.00000000E+00
  0.00000000E+00  0.00000000E+00  0.00000000E+00
  0.00000000E+00  0.00000000E+00  0.00000000E+00
  0.00000000E+00  0.00000000E+00  0.00000000E+00
  0.00000000E+00  0.00000000E+00  0.00000000E+00
  0.00000000E+00  0.00000000E+00  0.00000000E+00
  0.00000000E+00  0.00000000E+00  0.00000000E+00
  0.00000000E+00  0.00000000E+00  0.00000000E+00
  0.00000000E+00  0.00000000E+00  0.00000000E+00
  0.00000000E+00  0.00000000E+00  0.00000000E+00
  0.00000000E+00  0.00000000E+00  0.00000000E+00
  0.00000000E+00  0.00000000E+00  0.00000000E+00
  0.00000000E+00  0.00000000E+00  0.00000000E+00
  0.00000000E+00  0.00000000E+00  0.00000000E+00
  0.00000000E+00  0.00000000E+00  0.00000000E+00
  0.00000000E+00  0.00000000E+00  0.00000000E+00
  0.00000000E+00  0.00000000E+00  0.00000000E+00
  0.00000000E+00  0.00000000E+00  0.00000000E+00
  0.00000000E+00  0.00000000E+00  0.00000000E+00
  0.00000000E+00  0.00000000E+00  0.00000000E+00
  0.00000000E+00  0.00000000E+00  0.00000000E+00
  0.00000000E+00  0.00000000E+00  0.00000000E+00
  0.00000000E+00  0.00000000E+00  0.00000000E+00
  0.00000000E+00  0.00000000E+00  0.00000000E+00
  0.00000000E+00  0.00000000E+00  0.00000000E+00
  0.00000000E+00  0.00000000E+00  0.00000000E+00
  0.00000000E+00  0.00000000E+00  0.00000000E+00
  0.00000000E+00  0.00000000E+00  0.00000000E+00
  0.00000000E+00  0.00000000E+00  0.00000000E+00
  0.00000000E+00  0.00000000E+00  0.00000000E+00
  0.00000000E+00  0.00000000E+00  0.00000000E+00
  0.00000000E+00  0.00000000E+00  0.00000000E+00
  0.00000000E+00  0.00000000E+00  0.00000000E+00
  0.00000000E+00  0.00000000E+00  0.00000000E+00
  0.00000000E+00  0.00000000E+00  0.00000000E+00
  0.00000000E+00  0.00000000E+00  0.00000000E+00
  0.00000000E+00  0.00000000E+00  0.00000000E+00
  0.00000000E+00  0.00000000E+00  0.00000000E+00
  0.00000000E+00  0.00000000E+00  0.00000000E+00
  0.00000000E+00  0.00000000E+00  0.00000000E+00
  0.00000000E+00  0.00000000E+00  0.00000000E+00
  0.00000000E+00  0.00000000E+00  0.00000000E+00
  0.00000000E+00  0.00000000E+00  0.00000000E+00
  0.00000000E+00  0.00000000E+00  0.00000000E+00
  0.00000000E+00  0.00000000E+00  0.00000000E+00
  0.00000000E+00  0.00000000E+00  0.00000000E+00
  0.00000000E+00  0.00000000E+00  0.00000000E+00
  0.00000000E+00  0.00000000E+00  0.00000000E+00
  0.00000000E+00  0.00000000E+00  0.00000000E+00
  0.00000000E+00  0.00000000E+00  0.00000000E+00
  0.00000000E+00  0.00000000E+00  0.00000000E+00
  0.00000000E+00  0.00000000E+00  0.00000000E+00
  0.00000000E+00  0.00000000E+00  0.00000000E+00
  0.00000000E+00  0.00000000E+00  0.00000000E+00
  0.00000000E+00  0.00000000E+00  0.00000000E+00
  0.00000000E+00  0.00000000E+00  0.00000000E+00
  0.00000000E+00  0.00000000E+00  0.00000000E+00
  0.00000000E+00  0.00000000E+00  0.00000000E+00
  0.00000000E+00  0.00000000E+00  0.00000000E+00
  0.00000000E+00  0.00000000E+00  0.00000000E+00
  0.00000000E+00  0.00000000E+00  0.00000000E+00
  0.00000000E+00  0.00000000E+00  0.00000000E+00
  0.00000000E+00  0.00000000E+00  0.00000000E+00
  0.00000000E+00  0.00000000E+00  0.00000000E+00
  0.00000000E+00  0.00000000E+00  0.00000000E+00
  0.00000000E+00  0.00000000E+00  0.00000000E+00
  0.00000000E+00  0.00000000E+00  0.00000000E+00
  0.00000000E+00  0.00000000E+00  0.00000000E+00
  0.00000000E+00  0.00000000E+00  0.00000000E+00
  0.00000000E+00  0.00000000E+00  0.00000000E+00
  0.00000000E+00  0.00000000E+00  0.00000000E+00
  0.00000000E+00  0.00000000E+00  0.00000000E+00
  0.00000000E+00  0.00000000E+00  0.00000000E+00
  0.00000000E+00  0.00000000E+00  0.00000000E+00
  0.00000000E+00  0.00000000E+00  0.00000000E+00
  0.00000000E+00  0.00000000E+00  0.00000000E+00
  0.00000000E+00  0.00000000E+00  0.00000000E+00
  0.00000000E+00  0.00000000E+00  0.00000000E+00
  0.00000000E+00  0.00000000E+00  0.00000000E+00
  0.00000000E+00  0.00000000E+00  0.00000000E+00
  0.00000000E+00  0.00000000E+00  0.00000000E+00
  0.00000000E+00  0.00000000E+00  0.00000000E+00
  0.00000000E+00  0.00000000E+00  0.00000000E+00
  0.00000000E+00  0.00000000E+00  0.00000000E+00
  0.00000000E+00  0.00000000E+00  0.00000000E+00
  0.00000000E+00  0.00000000E+00  0.00000000E+00
  0.00000000E+00  0.00000000E+00  0.00000000E+00
  0.00000000E+00  0.00000000E+00  0.00000000E+00
  0.00000000E+00  0.00000000E+00  0.00000000E+00
  0.00000000E+00  0.00000000E+00  0.00000000E+00
  0.00000000E+00  0.00000000E+00  0.00000000E+00
  0.00000000E+00  0.00000000E+00  0.00000000E+00
  0.00000000E+00  0.00000000E+00  0.00000000E+00
  0.00000000E+00  0.00000000E+00  0.00000000E+00
  0.00000000E+00  0.00000000E+00  0.00000000E+00
  0.00000000E+00  0.00000000E+00  0.00000000E+00
  0.00000000E+00  0.00000000E+00  0.00000000E+00
  0.00000000E+00  0.00000000E+00  0.00000000E+00
  0.00000000E+00  0.00000000E+00  0.00000000E+00
  0.00000000E+00  0.00000000E+00  0.00000000E+00
  0.00000000E+00  0.00000000E+00  0.00000000E+00
  0.00000000E+00  0.00000000E+00  0.00000000E+00
  0.00000000E+00  0.00000000E+00  0.00000000E+00
  0.00000000E+00  0.00000000E+00  0.00000000E+00
  0.00000000E+00  0.00000000E+00  0.00000000E+00
  0.00000000E+00  0.00000000E+00  0.00000000E+00
  0.00000000E+00  0.00000000E+00  0.00000000E+00
  0.00000000E+00  0.00000000E+00  0.00000000E+00
  0.00000000E+00  0.00000000E+00  0.00000000E+00
  0.00000000E+00  0.00000000E+00  0.00000000E+00
  0.00000000E+00  0.00000000E+00  0.00000000E+00
  0.00000000E+00  0.00000000E+00  0.00000000E+00
  0.00000000E+00  0.00000000E+00  0.00000000E+00
  0.00000000E+00  0.00000000E+00  0.00000000E+00
  0.00000000E+00  0.00000000E+00  0.00000000E+00
