Nb Ta                                   
    1.000000000000000     
    13.2740114801390003   -0.0001477139882777   -0.0000989260591711
    -0.0001477943828809   13.2745099579791521    0.0004217211971689
    -0.0000988797357873    0.0004215666817382   13.2741085884044061
   Nb   Ta
    12   116
Direct
  0.7511344711858192  0.5001725026306827  0.7491820578163915
  0.6253449730699576  0.8756477824414727  0.8746658121655362
  0.8747787625063820  0.3745312560209249  0.6252926273352363
  0.0001758105040542  0.7501983414053599  0.2511300646899442
  0.3745133755059685  0.1233631376186613  0.1251408283869561
  0.3761555025256273  0.3762057345851823  0.1247110856379253
  0.1240988685708060  0.3750397376728707  0.1247166622064426
 -0.0000913461733776  0.7500836114165077 -0.0011419350341741
  0.8744124102631020  0.6254358719357590  0.6254012590419852
  0.2502173779264396  0.0002429118203227  0.2495737892141777
  0.7494483795163168 -0.0005771437220323  0.7508146419601408
  0.7499396282408879  0.2498363216196945  0.2502691566612301
  0.8742914819209866  0.8768818503253544  0.6255118993725247
  0.5002267940665709  0.0001331761084514  0.4997838788180232
  0.2495471031245112  0.4994444722883843  0.0008132044207301
  0.0013342861516827 -0.0000959984381372  0.7503879852262356
  0.6252908060237442  0.1260009996150157  0.3744692730736650
  0.7504753060126860  0.2504437508386166  0.7496691631303654
  0.5008945371766540  0.0007009650170548  0.2497059868605918
  0.8745934850224053  0.1245964459600235  0.8745311814355506
  0.6254062157055875  0.1245610448596540  0.6255247592644462
  0.3751801627077848  0.6259536104234904  0.1247149840808698
  0.2496051325214141 -0.0000589039795356  0.7501698780454382
  0.8732324521400380  0.3742745663655789  0.1254072086347086
 -0.0012534042192786  0.5001741177194914  0.5007102427194391
  0.2497403603205265  0.7501941282387486  0.4994513620845270
 -0.0007798865412220  0.2503250112236246  0.7496664688892063
  0.8745621104830815  0.1231080718482974  0.6255431489860598
  0.3750835073734201  0.6252846794103847  0.6250498499740950
 -0.0007321258316509  0.7492760717644850  0.7483049183755227
  0.0018582174048899  0.2502768325480851  0.2496636124832587
  0.3743287375621988  0.1247877276965318  0.3756241151864693
  0.0001052751255608 -0.0000370007649997  0.4994011287955075
  0.3751311553919860  0.1253393077452083  0.8741741496226537
  0.1244939162609058  0.6251975546028045  0.8756125642068274
  0.5007971601814919  0.7505317169109516 -0.0007674241430385
  0.2501655779288881  0.0002015227645105 -0.0007151937324596
  0.1262909844339035  0.6247505257475441  0.6248616498153490
  0.3739010811759957  0.8750222645853143  0.8752175639921960
  0.7498223849861807 -0.0005852794485484  0.0008023388363312
  0.1247183177505704  0.8747048562310774  0.1253509027934872
  0.6241854591058478  0.3756820420212748  0.6253819210948401
  0.3752637862149811  0.1251188153639378  0.6250840727230661
 -0.0001598720924036  0.0011999825044478  0.0000795411699193
  0.8758568807297379  0.6253098501160275  0.3734201163769683
  0.4998479396651673  0.4994782646351290  0.0003372970768212
  0.0002426077484631  0.2502192577099056  0.0002867929400129
  0.1250364151973735  0.3747736717950529  0.8738584113079035
  0.6255740021416818  0.6229819206446118  0.8743975121659641
  0.7501558280974829  0.5002862764409276  0.0012706791176905
  0.7510169530414288  0.5001057979372361  0.4992851421385393
  0.2508919126883199  0.7501183301320845  0.0000825093970118
  0.3747777862456688  0.8743611424073451  0.1252584036427205
  0.3751208497040401  0.8747526735341258  0.6251305988265659
  0.2503510369593272  0.2502143243164671  0.0013550869161532
 -0.0014223677031113  0.0011157277333892  0.2501268623412961
  0.6248157308444399  0.8748208937335307  0.3752777513285926
  0.7499696724490339  0.0001067841676459  0.4983452115601608
  0.6252854390791497  0.3755189974481241  0.8746694427297753
  0.7481747486719746  0.7505930809357058 -0.0006828657488314
  0.3749001960742003  0.3749792670311558  0.3761472594902155
  0.5003120979096004  0.5000191596794211  0.4997724212815859
  0.2499675176451448  0.5002946201528633  0.7503459315900193
  0.3749924820800808  0.6249190643882829  0.8753980619627154
  0.4999815330197564  0.7500548064361825  0.2502933935538286
  0.7500501003386862  0.5016587465631538  0.2499869560594302
  0.2498547305380457  0.2497621984780983  0.7500395584156409
  0.1246624919114051  0.1234903046666602  0.1253729623616851
  0.2498367906579215  0.2496106124355894  0.4997990903132556
  0.5004836887083428  0.2497227899591922  0.4998740822533089
  0.4994105113876006  0.2498052005345476  0.0008358743222344
  0.2496940843906293 -0.0001492284632882  0.5009548945580157
  0.3748779759311439  0.3747047757901071  0.8742071415301099
  0.6249331750220715  0.6248667935832819  0.3753533592496573
  0.2499170744186582  0.5003110773808687  0.4997286714148155
  0.1250298129120873  0.3750589959306905  0.3765008884173192
  0.6245614279340714  0.8751181768355016  0.1260117578444109
  0.6264816000164461  0.3743075468216137  0.1254050806178651
  0.5001931449090533  0.0001478323373641  0.0000530958903718
  0.1247342856620213  0.1253687198407600  0.6248818019493618
  0.6250828032758000  0.1259750085973931  0.8748581853101106
  0.3745663161237423  0.8757688786380364  0.3744471472746616
  0.1257595280268629  0.1249460615207581  0.3743629279415463
  0.6253352293712947  0.3743508179526792  0.3745161924840256
  0.2497054321015399  0.7499675821161811  0.7503334634370862
  0.7488294656750424  0.7499585582175045  0.2500063121862004
  0.7500659093163974  0.2498293799055633 -0.0016592079574145
  0.8744373782390760  0.1258600543749628  0.1252003682153092
  0.4988645504408290  0.5001056633887189  0.7501691102948257
  0.5001021461031835  0.7500909123905040  0.4999054431722185
  0.8763208639353146  0.8748174469823164  0.8750918630209308
  0.8760843356737580  0.6260308648554771  0.1247120420358289
  0.6265229982356516  0.1256916348469876  0.1252335622181402
  0.4978079634867631  0.2496519230162534  0.2491003951232697
  0.8747663193851186  0.3757237610703846  0.8757604676661878
  0.1250208643461090  0.8750008819473696  0.3741046061309416
  0.1243438993507150  0.6249900014467721  0.3746593186129148
  0.1241096362960575  0.6269746740628268  0.1248406340275768
  0.2503016369943342  0.2517635605185851  0.2487191956281158
  0.3750335273709988  0.3748161016148402  0.6248708879136006
  0.0002628981923836  0.5003875466990938  0.7493191598489026
  0.8755741295790032  0.8741227484721638  0.3748751627895680
  0.8746371930612405  0.1260474068136934  0.3747544704692846
  0.5008904910055146  0.7505878357749122  0.7507862861871074
 -0.0007036523698715  0.2501458894335216  0.5002505859152404
  0.0004312180660764  0.4983870536553619  0.0005861357413983
  0.1249787745285464  0.8747648977959972  0.6249474254449595
  0.7507200578702593  0.7493616047497359  0.5004764298000608
 -0.0005569756898835  0.7496053718053010  0.5016793989164097
  0.5004213441271945  0.2499062783253290  0.7500528880181925
  0.2494713965920145  0.4994715350173966  0.2491386875828192
  0.7504462420163281 -0.0014170142262826  0.2501653089281646
  0.6245017396796876  0.6249414341810544  0.1247714631650542
  0.6255675840214412  0.8752779093502562  0.6240918083878237
  0.6242957999504271  0.6244330289874299  0.6254985087994298
  0.8758835850844836  0.8738017775951199  0.1246337719370685
  0.8750379696001696  0.6248061262786017  0.8764562732963664
  0.1260695413228141  0.3750485237370690  0.6248204677834007
  0.2509773308711674  0.7488580198390192  0.2501699431669818
  0.0005407774813923  0.4984043134701173  0.2494111140272363
  0.1244845731508031  0.8742693904916363  0.8756066742597532
  0.7501850656826046  0.7499696953394847  0.7502181275540865
  0.1251420771178175  0.1256903198989914  0.8753684270748425
  0.4994880409225659 -0.0005847702667608  0.7505417355863243
  0.8746642830528429  0.3744907863905355  0.3733763815092413
  0.4998671414071358  0.4995322514505657  0.2497707522524195
  0.3749492758579948  0.6245449434277022  0.3749102760006626
  0.7504124178101909  0.2504538804369563  0.5017657993097350
 
  0.00000000E+00  0.00000000E+00  0.00000000E+00
  0.00000000E+00  0.00000000E+00  0.00000000E+00
  0.00000000E+00  0.00000000E+00  0.00000000E+00
  0.00000000E+00  0.00000000E+00  0.00000000E+00
  0.00000000E+00  0.00000000E+00  0.00000000E+00
  0.00000000E+00  0.00000000E+00  0.00000000E+00
  0.00000000E+00  0.00000000E+00  0.00000000E+00
  0.00000000E+00  0.00000000E+00  0.00000000E+00
  0.00000000E+00  0.00000000E+00  0.00000000E+00
  0.00000000E+00  0.00000000E+00  0.00000000E+00
  0.00000000E+00  0.00000000E+00  0.00000000E+00
  0.00000000E+00  0.00000000E+00  0.00000000E+00
  0.00000000E+00  0.00000000E+00  0.00000000E+00
  0.00000000E+00  0.00000000E+00  0.00000000E+00
  0.00000000E+00  0.00000000E+00  0.00000000E+00
  0.00000000E+00  0.00000000E+00  0.00000000E+00
  0.00000000E+00  0.00000000E+00  0.00000000E+00
  0.00000000E+00  0.00000000E+00  0.00000000E+00
  0.00000000E+00  0.00000000E+00  0.00000000E+00
  0.00000000E+00  0.00000000E+00  0.00000000E+00
  0.00000000E+00  0.00000000E+00  0.00000000E+00
  0.00000000E+00  0.00000000E+00  0.00000000E+00
  0.00000000E+00  0.00000000E+00  0.00000000E+00
  0.00000000E+00  0.00000000E+00  0.00000000E+00
  0.00000000E+00  0.00000000E+00  0.00000000E+00
  0.00000000E+00  0.00000000E+00  0.00000000E+00
  0.00000000E+00  0.00000000E+00  0.00000000E+00
  0.00000000E+00  0.00000000E+00  0.00000000E+00
  0.00000000E+00  0.00000000E+00  0.00000000E+00
  0.00000000E+00  0.00000000E+00  0.00000000E+00
  0.00000000E+00  0.00000000E+00  0.00000000E+00
  0.00000000E+00  0.00000000E+00  0.00000000E+00
  0.00000000E+00  0.00000000E+00  0.00000000E+00
  0.00000000E+00  0.00000000E+00  0.00000000E+00
  0.00000000E+00  0.00000000E+00  0.00000000E+00
  0.00000000E+00  0.00000000E+00  0.00000000E+00
  0.00000000E+00  0.00000000E+00  0.00000000E+00
  0.00000000E+00  0.00000000E+00  0.00000000E+00
  0.00000000E+00  0.00000000E+00  0.00000000E+00
  0.00000000E+00  0.00000000E+00  0.00000000E+00
  0.00000000E+00  0.00000000E+00  0.00000000E+00
  0.00000000E+00  0.00000000E+00  0.00000000E+00
  0.00000000E+00  0.00000000E+00  0.00000000E+00
  0.00000000E+00  0.00000000E+00  0.00000000E+00
  0.00000000E+00  0.00000000E+00  0.00000000E+00
  0.00000000E+00  0.00000000E+00  0.00000000E+00
  0.00000000E+00  0.00000000E+00  0.00000000E+00
  0.00000000E+00  0.00000000E+00  0.00000000E+00
  0.00000000E+00  0.00000000E+00  0.00000000E+00
  0.00000000E+00  0.00000000E+00  0.00000000E+00
  0.00000000E+00  0.00000000E+00  0.00000000E+00
  0.00000000E+00  0.00000000E+00  0.00000000E+00
  0.00000000E+00  0.00000000E+00  0.00000000E+00
  0.00000000E+00  0.00000000E+00  0.00000000E+00
  0.00000000E+00  0.00000000E+00  0.00000000E+00
  0.00000000E+00  0.00000000E+00  0.00000000E+00
  0.00000000E+00  0.00000000E+00  0.00000000E+00
  0.00000000E+00  0.00000000E+00  0.00000000E+00
  0.00000000E+00  0.00000000E+00  0.00000000E+00
  0.00000000E+00  0.00000000E+00  0.00000000E+00
  0.00000000E+00  0.00000000E+00  0.00000000E+00
  0.00000000E+00  0.00000000E+00  0.00000000E+00
  0.00000000E+00  0.00000000E+00  0.00000000E+00
  0.00000000E+00  0.00000000E+00  0.00000000E+00
  0.00000000E+00  0.00000000E+00  0.00000000E+00
  0.00000000E+00  0.00000000E+00  0.00000000E+00
  0.00000000E+00  0.00000000E+00  0.00000000E+00
  0.00000000E+00  0.00000000E+00  0.00000000E+00
  0.00000000E+00  0.00000000E+00  0.00000000E+00
  0.00000000E+00  0.00000000E+00  0.00000000E+00
  0.00000000E+00  0.00000000E+00  0.00000000E+00
  0.00000000E+00  0.00000000E+00  0.00000000E+00
  0.00000000E+00  0.00000000E+00  0.00000000E+00
  0.00000000E+00  0.00000000E+00  0.00000000E+00
  0.00000000E+00  0.00000000E+00  0.00000000E+00
  0.00000000E+00  0.00000000E+00  0.00000000E+00
  0.00000000E+00  0.00000000E+00  0.00000000E+00
  0.00000000E+00  0.00000000E+00  0.00000000E+00
  0.00000000E+00  0.00000000E+00  0.00000000E+00
  0.00000000E+00  0.00000000E+00  0.00000000E+00
  0.00000000E+00  0.00000000E+00  0.00000000E+00
  0.00000000E+00  0.00000000E+00  0.00000000E+00
  0.00000000E+00  0.00000000E+00  0.00000000E+00
  0.00000000E+00  0.00000000E+00  0.00000000E+00
  0.00000000E+00  0.00000000E+00  0.00000000E+00
  0.00000000E+00  0.00000000E+00  0.00000000E+00
  0.00000000E+00  0.00000000E+00  0.00000000E+00
  0.00000000E+00  0.00000000E+00  0.00000000E+00
  0.00000000E+00  0.00000000E+00  0.00000000E+00
  0.00000000E+00  0.00000000E+00  0.00000000E+00
  0.00000000E+00  0.00000000E+00  0.00000000E+00
  0.00000000E+00  0.00000000E+00  0.00000000E+00
  0.00000000E+00  0.00000000E+00  0.00000000E+00
  0.00000000E+00  0.00000000E+00  0.00000000E+00
  0.00000000E+00  0.00000000E+00  0.00000000E+00
  0.00000000E+00  0.00000000E+00  0.00000000E+00
  0.00000000E+00  0.00000000E+00  0.00000000E+00
  0.00000000E+00  0.00000000E+00  0.00000000E+00
  0.00000000E+00  0.00000000E+00  0.00000000E+00
  0.00000000E+00  0.00000000E+00  0.00000000E+00
  0.00000000E+00  0.00000000E+00  0.00000000E+00
  0.00000000E+00  0.00000000E+00  0.00000000E+00
  0.00000000E+00  0.00000000E+00  0.00000000E+00
  0.00000000E+00  0.00000000E+00  0.00000000E+00
  0.00000000E+00  0.00000000E+00  0.00000000E+00
  0.00000000E+00  0.00000000E+00  0.00000000E+00
  0.00000000E+00  0.00000000E+00  0.00000000E+00
  0.00000000E+00  0.00000000E+00  0.00000000E+00
  0.00000000E+00  0.00000000E+00  0.00000000E+00
  0.00000000E+00  0.00000000E+00  0.00000000E+00
  0.00000000E+00  0.00000000E+00  0.00000000E+00
  0.00000000E+00  0.00000000E+00  0.00000000E+00
  0.00000000E+00  0.00000000E+00  0.00000000E+00
  0.00000000E+00  0.00000000E+00  0.00000000E+00
  0.00000000E+00  0.00000000E+00  0.00000000E+00
  0.00000000E+00  0.00000000E+00  0.00000000E+00
  0.00000000E+00  0.00000000E+00  0.00000000E+00
  0.00000000E+00  0.00000000E+00  0.00000000E+00
  0.00000000E+00  0.00000000E+00  0.00000000E+00
  0.00000000E+00  0.00000000E+00  0.00000000E+00
  0.00000000E+00  0.00000000E+00  0.00000000E+00
  0.00000000E+00  0.00000000E+00  0.00000000E+00
  0.00000000E+00  0.00000000E+00  0.00000000E+00
  0.00000000E+00  0.00000000E+00  0.00000000E+00
  0.00000000E+00  0.00000000E+00  0.00000000E+00
  0.00000000E+00  0.00000000E+00  0.00000000E+00
  0.00000000E+00  0.00000000E+00  0.00000000E+00
  0.00000000E+00  0.00000000E+00  0.00000000E+00
