Nb Ti                                   
    1.000000000000000     
    11.2337659890953656   -1.1210993547230490    0.0830371472763916
    -6.3705386491718379   11.5017043316322614   -0.1143107864977812
    -0.1438664195548750    0.1235857747937922   18.7120089420812121
  Nb              Ti            
   108    20
Direct
     0.1249169799638545    0.3129649522831717    0.4371523741381335
     0.3752805506591947    0.9378823363385332    0.5665119675631695
     0.8750748115532686    0.5628776645736501    0.6866220307964912
     0.6248141498433285    0.4347844361360567    0.5621752797795412
     0.1234508213209950    0.9338327606389749    0.0620282785869847
     0.8775288697076706    0.0637032473803896    0.6868927692477923
     0.6268176372652763    0.8178356587178234    0.6890174100940776
     0.8794122157902124    0.6909250502718062    0.8117441260617785
     0.6254056309724090    0.5618771262157634    0.9375416186354760
     0.8725567502863317    0.8128059668661776    0.9366898788086706
     0.3755877002714035    0.3121467957550634    0.6873301967603388
     0.8752986484305101    0.1868875571041656    0.5636219929446649
     0.6268014825106490    0.8124940127322952    0.1868888906095555
     0.6255981679815756    0.0619622488382021    0.1871635044253441
     0.6202477688403369    0.9343412099652527    0.3104979930365879
     0.6246579958430714    0.3124758306644726    0.6882781410047514
     0.1230307166491775    0.5607965975300411    0.9380832259534095
     0.3743783273691102    0.6844898380802109    0.0636105657511876
     0.8759715236854491    0.3179217477884969    0.1900353684550072
     0.1265169396411426    0.9386388438736980    0.8140691578697037
     0.8755813620798814    0.4386026315658201    0.8123874024899310
     0.1252040045222977    0.1876687973761222    0.8153634412124461
     0.8759506881228855    0.5632631677968035    0.9387420825157742
     0.6236632858894232    0.5610645943179082    0.6889190225240394
     0.1245289457091133    0.9353258755218722    0.5628605812384530
     0.3788991644495814    0.0639936236799388    0.4405506893673014
     0.1277809208675600    0.3145071024229228    0.6893288333967890
     0.8715349596218817    0.1821451923536532    0.8097334027677754
     0.1247690726416256    0.1870969922710821    0.5626900289945813
     0.6263725275747578    0.4369772366619757    0.8148156204618437
     0.6242962896344233    0.0609534402550115    0.4367812191763636
     0.1291137693599455    0.0669992936768346    0.1862419090006200
     0.8777542323748404    0.5632095506429028    0.4393185090472270
     0.1219447757566666    0.0574655382480189    0.6895590729835964
     0.1237756142310257    0.1907750501157418    0.3117402276766774
     0.1246700582044196    0.4398889745894085    0.5632761803094934
     0.1275978127060043    0.0639516233532577    0.4358473312308519
     0.8760421095639990    0.4377251965203359    0.5634091588059402
     0.1282091119321295    0.4398872604240806    0.0595765713561000
     0.6240263045255571    0.6871403583724783    0.0618019892783071
     0.3750793260917709    0.5634392333977135    0.1889793379220202
     0.3755152954310271    0.9433683587156964    0.0623460002117282
     0.1230029403981023    0.8125402424527716    0.9374917251662546
     0.8694754034046274    0.8102722848365000    0.6888165276377873
     0.6252113467788207    0.5619910743549413    0.4367350093630373
     0.8743235666128070    0.6886180507613154    0.5642971394771666
     0.1225312772411246    0.8099386288727612    0.1871504404437311
     0.1248988207329410    0.5629283956406654    0.4374718318038794
     0.1251249749420815    0.9381963073835763    0.3119758826898070
     0.8747290987731760    0.1868284404674530    0.3105300020728411
     0.6272698113166362    0.1874023900264564    0.3125904695136772
     0.3744087425387835    0.4380449313117125    0.5624055283874934
     0.3747648827940690    0.1907095356435996    0.8118790867593139
     0.1253441726411106    0.0601276279774757    0.9367621816803072
     0.3749956439161302    0.0578550914704065    0.1879611401607753
     0.3704185781636903    0.4333546800206247    0.0634405363786016
     0.8757683213930851    0.0626514597902839    0.1867295423629982
     0.8780688104372126    0.1925325575002223    0.0644751283861783
     0.8766151958145300    0.4390136081513493    0.3124426280520216
     0.8774457807298202    0.6884716141465375    0.3132143159087179
     0.6271034275437732    0.8133812866280692    0.9377439994089558
     0.3722536176222909    0.1868078858840001    0.5630502362061219
     0.3743967815098385    0.9369881577320093    0.8096253973770321
     0.1230321143144682    0.1861855199809738    0.0576427996145516
     0.3731397950043717    0.8101495523182727    0.6865931590069168
     0.3758797712631683    0.3120348625267219    0.1873206195325545
     0.6288089599436431    0.3147760253738426    0.9415718945818532
     0.8760090445571243    0.9381091311368591    0.3116208799357562
     0.8749795059088000    0.0633283649106890    0.4366739827126116
     0.3783730294228634    0.0664985144024465    0.6880529090675658
     0.3720638031412811    0.9384062584556894    0.3131795243412095
     0.1220738066309271    0.4367078309799510    0.8124174344857900
     0.3784983298505186    0.5651913595796622    0.6880065800789337
     0.6236080645958532    0.6864398519494213    0.3122756597682341
     0.3712030413382530    0.5603867296108489    0.4349041124252748
     0.6248599906868515    0.6875586103458715    0.5624479891969265
     0.8748444418752304    0.9375591035088013    0.5626456528925069
     0.6281670004240637    0.1877631426446133    0.0629827848811538
     0.6242251235600590    0.4382967563302337    0.0630614719866948
     0.3748510207230531    0.3129073197011779    0.4370276469584053
     0.6236125045790181    0.8116760847530041    0.4363680630177108
     0.6209375327287460    0.3095252572622407    0.1861673432903620
     0.3799469171281747    0.0662918354226257    0.9353497520682605
     0.3712297550234997    0.6858019490081980    0.3115255537495670
     0.6230487608495201    0.0611229552181276    0.9390016608638190
     0.8747546480569161    0.3121903218404795    0.4374807726282992
     0.8717895118282480    0.3064307429683199    0.9356446653468650
     0.6222367572821838    0.9356829470938247    0.0614509066123510
     0.8756660524280578    0.8128087595635520    0.4375539298989778
     0.1276683996360255    0.3164113516535875    0.9351562147117207
     0.8730530993381460    0.6846152926042848    0.0624048716714844
     0.6293966538109708    0.4394986430217433    0.3105044653980619
     0.6244828034182559    0.3117486178948475    0.4358344212501909
     0.6228848037722097    0.5621480762339823    0.1870895645396722
     0.1246608374417998    0.5640111120005949    0.6887489371201477
     0.3770759892716063    0.6878183166226550    0.5626453972416510
     0.6252215486937285    0.9399618344766716    0.5618465645605085
     0.1283192694487521    0.6888096126136746    0.8149558763581598
     0.1250426123915150    0.8133158902656852    0.4374068479026046
     0.3713531407833609    0.8108906721174697    0.4391548444813394
     0.8710892810362697    0.3103048054338254    0.6877207359641964
     0.3732870910121854    0.6847364792206660    0.8122946570871593
     0.6209041960118663    0.9351192854959665    0.8169577690179162
     0.3748082654770630    0.4333409560000507    0.3104701706527346
     0.8767070831143826    0.9379180722287083    0.0624957560423442
     0.8767607841378375    0.8105358481815638    0.1875169167868090
     0.3786908731479172    0.5645399530922192    0.9362856086802569
     0.1251532154615519    0.6859822429119486    0.3103155344816070
     0.1334591122571561    0.6944325318453459    0.0610196632050300
     0.8737138385985774    0.9381262808949218    0.8117703653599786
     0.1268020755515009    0.6898021832731903    0.5635090338923142
     0.3753640099976296    0.1871392767616262    0.3127937675948532
     0.6233562136865246    0.1866740449556381    0.5630288236151009
     0.1245950549801655    0.5587046377940255    0.1831773387787536
     0.3718040994600183    0.8122062060635015    0.1864317678584777
     0.8762234984490306    0.0658042463333862    0.9378649673126882
     0.8707270587991485    0.5603939775014194    0.1883240137169028
     0.3754373809070945    0.4378622629939873    0.8116713831440877
     0.3738081888668892    0.3110563499284593    0.9373987829954340
     0.8788422986157928    0.4384367836775163    0.0620566742485261
     0.3765381523337915    0.1857694797502207    0.0634426066711933
     0.6242482351316346    0.1892228059141215    0.8147677265657154
     0.6248176827800870    0.6877917944380413    0.8139358994259241
     0.3732726229666609    0.8116749474386562    0.9390570577310563
     0.6243907401616234    0.0596841602214737    0.6899200161100230
     0.1255435728299485    0.3143272105409790    0.1839357682207869
     0.1244444698368139    0.4360906759601826    0.3100562003385308
     0.1244047960592507    0.8135169176703340    0.6900531085957040
 
  0.00000000E+00  0.00000000E+00  0.00000000E+00
  0.00000000E+00  0.00000000E+00  0.00000000E+00
  0.00000000E+00  0.00000000E+00  0.00000000E+00
  0.00000000E+00  0.00000000E+00  0.00000000E+00
  0.00000000E+00  0.00000000E+00  0.00000000E+00
  0.00000000E+00  0.00000000E+00  0.00000000E+00
  0.00000000E+00  0.00000000E+00  0.00000000E+00
  0.00000000E+00  0.00000000E+00  0.00000000E+00
  0.00000000E+00  0.00000000E+00  0.00000000E+00
  0.00000000E+00  0.00000000E+00  0.00000000E+00
  0.00000000E+00  0.00000000E+00  0.00000000E+00
  0.00000000E+00  0.00000000E+00  0.00000000E+00
  0.00000000E+00  0.00000000E+00  0.00000000E+00
  0.00000000E+00  0.00000000E+00  0.00000000E+00
  0.00000000E+00  0.00000000E+00  0.00000000E+00
  0.00000000E+00  0.00000000E+00  0.00000000E+00
  0.00000000E+00  0.00000000E+00  0.00000000E+00
  0.00000000E+00  0.00000000E+00  0.00000000E+00
  0.00000000E+00  0.00000000E+00  0.00000000E+00
  0.00000000E+00  0.00000000E+00  0.00000000E+00
  0.00000000E+00  0.00000000E+00  0.00000000E+00
  0.00000000E+00  0.00000000E+00  0.00000000E+00
  0.00000000E+00  0.00000000E+00  0.00000000E+00
  0.00000000E+00  0.00000000E+00  0.00000000E+00
  0.00000000E+00  0.00000000E+00  0.00000000E+00
  0.00000000E+00  0.00000000E+00  0.00000000E+00
  0.00000000E+00  0.00000000E+00  0.00000000E+00
  0.00000000E+00  0.00000000E+00  0.00000000E+00
  0.00000000E+00  0.00000000E+00  0.00000000E+00
  0.00000000E+00  0.00000000E+00  0.00000000E+00
  0.00000000E+00  0.00000000E+00  0.00000000E+00
  0.00000000E+00  0.00000000E+00  0.00000000E+00
  0.00000000E+00  0.00000000E+00  0.00000000E+00
  0.00000000E+00  0.00000000E+00  0.00000000E+00
  0.00000000E+00  0.00000000E+00  0.00000000E+00
  0.00000000E+00  0.00000000E+00  0.00000000E+00
  0.00000000E+00  0.00000000E+00  0.00000000E+00
  0.00000000E+00  0.00000000E+00  0.00000000E+00
  0.00000000E+00  0.00000000E+00  0.00000000E+00
  0.00000000E+00  0.00000000E+00  0.00000000E+00
  0.00000000E+00  0.00000000E+00  0.00000000E+00
  0.00000000E+00  0.00000000E+00  0.00000000E+00
  0.00000000E+00  0.00000000E+00  0.00000000E+00
  0.00000000E+00  0.00000000E+00  0.00000000E+00
  0.00000000E+00  0.00000000E+00  0.00000000E+00
  0.00000000E+00  0.00000000E+00  0.00000000E+00
  0.00000000E+00  0.00000000E+00  0.00000000E+00
  0.00000000E+00  0.00000000E+00  0.00000000E+00
  0.00000000E+00  0.00000000E+00  0.00000000E+00
  0.00000000E+00  0.00000000E+00  0.00000000E+00
  0.00000000E+00  0.00000000E+00  0.00000000E+00
  0.00000000E+00  0.00000000E+00  0.00000000E+00
  0.00000000E+00  0.00000000E+00  0.00000000E+00
  0.00000000E+00  0.00000000E+00  0.00000000E+00
  0.00000000E+00  0.00000000E+00  0.00000000E+00
  0.00000000E+00  0.00000000E+00  0.00000000E+00
  0.00000000E+00  0.00000000E+00  0.00000000E+00
  0.00000000E+00  0.00000000E+00  0.00000000E+00
  0.00000000E+00  0.00000000E+00  0.00000000E+00
  0.00000000E+00  0.00000000E+00  0.00000000E+00
  0.00000000E+00  0.00000000E+00  0.00000000E+00
  0.00000000E+00  0.00000000E+00  0.00000000E+00
  0.00000000E+00  0.00000000E+00  0.00000000E+00
  0.00000000E+00  0.00000000E+00  0.00000000E+00
  0.00000000E+00  0.00000000E+00  0.00000000E+00
  0.00000000E+00  0.00000000E+00  0.00000000E+00
  0.00000000E+00  0.00000000E+00  0.00000000E+00
  0.00000000E+00  0.00000000E+00  0.00000000E+00
  0.00000000E+00  0.00000000E+00  0.00000000E+00
  0.00000000E+00  0.00000000E+00  0.00000000E+00
  0.00000000E+00  0.00000000E+00  0.00000000E+00
  0.00000000E+00  0.00000000E+00  0.00000000E+00
  0.00000000E+00  0.00000000E+00  0.00000000E+00
  0.00000000E+00  0.00000000E+00  0.00000000E+00
  0.00000000E+00  0.00000000E+00  0.00000000E+00
  0.00000000E+00  0.00000000E+00  0.00000000E+00
  0.00000000E+00  0.00000000E+00  0.00000000E+00
  0.00000000E+00  0.00000000E+00  0.00000000E+00
  0.00000000E+00  0.00000000E+00  0.00000000E+00
  0.00000000E+00  0.00000000E+00  0.00000000E+00
  0.00000000E+00  0.00000000E+00  0.00000000E+00
  0.00000000E+00  0.00000000E+00  0.00000000E+00
  0.00000000E+00  0.00000000E+00  0.00000000E+00
  0.00000000E+00  0.00000000E+00  0.00000000E+00
  0.00000000E+00  0.00000000E+00  0.00000000E+00
  0.00000000E+00  0.00000000E+00  0.00000000E+00
  0.00000000E+00  0.00000000E+00  0.00000000E+00
  0.00000000E+00  0.00000000E+00  0.00000000E+00
  0.00000000E+00  0.00000000E+00  0.00000000E+00
  0.00000000E+00  0.00000000E+00  0.00000000E+00
  0.00000000E+00  0.00000000E+00  0.00000000E+00
  0.00000000E+00  0.00000000E+00  0.00000000E+00
  0.00000000E+00  0.00000000E+00  0.00000000E+00
  0.00000000E+00  0.00000000E+00  0.00000000E+00
  0.00000000E+00  0.00000000E+00  0.00000000E+00
  0.00000000E+00  0.00000000E+00  0.00000000E+00
  0.00000000E+00  0.00000000E+00  0.00000000E+00
  0.00000000E+00  0.00000000E+00  0.00000000E+00
  0.00000000E+00  0.00000000E+00  0.00000000E+00
  0.00000000E+00  0.00000000E+00  0.00000000E+00
  0.00000000E+00  0.00000000E+00  0.00000000E+00
  0.00000000E+00  0.00000000E+00  0.00000000E+00
  0.00000000E+00  0.00000000E+00  0.00000000E+00
  0.00000000E+00  0.00000000E+00  0.00000000E+00
  0.00000000E+00  0.00000000E+00  0.00000000E+00
  0.00000000E+00  0.00000000E+00  0.00000000E+00
  0.00000000E+00  0.00000000E+00  0.00000000E+00
  0.00000000E+00  0.00000000E+00  0.00000000E+00
  0.00000000E+00  0.00000000E+00  0.00000000E+00
  0.00000000E+00  0.00000000E+00  0.00000000E+00
  0.00000000E+00  0.00000000E+00  0.00000000E+00
  0.00000000E+00  0.00000000E+00  0.00000000E+00
  0.00000000E+00  0.00000000E+00  0.00000000E+00
  0.00000000E+00  0.00000000E+00  0.00000000E+00
  0.00000000E+00  0.00000000E+00  0.00000000E+00
  0.00000000E+00  0.00000000E+00  0.00000000E+00
  0.00000000E+00  0.00000000E+00  0.00000000E+00
  0.00000000E+00  0.00000000E+00  0.00000000E+00
  0.00000000E+00  0.00000000E+00  0.00000000E+00
  0.00000000E+00  0.00000000E+00  0.00000000E+00
  0.00000000E+00  0.00000000E+00  0.00000000E+00
  0.00000000E+00  0.00000000E+00  0.00000000E+00
  0.00000000E+00  0.00000000E+00  0.00000000E+00
  0.00000000E+00  0.00000000E+00  0.00000000E+00
  0.00000000E+00  0.00000000E+00  0.00000000E+00
  0.00000000E+00  0.00000000E+00  0.00000000E+00
  0.00000000E+00  0.00000000E+00  0.00000000E+00
  0.00000000E+00  0.00000000E+00  0.00000000E+00
