Nb Ti                                   
    1.000000000000000     
    13.1304845493436417    0.1388633269360643   -0.2350688987591011
    -6.5888727435877454    9.2465941158809297    0.1129609949233629
     0.3870555320892902    0.0202948872857009   18.5674110673666313
  Nb              Ti            
    96    32
Direct
     0.4400815190594697    0.1281473979758543    0.4378444281196282
     0.1890875723016780    0.1236614922730082    0.1875638429338959
     0.4392770971409869    0.3766507391883185    0.9378244931853772
     0.8109969376360594    0.1224044856357461    0.5633375978386035
     0.5616803870846649    0.3749444262876432    0.5619619901132648
     0.1868117957818260    0.1248123305182341    0.4366259369487133
     0.9398349807845475    0.6249736154585901    0.1870632380468915
     0.1892412191106781    0.8774909522336779    0.1882125495291223
     0.8070868934279248    0.6212994847745874    0.8150808694469200
     0.1848350479698047    0.6203678756223894    0.9397191971926226
     0.4433870159092965    0.6306734964073283    0.4363266528446321
     0.0631781051084934    0.6229452561437533    0.8136172144978502
     0.3165022176939959    0.8754479648840209    0.5638526783019144
     0.3195802550079036    0.8794547869292038    0.3087693909033522
     0.8088645615057092    0.1187695892031480    0.8125095562673688
     0.5661186371168689    0.6251478268088098    0.5632526918302414
     0.0607610051374164    0.8745378742171770    0.5615207086860308
     0.3160988213779513    0.6271350467766760    0.8140437588324421
     0.4366825236303349    0.6269232058761116    0.6855283344190731
     0.3079271771562802    0.6231391983004054    0.5599901268962365
     0.0616257646126390    0.1259416157790321    0.0653285126829363
     0.0673716640128398    0.6301364318786611    0.3113560264250703
     0.9396078423102446    0.3733267088811738    0.4392562945832582
     0.5655448985982980    0.1278757377741828    0.3147087452502785
     0.9407626318963795    0.1269374346755731    0.9402189732831039
     0.6852586137058673    0.1223724747944497    0.6860802252590439
     0.9388516186135696    0.6277459634453498    0.9363038107159768
     0.4340273450913491    0.3741098930830497    0.4356311155146232
     0.8172421089603150    0.8750843076900365    0.8128016461137636
     0.1863052817517607    0.3735277693404962    0.9357165379022825
     0.5614637591685540    0.3730768906983939    0.3121848484797576
     0.9356312003667626    0.1242611666648638    0.6866778218171614
     0.3151442408518340    0.3730100206266475    0.8137285077804012
     0.8134141243721343    0.8741440412337683    0.0631450061905298
     0.9319339682561109    0.3707183627650658    0.9376348844730263
     0.5656275620847570    0.6255274029417442    0.3118287001610826
     0.0632136756266204    0.8786225552384298    0.0610183331486457
     0.4370949515050050    0.3764990367320508    0.6882052038822178
     0.9382638641372643    0.8730329436638902    0.4370623479560861
     0.1862505769030090    0.1223424795384078    0.6871910362939877
     0.8102365598404120    0.8755076095377298    0.5608552116144671
     0.3130491434744807    0.1255808768938658    0.0627693393160632
     0.5596861857017110    0.3728887185589003    0.0646184316155446
     0.3090100568861052    0.8747225544825455    0.8122189289817345
     0.3149655386780080    0.8788588462002942    0.0648376598737024
     0.0604503282248768    0.8718431838715350    0.3127939058608112
     0.8180667321357102    0.3776833970901844    0.3153762228424845
     0.0662566968108298    0.1284425830655700    0.3124464068256790
     0.9437360794264226    0.1312164103304240    0.1887312280746293
     0.6879392976127060    0.6193084104529194    0.6890670676737850
     0.8117560483372435    0.8741840170058816    0.3129252600861325
     0.1865712918246631    0.3726762040940744    0.6894725447001760
     0.3138725126034057    0.3773517932227113    0.5619927403572674
     0.0625917053475894    0.3744537960035515    0.5632202169740641
     0.9397488634669945    0.1257636650010061    0.4360482387395569
     0.6910042725008986    0.3798969945330623    0.4382278498492549
     0.5613964677101015    0.8760718749566369    0.8128401511525541
     0.4351969568213251    0.3724113196000278    0.1887571445693675
     0.9312097330949095    0.3699077351604653    0.1877721287805941
     0.6861074045370279    0.6246640727377785    0.9372399773985270
     0.4382720926516406    0.1277272661539933    0.6874513908596538
     0.1915815424380168    0.8749084245489755    0.9378866761824521
     0.3096690633934956    0.1227171633409148    0.8113658703445098
     0.4357352123557210    0.1304240454796834    0.9368207899685776
     0.8164480740308114    0.3737785642764327    0.0625358674680889
     0.5671088938591862    0.6287539497686158    0.0614237626834434
     0.0641401282210428    0.1267672251059878    0.5609373610667464
     0.4382841672553791    0.6251596127467292    0.9387947119451848
     0.1857613755828802    0.6250683845929552    0.6885948855716245
     0.0601881492823046    0.3740088930873791    0.8128421992960568
     0.3097369426894452    0.1210005414161035    0.5608475870615762
     0.9330050852860453    0.8704071136138801    0.1879688955358600
     0.4385597259380486    0.8763916827585646    0.6900138934847632
     0.4379001063441557    0.8732469784380424    0.1874886404536308
     0.1850411523737311    0.8726126218128576    0.6850575542006957
     0.1783531116870485    0.6186186476775822    0.4358134707943374
     0.9338462767858114    0.8743150280644587    0.9383615753457721
     0.6877960279705391    0.3750975872173700    0.6859555518823081
     0.9340305228666038    0.8763980839928609    0.6861897955119575
     0.6890664316185636    0.6259826308703490    0.4366013831281350
     0.6804053537748861    0.1242758511280033    0.1894111760611691
     0.3115521075774336    0.3753463046873546    0.0610762944022879
     0.5594252099511443    0.8722230962319016    0.0649215165654716
     0.1857204043205057    0.6207661009073582    0.1868800630457240
     0.5614743025493348    0.1241726168359902    0.5610253158625020
     0.6887996516203780    0.8772174217823158    0.4355971250779692
     0.9373572995592231    0.3748445387548897    0.6863714874320028
     0.8141604261847568    0.3758627092421521    0.5623686057453493
     0.6884166250108497    0.1249408835311703    0.9376243103994056
     0.5674426574272112    0.1291864307677389    0.0605181980199201
     0.6854374276012722    0.1208936267259562    0.4387840768077518
     0.6815754904691117    0.6244092243640939    0.1865343926387893
     0.8111268866697879    0.3763667772758544    0.8101918628111913
     0.3111480431623050    0.6248006156411210    0.0626201210925839
     0.3147131622228501    0.3779243128717916    0.3113232739874924
     0.0604429738981536    0.6271494886884040    0.0632091795796076
     0.9374173086477683    0.6268909975714136    0.6908113822517665
     0.4291298787223588    0.8703076311394830    0.4363290198034430
     0.5602324038788362    0.8721560915139438    0.3116071697794416
     0.8132413514586669    0.6252253823498227    0.5614863862921214
     0.6864926215445162    0.8696012626995964    0.6892214031992886
     0.1931422909608493    0.3769641191417464    0.1880201775883771
     0.5610584364451290    0.3747881556182818    0.8120217279765255
     0.8093434147316598    0.6177474589804567    0.0624727653778008
     0.0592444631221310    0.3752649321250445    0.3118945406469074
     0.6863748820485643    0.8765706108485681    0.9381120197282192
     0.3109309004340094    0.1221369081062806    0.3139882153744890
     0.0638199675557927    0.1288506220377072    0.8114686460245486
     0.0579907432028746    0.8686612046215233    0.8125879795879206
     0.8077826776124377    0.1182514791466119    0.0647265052460100
     0.4419504349849919    0.1265501180976609    0.1878750237362408
     0.5600855414002427    0.8713633044329910    0.5620242552035886
     0.6960097707802302    0.8878883994528654    0.1873712060749314
     0.0642270148342848    0.6289497978177253    0.5627384192643514
     0.1916161717051899    0.3808602456656518    0.4359880705936680
     0.4437844420146858    0.6299942596118751    0.1872336945635779
     0.1848713389946684    0.1220952303072948    0.9382419365870781
     0.0603866610970618    0.3742919965569656    0.0624537746964424
     0.4387791549983497    0.8784382635788716    0.9373771120819522
     0.8098590156093899    0.6201171568737424    0.3089211745066946
     0.6934621914044349    0.3832324532064866    0.1890866550582538
     0.8100146713907351    0.1208893675705326    0.3112543026266589
     0.1948984636646951    0.8775720560560248    0.4363812941825561
     0.6889807717930425    0.3762717161403242    0.9391805073468910
     0.5650008790034692    0.6323471444003462    0.8119619767451198
     0.5612909070146497    0.1232313217270887    0.8141367324840499
     0.3085886393397365    0.6224446388013225    0.3139856512657543
     0.9407499951723605    0.6256277316429116    0.4346969217569168
 
  0.00000000E+00  0.00000000E+00  0.00000000E+00
  0.00000000E+00  0.00000000E+00  0.00000000E+00
  0.00000000E+00  0.00000000E+00  0.00000000E+00
  0.00000000E+00  0.00000000E+00  0.00000000E+00
  0.00000000E+00  0.00000000E+00  0.00000000E+00
  0.00000000E+00  0.00000000E+00  0.00000000E+00
  0.00000000E+00  0.00000000E+00  0.00000000E+00
  0.00000000E+00  0.00000000E+00  0.00000000E+00
  0.00000000E+00  0.00000000E+00  0.00000000E+00
  0.00000000E+00  0.00000000E+00  0.00000000E+00
  0.00000000E+00  0.00000000E+00  0.00000000E+00
  0.00000000E+00  0.00000000E+00  0.00000000E+00
  0.00000000E+00  0.00000000E+00  0.00000000E+00
  0.00000000E+00  0.00000000E+00  0.00000000E+00
  0.00000000E+00  0.00000000E+00  0.00000000E+00
  0.00000000E+00  0.00000000E+00  0.00000000E+00
  0.00000000E+00  0.00000000E+00  0.00000000E+00
  0.00000000E+00  0.00000000E+00  0.00000000E+00
  0.00000000E+00  0.00000000E+00  0.00000000E+00
  0.00000000E+00  0.00000000E+00  0.00000000E+00
  0.00000000E+00  0.00000000E+00  0.00000000E+00
  0.00000000E+00  0.00000000E+00  0.00000000E+00
  0.00000000E+00  0.00000000E+00  0.00000000E+00
  0.00000000E+00  0.00000000E+00  0.00000000E+00
  0.00000000E+00  0.00000000E+00  0.00000000E+00
  0.00000000E+00  0.00000000E+00  0.00000000E+00
  0.00000000E+00  0.00000000E+00  0.00000000E+00
  0.00000000E+00  0.00000000E+00  0.00000000E+00
  0.00000000E+00  0.00000000E+00  0.00000000E+00
  0.00000000E+00  0.00000000E+00  0.00000000E+00
  0.00000000E+00  0.00000000E+00  0.00000000E+00
  0.00000000E+00  0.00000000E+00  0.00000000E+00
  0.00000000E+00  0.00000000E+00  0.00000000E+00
  0.00000000E+00  0.00000000E+00  0.00000000E+00
  0.00000000E+00  0.00000000E+00  0.00000000E+00
  0.00000000E+00  0.00000000E+00  0.00000000E+00
  0.00000000E+00  0.00000000E+00  0.00000000E+00
  0.00000000E+00  0.00000000E+00  0.00000000E+00
  0.00000000E+00  0.00000000E+00  0.00000000E+00
  0.00000000E+00  0.00000000E+00  0.00000000E+00
  0.00000000E+00  0.00000000E+00  0.00000000E+00
  0.00000000E+00  0.00000000E+00  0.00000000E+00
  0.00000000E+00  0.00000000E+00  0.00000000E+00
  0.00000000E+00  0.00000000E+00  0.00000000E+00
  0.00000000E+00  0.00000000E+00  0.00000000E+00
  0.00000000E+00  0.00000000E+00  0.00000000E+00
  0.00000000E+00  0.00000000E+00  0.00000000E+00
  0.00000000E+00  0.00000000E+00  0.00000000E+00
  0.00000000E+00  0.00000000E+00  0.00000000E+00
  0.00000000E+00  0.00000000E+00  0.00000000E+00
  0.00000000E+00  0.00000000E+00  0.00000000E+00
  0.00000000E+00  0.00000000E+00  0.00000000E+00
  0.00000000E+00  0.00000000E+00  0.00000000E+00
  0.00000000E+00  0.00000000E+00  0.00000000E+00
  0.00000000E+00  0.00000000E+00  0.00000000E+00
  0.00000000E+00  0.00000000E+00  0.00000000E+00
  0.00000000E+00  0.00000000E+00  0.00000000E+00
  0.00000000E+00  0.00000000E+00  0.00000000E+00
  0.00000000E+00  0.00000000E+00  0.00000000E+00
  0.00000000E+00  0.00000000E+00  0.00000000E+00
  0.00000000E+00  0.00000000E+00  0.00000000E+00
  0.00000000E+00  0.00000000E+00  0.00000000E+00
  0.00000000E+00  0.00000000E+00  0.00000000E+00
  0.00000000E+00  0.00000000E+00  0.00000000E+00
  0.00000000E+00  0.00000000E+00  0.00000000E+00
  0.00000000E+00  0.00000000E+00  0.00000000E+00
  0.00000000E+00  0.00000000E+00  0.00000000E+00
  0.00000000E+00  0.00000000E+00  0.00000000E+00
  0.00000000E+00  0.00000000E+00  0.00000000E+00
  0.00000000E+00  0.00000000E+00  0.00000000E+00
  0.00000000E+00  0.00000000E+00  0.00000000E+00
  0.00000000E+00  0.00000000E+00  0.00000000E+00
  0.00000000E+00  0.00000000E+00  0.00000000E+00
  0.00000000E+00  0.00000000E+00  0.00000000E+00
  0.00000000E+00  0.00000000E+00  0.00000000E+00
  0.00000000E+00  0.00000000E+00  0.00000000E+00
  0.00000000E+00  0.00000000E+00  0.00000000E+00
  0.00000000E+00  0.00000000E+00  0.00000000E+00
  0.00000000E+00  0.00000000E+00  0.00000000E+00
  0.00000000E+00  0.00000000E+00  0.00000000E+00
  0.00000000E+00  0.00000000E+00  0.00000000E+00
  0.00000000E+00  0.00000000E+00  0.00000000E+00
  0.00000000E+00  0.00000000E+00  0.00000000E+00
  0.00000000E+00  0.00000000E+00  0.00000000E+00
  0.00000000E+00  0.00000000E+00  0.00000000E+00
  0.00000000E+00  0.00000000E+00  0.00000000E+00
  0.00000000E+00  0.00000000E+00  0.00000000E+00
  0.00000000E+00  0.00000000E+00  0.00000000E+00
  0.00000000E+00  0.00000000E+00  0.00000000E+00
  0.00000000E+00  0.00000000E+00  0.00000000E+00
  0.00000000E+00  0.00000000E+00  0.00000000E+00
  0.00000000E+00  0.00000000E+00  0.00000000E+00
  0.00000000E+00  0.00000000E+00  0.00000000E+00
  0.00000000E+00  0.00000000E+00  0.00000000E+00
  0.00000000E+00  0.00000000E+00  0.00000000E+00
  0.00000000E+00  0.00000000E+00  0.00000000E+00
  0.00000000E+00  0.00000000E+00  0.00000000E+00
  0.00000000E+00  0.00000000E+00  0.00000000E+00
  0.00000000E+00  0.00000000E+00  0.00000000E+00
  0.00000000E+00  0.00000000E+00  0.00000000E+00
  0.00000000E+00  0.00000000E+00  0.00000000E+00
  0.00000000E+00  0.00000000E+00  0.00000000E+00
  0.00000000E+00  0.00000000E+00  0.00000000E+00
  0.00000000E+00  0.00000000E+00  0.00000000E+00
  0.00000000E+00  0.00000000E+00  0.00000000E+00
  0.00000000E+00  0.00000000E+00  0.00000000E+00
  0.00000000E+00  0.00000000E+00  0.00000000E+00
  0.00000000E+00  0.00000000E+00  0.00000000E+00
  0.00000000E+00  0.00000000E+00  0.00000000E+00
  0.00000000E+00  0.00000000E+00  0.00000000E+00
  0.00000000E+00  0.00000000E+00  0.00000000E+00
  0.00000000E+00  0.00000000E+00  0.00000000E+00
  0.00000000E+00  0.00000000E+00  0.00000000E+00
  0.00000000E+00  0.00000000E+00  0.00000000E+00
  0.00000000E+00  0.00000000E+00  0.00000000E+00
  0.00000000E+00  0.00000000E+00  0.00000000E+00
  0.00000000E+00  0.00000000E+00  0.00000000E+00
  0.00000000E+00  0.00000000E+00  0.00000000E+00
  0.00000000E+00  0.00000000E+00  0.00000000E+00
  0.00000000E+00  0.00000000E+00  0.00000000E+00
  0.00000000E+00  0.00000000E+00  0.00000000E+00
  0.00000000E+00  0.00000000E+00  0.00000000E+00
  0.00000000E+00  0.00000000E+00  0.00000000E+00
  0.00000000E+00  0.00000000E+00  0.00000000E+00
  0.00000000E+00  0.00000000E+00  0.00000000E+00
  0.00000000E+00  0.00000000E+00  0.00000000E+00
  0.00000000E+00  0.00000000E+00  0.00000000E+00
  0.00000000E+00  0.00000000E+00  0.00000000E+00
