Nb Ta                                   
    1.000000000000000     
    13.2590821004685129    0.0006159999101644    0.0016759008779171
     0.0006161368162864   13.2603922885059884    0.0007683156472589
     0.0016764530221714    0.0007684663122889   13.2618852483130745
   Nb   Ta
    52    76
Direct
  0.1268026326095820  0.3738816106889127  0.8763445136447782
  0.8758810198624313  0.1243669823148924  0.8752219378683619
  0.4980427966143885  0.7501119221666935  0.7527538998712971
  0.7496529865711296  0.2490173762931823  0.5003395451700181
  0.3752478016423537  0.6237382591307757  0.8745882248053125
  0.2500459865339015  0.2518062451365801  0.4990823587873687
  0.0007248837207336  0.2503549265617381  0.4998274211087675
  0.0017016135586481  0.4978207545363774  0.7492768419588592
  0.8752792824263836  0.3780105666629216  0.8739382942334104
  0.2493268166501688  0.2519472429101022  0.7492407798193440
  0.2489018249627378 -0.0027189148356995  0.7510823100394146
  0.6234693911750245  0.3758315834819489  0.8747907350425079
  0.1256835300887978  0.6251748386626385  0.1250898992267776
  0.1247772970402612  0.3734655394998631  0.3745606088451808
  0.2497086444223659  0.2502090924569767  0.0012305801560270
  0.7503660076443659  0.7485670212629331 -0.0002809203421535
  0.4996311931628431  0.2499204558358842  0.5010572131079511
  0.0007425320241959  0.7486589393740072  0.2495774119478939
  0.1228199779891629  0.6249160294964902  0.8747421930844684
  0.1243941131091438  0.3734801245555182  0.6250040098401771
  0.5015544943380753  0.0023416485764870  0.7497775967206055
  0.6244694027518035  0.1247737496904710  0.6229798253021220
  0.4981049159290657 -0.0011716991302229  0.0011921964505859
  0.4992294134792580  0.4989007101194380  0.7509513516793231
  0.5016109137627686  0.2508133997817368 -0.0003651010751125
  0.3753030807872327  0.8738047538032300  0.1254210710456914
  0.1246681393929572  0.6247538332177871  0.6261319675128928
  0.8757299568847646  0.6257926257755544  0.3742062538485955
  0.5020423592923389  0.0004372902641010  0.4989295857161390
  0.0020743814838494  0.7518017550018556  0.7498580188642757
  0.8748870841567954  0.1254439015715185  0.3757555652950808
  0.8729989517392881  0.8723190523707465  0.8751941083955830
  0.7495239499129505  0.0008152051196249  0.2523248818134498
  0.3747447387197276  0.3760030265038919  0.1236871979308613
  0.1248631291956742  0.8755939062027758  0.8756396013247353
  0.7501943801995571  0.7511591805200147  0.7491795444274293
  0.6252877635932869  0.8764620424302769  0.3748338413210858
  0.8740403998009959  0.6244653094323296  0.6285104979681760
  0.6224759981978444  0.1227191997453536  0.8774340843451648
  0.7513495570539952  0.0011136853033474 -0.0026184296844459
  0.7497474711709319  0.4983431869347513  0.7502996171619248
  0.7481706439801579  0.7487418698799093  0.2521553999984932
  0.2491325639864000 -0.0011072424346881  0.4996505884164552
  0.3758767636500064  0.1257748861325401  0.1218928310340782
  0.6238368685527885  0.6249910906012728  0.3744791149348807
  0.5014882564654433  0.7494998721341878  0.4982179644415312
  0.1255290703414063  0.6261642681566030  0.3743632957563360
  0.6269746594451631  0.6266243049430592  0.8747190868468443
  0.3749493910624250  0.1247747753916203  0.3777950788000709
  0.3768665491248594  0.8767759793816945  0.8728773466369666
  0.8737043642374186  0.6258088314087389  0.1237206278260893
  0.1252726014103566  0.8766295505915400  0.6243381132661102
  0.2484590049937014  0.5010847081945630  0.5009458577388284
 -0.0014538426390872  0.0007215017280892  0.7505609336747990
  0.3772429438177163  0.8754509659841813  0.6234230815593349
  0.3734890533728224  0.8738882160911977  0.3778416581687177
  0.0002370319195382  0.4992425205838135  0.2505565070010944
  0.1278992438091802  0.1253424744920739  0.8748670660392076
  0.4985154514433611  0.2489999523860931  0.2491972434563370
 -0.0014288781767584  0.2494733477751452  0.7520480430527925
  0.3744863522483748  0.6252716674131342  0.3751071834988418
  0.7502849557956119  0.5032082711419475  0.4987707542085240
  0.3745296449212305  0.3732120172902345  0.8734452549294496
  0.2511288799334218  0.7503306732844073  0.2498509700749562
  0.6241121205077816  0.8729038043133708  0.6269950775189702
  0.2496087207147602  0.5018937264352549 -0.0009486553173282
  0.2499164404095554 -0.0025059148624352  0.0011800684414591
  0.3725346131742742  0.1267075036796424  0.8732972428221505
 -0.0001517958275031  0.2491035094410659  0.2498453987884052
  0.7513310448065288  0.7495414836741019  0.5000954516047018
 -0.0021592154351008  0.2500326821565271 -0.0017310798277534
  0.1259631539629434  0.1252745051360860  0.6253790936064821
  0.6253630987705751  0.3728728638190677  0.3753303319660481
  0.7505160924380939  0.0023865394927936  0.7484267648854818
  0.4982476502380942  0.7494372953751676  0.0004084066449686
  0.6266283117292006  0.1237818585838981  0.1252851664882184
  0.8766388905003545  0.1264635851365562  0.6241546542545785
  0.4996223126052263  0.7522000739808125  0.2488758284842107
  0.1260948991751443  0.1239450177196794  0.3758055168885562
  0.0000490589584045  0.5007537673729128  0.0011235411736241
  0.3760864811178484  0.3750830112565242  0.6253348856138939
  0.8753198193065542  0.6250545733185450  0.8738868050665446
  0.0003572899508475 -0.0009514165027841 -0.0013542797725879
  0.5010565038422676  0.5004540974965421  0.4985869155218903
  0.6235490780680498  0.6256918913820484  0.6270615020369082
  0.5026452131658072  0.2488596579994770  0.7493087415091217
  0.1240079406648623  0.3733375088776492  0.1244076946038078
  0.2520391041955057  0.2491886575406645  0.2501025362964963
  0.8765674361286379  0.8739549574336529  0.3736259118139172
  0.6247925299680234  0.1261777785533936  0.3737903127472126
  0.0004630795331760  0.0023702999670662  0.2505914399454883
 -0.0000177064132455  0.7493101310964976  0.5012687575591832
  0.6254470159604160  0.8749101882161729  0.8754334361988977
  0.3758059446476914  0.3759689614077904  0.3768591082289753
  0.6260689512560057  0.3766239096200620  0.6236540048221901
  0.3773497799176043  0.6252068649377565  0.6240862435054687
  0.4980006982514663 -0.0001292690151924  0.2497828243779428
  0.8733177955006723  0.3740137497338665  0.6233072121570421
  0.2474117238211177  0.7484275980416003  0.5012578319224197
  0.7510067137953900  0.2516514575251608 -0.0019303916076969
  0.3753248304975350  0.6245730113644322  0.1263289814012100
  0.7506099210399348 -0.0015994735704021  0.5013211839403777
  0.6246641766113284  0.6257327266728516  0.1246354149145617
  0.5002110211841651  0.4992382235293457  0.2501854882575424
  0.2502634652884114  0.7490036205946208  0.7500429792365786
  0.2495087302621266  0.5015791451232182  0.7496094199787029
  0.1231832431448518  0.8754823353107245  0.1270273366860085
  0.2491243852412308  0.4990455157472032  0.2504440716899014
  0.0010769404152132  0.7500536912738501 -0.0000085699493572
  0.8741384738554909  0.3748728296315305  0.3759787293776621
  0.8755655891965113  0.3745844962702596  0.1262433700880401
  0.7502213936563454  0.2504585336866921  0.2490563762614605
  0.6280258007164682  0.8755669633395181  0.1229044345616996
  0.2524859069235967  0.0011479621772949  0.2480278762134042
  0.7484907232407441  0.2475777976148768  0.7520886246574641
  0.6257628520731380  0.3747639745129396  0.1259430982661163
  0.8741481266331821  0.8748537810160315  0.6251028929895752
  0.1241218615724092  0.1255262448752982  0.1239339599236121
  0.1249865241087975  0.8761702208622068  0.3732660008499043
 -0.0001983337126772  0.5022348053334097  0.4991991771142887
  0.3722385763364950  0.1244863386910987  0.6267007095563130
  0.2503937121356364  0.7504131900444511 -0.0011703744696053
  0.8736864096544492  0.8755548234248129  0.1268794724272261
  0.8740949224534065  0.1240629872873282  0.1246074783615236
 -0.0012973820182076 -0.0014216499250857  0.5002568175276645
  0.5001926118326352  0.5011694293142958  0.0002492592629901
  0.7499526631513046  0.4988514071698361  0.0004954895614605
  0.7501396777511254  0.4998692963072005  0.2504508644031191
 
  0.00000000E+00  0.00000000E+00  0.00000000E+00
  0.00000000E+00  0.00000000E+00  0.00000000E+00
  0.00000000E+00  0.00000000E+00  0.00000000E+00
  0.00000000E+00  0.00000000E+00  0.00000000E+00
  0.00000000E+00  0.00000000E+00  0.00000000E+00
  0.00000000E+00  0.00000000E+00  0.00000000E+00
  0.00000000E+00  0.00000000E+00  0.00000000E+00
  0.00000000E+00  0.00000000E+00  0.00000000E+00
  0.00000000E+00  0.00000000E+00  0.00000000E+00
  0.00000000E+00  0.00000000E+00  0.00000000E+00
  0.00000000E+00  0.00000000E+00  0.00000000E+00
  0.00000000E+00  0.00000000E+00  0.00000000E+00
  0.00000000E+00  0.00000000E+00  0.00000000E+00
  0.00000000E+00  0.00000000E+00  0.00000000E+00
  0.00000000E+00  0.00000000E+00  0.00000000E+00
  0.00000000E+00  0.00000000E+00  0.00000000E+00
  0.00000000E+00  0.00000000E+00  0.00000000E+00
  0.00000000E+00  0.00000000E+00  0.00000000E+00
  0.00000000E+00  0.00000000E+00  0.00000000E+00
  0.00000000E+00  0.00000000E+00  0.00000000E+00
  0.00000000E+00  0.00000000E+00  0.00000000E+00
  0.00000000E+00  0.00000000E+00  0.00000000E+00
  0.00000000E+00  0.00000000E+00  0.00000000E+00
  0.00000000E+00  0.00000000E+00  0.00000000E+00
  0.00000000E+00  0.00000000E+00  0.00000000E+00
  0.00000000E+00  0.00000000E+00  0.00000000E+00
  0.00000000E+00  0.00000000E+00  0.00000000E+00
  0.00000000E+00  0.00000000E+00  0.00000000E+00
  0.00000000E+00  0.00000000E+00  0.00000000E+00
  0.00000000E+00  0.00000000E+00  0.00000000E+00
  0.00000000E+00  0.00000000E+00  0.00000000E+00
  0.00000000E+00  0.00000000E+00  0.00000000E+00
  0.00000000E+00  0.00000000E+00  0.00000000E+00
  0.00000000E+00  0.00000000E+00  0.00000000E+00
  0.00000000E+00  0.00000000E+00  0.00000000E+00
  0.00000000E+00  0.00000000E+00  0.00000000E+00
  0.00000000E+00  0.00000000E+00  0.00000000E+00
  0.00000000E+00  0.00000000E+00  0.00000000E+00
  0.00000000E+00  0.00000000E+00  0.00000000E+00
  0.00000000E+00  0.00000000E+00  0.00000000E+00
  0.00000000E+00  0.00000000E+00  0.00000000E+00
  0.00000000E+00  0.00000000E+00  0.00000000E+00
  0.00000000E+00  0.00000000E+00  0.00000000E+00
  0.00000000E+00  0.00000000E+00  0.00000000E+00
  0.00000000E+00  0.00000000E+00  0.00000000E+00
  0.00000000E+00  0.00000000E+00  0.00000000E+00
  0.00000000E+00  0.00000000E+00  0.00000000E+00
  0.00000000E+00  0.00000000E+00  0.00000000E+00
  0.00000000E+00  0.00000000E+00  0.00000000E+00
  0.00000000E+00  0.00000000E+00  0.00000000E+00
  0.00000000E+00  0.00000000E+00  0.00000000E+00
  0.00000000E+00  0.00000000E+00  0.00000000E+00
  0.00000000E+00  0.00000000E+00  0.00000000E+00
  0.00000000E+00  0.00000000E+00  0.00000000E+00
  0.00000000E+00  0.00000000E+00  0.00000000E+00
  0.00000000E+00  0.00000000E+00  0.00000000E+00
  0.00000000E+00  0.00000000E+00  0.00000000E+00
  0.00000000E+00  0.00000000E+00  0.00000000E+00
  0.00000000E+00  0.00000000E+00  0.00000000E+00
  0.00000000E+00  0.00000000E+00  0.00000000E+00
  0.00000000E+00  0.00000000E+00  0.00000000E+00
  0.00000000E+00  0.00000000E+00  0.00000000E+00
  0.00000000E+00  0.00000000E+00  0.00000000E+00
  0.00000000E+00  0.00000000E+00  0.00000000E+00
  0.00000000E+00  0.00000000E+00  0.00000000E+00
  0.00000000E+00  0.00000000E+00  0.00000000E+00
  0.00000000E+00  0.00000000E+00  0.00000000E+00
  0.00000000E+00  0.00000000E+00  0.00000000E+00
  0.00000000E+00  0.00000000E+00  0.00000000E+00
  0.00000000E+00  0.00000000E+00  0.00000000E+00
  0.00000000E+00  0.00000000E+00  0.00000000E+00
  0.00000000E+00  0.00000000E+00  0.00000000E+00
  0.00000000E+00  0.00000000E+00  0.00000000E+00
  0.00000000E+00  0.00000000E+00  0.00000000E+00
  0.00000000E+00  0.00000000E+00  0.00000000E+00
  0.00000000E+00  0.00000000E+00  0.00000000E+00
  0.00000000E+00  0.00000000E+00  0.00000000E+00
  0.00000000E+00  0.00000000E+00  0.00000000E+00
  0.00000000E+00  0.00000000E+00  0.00000000E+00
  0.00000000E+00  0.00000000E+00  0.00000000E+00
  0.00000000E+00  0.00000000E+00  0.00000000E+00
  0.00000000E+00  0.00000000E+00  0.00000000E+00
  0.00000000E+00  0.00000000E+00  0.00000000E+00
  0.00000000E+00  0.00000000E+00  0.00000000E+00
  0.00000000E+00  0.00000000E+00  0.00000000E+00
  0.00000000E+00  0.00000000E+00  0.00000000E+00
  0.00000000E+00  0.00000000E+00  0.00000000E+00
  0.00000000E+00  0.00000000E+00  0.00000000E+00
  0.00000000E+00  0.00000000E+00  0.00000000E+00
  0.00000000E+00  0.00000000E+00  0.00000000E+00
  0.00000000E+00  0.00000000E+00  0.00000000E+00
  0.00000000E+00  0.00000000E+00  0.00000000E+00
  0.00000000E+00  0.00000000E+00  0.00000000E+00
  0.00000000E+00  0.00000000E+00  0.00000000E+00
  0.00000000E+00  0.00000000E+00  0.00000000E+00
  0.00000000E+00  0.00000000E+00  0.00000000E+00
  0.00000000E+00  0.00000000E+00  0.00000000E+00
  0.00000000E+00  0.00000000E+00  0.00000000E+00
  0.00000000E+00  0.00000000E+00  0.00000000E+00
  0.00000000E+00  0.00000000E+00  0.00000000E+00
  0.00000000E+00  0.00000000E+00  0.00000000E+00
  0.00000000E+00  0.00000000E+00  0.00000000E+00
  0.00000000E+00  0.00000000E+00  0.00000000E+00
  0.00000000E+00  0.00000000E+00  0.00000000E+00
  0.00000000E+00  0.00000000E+00  0.00000000E+00
  0.00000000E+00  0.00000000E+00  0.00000000E+00
  0.00000000E+00  0.00000000E+00  0.00000000E+00
  0.00000000E+00  0.00000000E+00  0.00000000E+00
  0.00000000E+00  0.00000000E+00  0.00000000E+00
  0.00000000E+00  0.00000000E+00  0.00000000E+00
  0.00000000E+00  0.00000000E+00  0.00000000E+00
  0.00000000E+00  0.00000000E+00  0.00000000E+00
  0.00000000E+00  0.00000000E+00  0.00000000E+00
  0.00000000E+00  0.00000000E+00  0.00000000E+00
  0.00000000E+00  0.00000000E+00  0.00000000E+00
  0.00000000E+00  0.00000000E+00  0.00000000E+00
  0.00000000E+00  0.00000000E+00  0.00000000E+00
  0.00000000E+00  0.00000000E+00  0.00000000E+00
  0.00000000E+00  0.00000000E+00  0.00000000E+00
  0.00000000E+00  0.00000000E+00  0.00000000E+00
  0.00000000E+00  0.00000000E+00  0.00000000E+00
  0.00000000E+00  0.00000000E+00  0.00000000E+00
  0.00000000E+00  0.00000000E+00  0.00000000E+00
  0.00000000E+00  0.00000000E+00  0.00000000E+00
  0.00000000E+00  0.00000000E+00  0.00000000E+00
  0.00000000E+00  0.00000000E+00  0.00000000E+00
  0.00000000E+00  0.00000000E+00  0.00000000E+00
  0.00000000E+00  0.00000000E+00  0.00000000E+00
