Nb  V                                   
    1.000000000000000     
    13.1810586665067255    0.2638113193644858    0.2591682986522565
     0.2638102235292279   13.1810784875602494   -0.2591531630661463
     0.2596264323565027   -0.2596120416397039   13.1870585457640956
   Nb   V 
   124     4
Direct
  0.3755654049166907  0.8756722508648838  0.6253011093214127
  0.1197267718766091  0.1272846923591424  0.6278349418203195
 -0.0044867776234991  0.0044870203399430  0.7490483364490893
  0.1219713688964641  0.3727588025398058  0.8731454288762905
 -0.0000754435728509  0.7501219022514367 -0.0001691643039311
  0.5007187172641774  0.4992800057782112  0.2488679720030151
  0.3748180251095625  0.1250805982715824  0.6252905652787552
  0.3753407715676040  0.1249882718415324  0.8747094154159962
  0.1243278685655485  0.6244345521042393  0.6252953775665412
  0.8735481319576811  0.3727772432319592  0.1225796603421413
  0.5003926535639841  0.7507130620099213  0.7498627954736889
  0.5023586040742837  0.2494148227742541 -0.0011650924328288
  0.5011447345190519  0.0002158584981707  0.5005511803893452
 -0.0003208979211936  0.2497067038175805  0.2503404431372315
  0.5007923695657269  0.0000052862048758 -0.0002820087640687
  0.2496864683440458  0.7503136339589001  0.7503807855915539
  0.5004215656856963  0.4995770439981466 -0.0006538034836770
  0.3756605930045780  0.3744633358543951  0.1243449484517637
  0.8752212238645664  0.3704850362443605  0.8741149079516185
  0.2501438534587009  0.4998232827599541  0.2499094016510669
  0.8734855045134111  0.8785026358246262  0.8730512901503059
  0.2496171815121992  0.2498122006913058  0.2498350177038065
  0.8749347430740008  0.1250652439654489  0.3769926665813301
  0.4997921923479602  0.5002073792093407  0.4991554427761434
  0.1223967828456992  0.3728107784123980  0.6267082666544327
  0.8750112945277879  0.6246592839487624  0.8747074220910730
  0.3757381335860012  0.1248331193414165  0.1248217129763361
  0.8748908613451882  0.8755317094858280  0.3762050352392659
  0.8749190757110726  0.6251814728419384  0.6252895217863483
 -0.0005659554539562  0.7510669086615063  0.5011502941713067
  0.7500243065133061  0.7511320384098628  0.5002897160893497
  0.1245670674683807  0.3746578025240884  0.3758972224773459
  0.7521329519293782  0.0025468428238818  0.5040578173061222
  0.2489512231332221  0.0002082806838574  0.7501960973939954
  0.2473324408646120  0.2495766527408770  0.7499350403486319
  0.5001767825238650  0.7498547023488250  0.2499157768280706
  0.1243128094081779  0.3745130587882571  0.1242765517873327
  0.6272226511130236  0.1264504983135104  0.1225867503402433
  0.7505846806851471  0.4976408341922089 -0.0011640625746706
  0.6253431095834602  0.8754317087403795  0.3759061416458255
  0.6278484132032407  0.3721520994365953  0.8755170022448778
  0.6295155571479852  0.1247784981747296  0.8741201082572668
  0.3751158199461650  0.6248839756635384  0.8746382439452151
  0.2488676604933626  0.2499757157273454  0.5002846388898763
  0.3756353586755602  0.8751245477624561  0.8752014580890051
  0.1240437934970319  0.1249970264156480  0.1244489904925619
  0.5003481182106014  0.4996512289808491  0.7496468067765530
 -0.0023999002706536  0.0024014555293863  0.5031204390889272
  0.2501074979379760  0.7498930535071074  0.4998947708625237
  0.2492866873834426  0.4996076471641543  0.7498555294739236
  0.3752772076214450  0.8748389967551856  0.3750932092005908
  0.6256881017652205  0.1249452688437944  0.3755336279212906
  0.1253580292840583  0.8746422328756541  0.1253740740030723
  0.2501859112846830  0.7498140315982132  0.2502261308788074
  0.8750035420458647  0.8759560579999651  0.1244530008456999
  0.6255360814607585  0.6243379615756798  0.1243488920445831
 -0.0002073252510753  0.7510496643968093  0.7501916599920438
  0.7501878408961286  0.7503815362252203  0.2498403456323145
  0.3741429788516204  0.3747110946791360  0.6244991180202181
 -0.0008659436465214  0.4977098986508207  0.7503149177516396
  0.5022914933057208  0.0008667149894661  0.7503213247296546
  0.7501280692338010  0.4991206675466304  0.5002824496027943
  0.5007053400260868  0.0000195509530889  0.2499323723878117
  0.6252169815817160  0.3747819560166746  0.3742704815213178
 -0.0006848805145931  0.0006855840917058 -0.0009937631376804
  0.8726608346956631  0.1273391733537707  0.8723296656878923
  0.8752205655886145  0.6249287918002981  0.3753568032655292
  0.1214987662499765  0.1265154708734496  0.8730487446818899
  0.7504608605476223  0.2495386656142776  0.2488821381769155
  0.6271906628527208  0.8776038049068330  0.6267200714855944
  0.5003235681890529  0.7503639395975712  0.4999907772538133
  0.3750704794248749  0.1247787391567992  0.3753582294106038
  0.1240703685478875  0.8759308458793275  0.8749347356335333
  0.5002809172145775  0.2498468994836336  0.2494931983431364
 -0.0021946456523457  0.2496037378231321 -0.0021651914177215
  0.6275764834507331  0.3724220634438652  0.1218845376859071
  0.3755000643947217  0.6244990745883574  0.1246448281404350
  0.8733155174845776  0.1266843946639104  0.1222717992019248
  0.2494382721496249  0.2498916134923428 -0.0002934768228975
  0.2498788848718631  0.0000757004358501 -0.0001668428952280
  0.1247798014450191  0.8752211008183046  0.3760354923132619
  0.7501314108460522  0.4992611552047951  0.7498147815675680
  0.5007844803747303  0.7500483264392804 -0.0005272047260461
  0.5007391264846286  0.2498682893740311  0.7498139537962971
  0.8761282674634673  0.3708143016373774  0.6277209508726297
  0.2489327199291750  0.0005671505209741  0.5011524955375838
 -0.0000056190432953  0.4992078837384322 -0.0002905889092761
  0.7517359821684886  0.2482645606395143  0.5025161689371160
  0.6272422356467940  0.8780284838711679  0.8731558934410603
  0.2496350187257066  0.4996764802448970  0.4999838746341727
  0.1253005860058171  0.6246316647607661  0.1251395339512277
  0.8727167818918288  0.8802740804095285  0.6278334591996177
  0.6249190615280689  0.6250488950661213  0.3744854361455788
  0.0004226654163786  0.7497844789069468  0.2504214135365384
  0.3749501241876465  0.3750803234252676  0.3744814786857625
  0.6252887866970572  0.6258565239759315  0.6245041587901672
 -0.0025466595026480  0.2478687256712628  0.5040502196205294
  0.3751615778914388  0.6248376372659951  0.3746697796806905
  0.3749803892384960  0.6250194804246678  0.6245742704088151
  0.6254880663011110  0.8756859653456320  0.1242854174758161
 -0.0003731583791512  0.0003738830937834  0.2507525325721728
  0.6291868099970148  0.1238711419560508  0.6277222406116958
  0.8751662009184713  0.6242616630737465  0.1248193990365752
  0.2503175612551140  0.7496825478453049  0.0002519696600134
  0.1248755530254366  0.6243650515600768  0.8751952457610725
  0.2502154597688693 -0.0004226112867647  0.2504230224289566
  0.8750532078459271  0.3743120407144486  0.3755289685559621
  0.7501519122889825  0.4997179974939629  0.2494928673687503
  0.5008784228234289  0.2498717554258945  0.5002824867212891
  0.3747672371808753  0.3747191634250261  0.8747121589791613
  0.7504244588464389  0.7526687625456716  0.7499389616939445
  0.3753686946625440  0.8746986884305377  0.1251452318291811
  0.1239360939150270  0.8760653458055717  0.6259093333548240
  0.7501093594631487  0.7505611689113143 -0.0002888975911850
 -0.0002174446174518  0.4988554511032050  0.5005441322130860
  0.7503971946390596  0.0021945800576367 -0.0021614615874932
  0.2499506796086587  0.4992156261724475 -0.0005342133510863
  0.6256382840778197  0.3743618649585715  0.6252694426801076
 -0.0000213697954235  0.4992947594383521  0.2499243510491540
  0.7502940089048070  0.0003200765976720  0.2503461140594871
  0.1251600505564991  0.6247232163032104  0.3750875131620354
  0.7537318658213474  0.2462671884019509  0.7490817256427863
  0.6252809812027037  0.6252314474310338  0.8747166222614328
  0.1244686046044066  0.1251094448152701  0.3762021096069847
  0.7524334572161380  0.0034888852617290  0.7485711061292042
  0.8745483257970007  0.1254539193944134  0.6302324194742371
  0.7505118920496294  0.2494878748362890 -0.0013713801556926
 -0.0034870259024366  0.2475676201678110  0.7485582430200928
 
  0.00000000E+00  0.00000000E+00  0.00000000E+00
  0.00000000E+00  0.00000000E+00  0.00000000E+00
  0.00000000E+00  0.00000000E+00  0.00000000E+00
  0.00000000E+00  0.00000000E+00  0.00000000E+00
  0.00000000E+00  0.00000000E+00  0.00000000E+00
  0.00000000E+00  0.00000000E+00  0.00000000E+00
  0.00000000E+00  0.00000000E+00  0.00000000E+00
  0.00000000E+00  0.00000000E+00  0.00000000E+00
  0.00000000E+00  0.00000000E+00  0.00000000E+00
  0.00000000E+00  0.00000000E+00  0.00000000E+00
  0.00000000E+00  0.00000000E+00  0.00000000E+00
  0.00000000E+00  0.00000000E+00  0.00000000E+00
  0.00000000E+00  0.00000000E+00  0.00000000E+00
  0.00000000E+00  0.00000000E+00  0.00000000E+00
  0.00000000E+00  0.00000000E+00  0.00000000E+00
  0.00000000E+00  0.00000000E+00  0.00000000E+00
  0.00000000E+00  0.00000000E+00  0.00000000E+00
  0.00000000E+00  0.00000000E+00  0.00000000E+00
  0.00000000E+00  0.00000000E+00  0.00000000E+00
  0.00000000E+00  0.00000000E+00  0.00000000E+00
  0.00000000E+00  0.00000000E+00  0.00000000E+00
  0.00000000E+00  0.00000000E+00  0.00000000E+00
  0.00000000E+00  0.00000000E+00  0.00000000E+00
  0.00000000E+00  0.00000000E+00  0.00000000E+00
  0.00000000E+00  0.00000000E+00  0.00000000E+00
  0.00000000E+00  0.00000000E+00  0.00000000E+00
  0.00000000E+00  0.00000000E+00  0.00000000E+00
  0.00000000E+00  0.00000000E+00  0.00000000E+00
  0.00000000E+00  0.00000000E+00  0.00000000E+00
  0.00000000E+00  0.00000000E+00  0.00000000E+00
  0.00000000E+00  0.00000000E+00  0.00000000E+00
  0.00000000E+00  0.00000000E+00  0.00000000E+00
  0.00000000E+00  0.00000000E+00  0.00000000E+00
  0.00000000E+00  0.00000000E+00  0.00000000E+00
  0.00000000E+00  0.00000000E+00  0.00000000E+00
  0.00000000E+00  0.00000000E+00  0.00000000E+00
  0.00000000E+00  0.00000000E+00  0.00000000E+00
  0.00000000E+00  0.00000000E+00  0.00000000E+00
  0.00000000E+00  0.00000000E+00  0.00000000E+00
  0.00000000E+00  0.00000000E+00  0.00000000E+00
  0.00000000E+00  0.00000000E+00  0.00000000E+00
  0.00000000E+00  0.00000000E+00  0.00000000E+00
  0.00000000E+00  0.00000000E+00  0.00000000E+00
  0.00000000E+00  0.00000000E+00  0.00000000E+00
  0.00000000E+00  0.00000000E+00  0.00000000E+00
  0.00000000E+00  0.00000000E+00  0.00000000E+00
  0.00000000E+00  0.00000000E+00  0.00000000E+00
  0.00000000E+00  0.00000000E+00  0.00000000E+00
  0.00000000E+00  0.00000000E+00  0.00000000E+00
  0.00000000E+00  0.00000000E+00  0.00000000E+00
  0.00000000E+00  0.00000000E+00  0.00000000E+00
  0.00000000E+00  0.00000000E+00  0.00000000E+00
  0.00000000E+00  0.00000000E+00  0.00000000E+00
  0.00000000E+00  0.00000000E+00  0.00000000E+00
  0.00000000E+00  0.00000000E+00  0.00000000E+00
  0.00000000E+00  0.00000000E+00  0.00000000E+00
  0.00000000E+00  0.00000000E+00  0.00000000E+00
  0.00000000E+00  0.00000000E+00  0.00000000E+00
  0.00000000E+00  0.00000000E+00  0.00000000E+00
  0.00000000E+00  0.00000000E+00  0.00000000E+00
  0.00000000E+00  0.00000000E+00  0.00000000E+00
  0.00000000E+00  0.00000000E+00  0.00000000E+00
  0.00000000E+00  0.00000000E+00  0.00000000E+00
  0.00000000E+00  0.00000000E+00  0.00000000E+00
  0.00000000E+00  0.00000000E+00  0.00000000E+00
  0.00000000E+00  0.00000000E+00  0.00000000E+00
  0.00000000E+00  0.00000000E+00  0.00000000E+00
  0.00000000E+00  0.00000000E+00  0.00000000E+00
  0.00000000E+00  0.00000000E+00  0.00000000E+00
  0.00000000E+00  0.00000000E+00  0.00000000E+00
  0.00000000E+00  0.00000000E+00  0.00000000E+00
  0.00000000E+00  0.00000000E+00  0.00000000E+00
  0.00000000E+00  0.00000000E+00  0.00000000E+00
  0.00000000E+00  0.00000000E+00  0.00000000E+00
  0.00000000E+00  0.00000000E+00  0.00000000E+00
  0.00000000E+00  0.00000000E+00  0.00000000E+00
  0.00000000E+00  0.00000000E+00  0.00000000E+00
  0.00000000E+00  0.00000000E+00  0.00000000E+00
  0.00000000E+00  0.00000000E+00  0.00000000E+00
  0.00000000E+00  0.00000000E+00  0.00000000E+00
  0.00000000E+00  0.00000000E+00  0.00000000E+00
  0.00000000E+00  0.00000000E+00  0.00000000E+00
  0.00000000E+00  0.00000000E+00  0.00000000E+00
  0.00000000E+00  0.00000000E+00  0.00000000E+00
  0.00000000E+00  0.00000000E+00  0.00000000E+00
  0.00000000E+00  0.00000000E+00  0.00000000E+00
  0.00000000E+00  0.00000000E+00  0.00000000E+00
  0.00000000E+00  0.00000000E+00  0.00000000E+00
  0.00000000E+00  0.00000000E+00  0.00000000E+00
  0.00000000E+00  0.00000000E+00  0.00000000E+00
  0.00000000E+00  0.00000000E+00  0.00000000E+00
  0.00000000E+00  0.00000000E+00  0.00000000E+00
  0.00000000E+00  0.00000000E+00  0.00000000E+00
  0.00000000E+00  0.00000000E+00  0.00000000E+00
  0.00000000E+00  0.00000000E+00  0.00000000E+00
  0.00000000E+00  0.00000000E+00  0.00000000E+00
  0.00000000E+00  0.00000000E+00  0.00000000E+00
  0.00000000E+00  0.00000000E+00  0.00000000E+00
  0.00000000E+00  0.00000000E+00  0.00000000E+00
  0.00000000E+00  0.00000000E+00  0.00000000E+00
  0.00000000E+00  0.00000000E+00  0.00000000E+00
  0.00000000E+00  0.00000000E+00  0.00000000E+00
  0.00000000E+00  0.00000000E+00  0.00000000E+00
  0.00000000E+00  0.00000000E+00  0.00000000E+00
  0.00000000E+00  0.00000000E+00  0.00000000E+00
  0.00000000E+00  0.00000000E+00  0.00000000E+00
  0.00000000E+00  0.00000000E+00  0.00000000E+00
  0.00000000E+00  0.00000000E+00  0.00000000E+00
  0.00000000E+00  0.00000000E+00  0.00000000E+00
  0.00000000E+00  0.00000000E+00  0.00000000E+00
  0.00000000E+00  0.00000000E+00  0.00000000E+00
  0.00000000E+00  0.00000000E+00  0.00000000E+00
  0.00000000E+00  0.00000000E+00  0.00000000E+00
  0.00000000E+00  0.00000000E+00  0.00000000E+00
  0.00000000E+00  0.00000000E+00  0.00000000E+00
  0.00000000E+00  0.00000000E+00  0.00000000E+00
  0.00000000E+00  0.00000000E+00  0.00000000E+00
  0.00000000E+00  0.00000000E+00  0.00000000E+00
  0.00000000E+00  0.00000000E+00  0.00000000E+00
  0.00000000E+00  0.00000000E+00  0.00000000E+00
  0.00000000E+00  0.00000000E+00  0.00000000E+00
  0.00000000E+00  0.00000000E+00  0.00000000E+00
  0.00000000E+00  0.00000000E+00  0.00000000E+00
  0.00000000E+00  0.00000000E+00  0.00000000E+00
  0.00000000E+00  0.00000000E+00  0.00000000E+00
  0.00000000E+00  0.00000000E+00  0.00000000E+00
  0.00000000E+00  0.00000000E+00  0.00000000E+00
  0.00000000E+00  0.00000000E+00  0.00000000E+00
