Hf Nb                                   
    1.000000000000000     
    11.5508232576559511    1.1901067968102783    0.1309253507499878
    -4.8090551687207679   10.3208637192143602    0.1015937741606119
    -0.1938559128385377   -0.2164539726865346   18.9622425745465861
  Hf             Nb           
              16             112
Direct
  0.4449302458992265  0.8050579691848018  0.1858623660731418
  0.5595199750250042  0.6852286830907355  0.5651484683202895
  0.9407545527380002  0.3133939941213403  0.9319555950558983
  0.1863283624922307  0.0633646693484536  0.4361369098478858
  0.8096301939481457  0.1879645510122921  0.0635987438356804
  0.9360547183644040  0.3133573873675976  0.6860736072262200
  0.6923812994463214  0.5644207497472448  0.1867692139582734
  0.6835356626967667  0.5604858748276826  0.9366791949654839
  0.0649901846744881  0.1863577541154585  0.3124176720964624
  0.4390090464308379  0.3145181118863781  0.9350813298241774
  0.5658336179494553  0.4364745866088946  0.3186164043792828
  0.3165587488884505  0.4419621455128832  0.5642853116615397
  0.1861647160189537  0.8149383961760026  0.1870801456727613
  0.3035864196833070  0.4338428459781977  0.3125425343375782
  0.4357826197192877  0.0673708636568530  0.1866247139543926
  0.8123595923496200  0.4352641075992034  0.5653840338845110
  0.3126774161140715  0.4363403193120319  0.8135924826208031
  0.1896962047055225  0.5632833404551271  0.4380906933046578
  0.4368652818728051  0.8113122833757453  0.9371669333734887
  0.3127151231931977  0.4369782667564195  0.0578791629178083
  0.6860809850114992  0.3126196348332748  0.4360544147108023
  0.0624958857141110  0.6900365304852596  0.8122841551951668
  0.1884193685289098  0.0641727375868367  0.9354315259971546
  0.4394959041824748  0.3217485934522816  0.1847140565517578
  0.8099905055416092  0.1767720169939326  0.5608659216476877
  0.5647301210006249  0.4368544489873765  0.8055897308084248
  0.1853731953459523  0.5607196991787026  0.9363745347210060
  0.6894577966003914  0.5678795356349995  0.4437146375185966
  0.3123788988425181  0.6906034456412495  0.8112433548357156
  0.9406721194831552  0.5724761712572765  0.6906428126263124
  0.3078917921571669  0.6983446111296446  0.5664278065811094
  0.5650659306960359  0.9435965871785919  0.0602459535367081
  0.8147165333214903  0.6886399886924104  0.8098780980441885
  0.3097329283156559  0.1827806913221755  0.0623911071036372
  0.9433479123815327  0.5714038884802604  0.9361630775761874
  0.5630651707028409  0.1871797290784007  0.5631674315512715
  0.1898056415752961  0.8138968419231924  0.6890585829139436
  0.5691548052883605  0.1832129703796385  0.3154386003196544
  0.8163238451625833  0.4387368621705547  0.3115519852330809
  0.3116583951697257  0.9388967362906875  0.5637440029876655
  0.8132386583909742  0.9361668286788858  0.8127800477565656
  0.6887332443171219  0.0558211106633218  0.1901559059027990
  0.0618486379150820  0.9273683329829863  0.3092679746387372
  0.8200354928801337  0.6925589018531748  0.0614587878820992
  0.3095507337665093  0.1813180629733573  0.8090380796950114
  0.6784227519677952  0.3076605212819303  0.6912895261006228
  0.1915244382928309  0.5587348746581006  0.1871533186390982
  0.8177290399332037  0.9398623949726993  0.3131955349998723
  0.0585877409205665  0.1887792775633666  0.8115649105037682
  0.6873827138188660  0.8149905940731530  0.6918316702735917
  0.0603468956358521  0.6883896278732066  0.5637188477602681
  0.4273414615569622  0.3064890138000226  0.4409993855222355
  0.4362272177635307  0.5636263357174631  0.6953745724220496
  0.5601076363361666  0.9430156583022457  0.5665475774367906
  0.8118825920980295  0.4450438462874428  0.0600704374289112
  0.9456903745592873  0.5629171680670101  0.1861467339973722
  0.9358946846583017  0.3126176539008507  0.4376658574669309
  0.6899965885179049  0.0627574109582649  0.6886966924356919
  0.0600905380047128  0.4387488702503244  0.0624110216598777
  0.5610190223599431  0.4330441349226620  0.0643862204907789
  0.8030353470542394  0.1796210566895739  0.8103448205080280
  0.4350635717692106  0.5543575510917037  0.1837468632007109
  0.9397729380592729  0.3151704184423670  0.1887956331720545
  0.1798814482561627  0.0703653014917199  0.1878128764545875
  0.0655540686804579  0.4439430379559996  0.5586386493211216
  0.5628431571190539  0.6939056936768453  0.3109156414320551
  0.9394267960027668  0.0557514083801575  0.9362033625663480
  0.0644671346417583  0.9368793389252005  0.8117291177428191
  0.5608268686711692  0.4251117748578196  0.5625687765633982
  0.1878802816833347  0.3114134142311639  0.9343252253998706
  0.5597782091799095  0.1855133453572045  0.8133750087027032
  0.6874779709400736  0.0586745784160653  0.9345590606795250
  0.3269561442136028  0.1847158476012212  0.3088007088914973
  0.1870918069142156  0.8057495151759537  0.4405843985479597
  0.0599325042306950  0.6865645247280371  0.3146667425156162
  0.6904423380802377  0.3048734031026666  0.1863881965855590
  0.3097593079931758  0.6935895951760888  0.3153984045649106
  0.3077458598638140  0.6871176320997054  0.0595761042049295
  0.1771136017197939  0.3170995702214065  0.4426088817975962
  0.3128571673360429  0.1811551241651244  0.5668962546920181
  0.5592547873402726  0.9353855996892573  0.8105460979205585
  0.5569339179351869  0.1897301138506501  0.0567394089512521
  0.0629064810522951  0.1881290555237111  0.5639940829297778
  0.6891519461781744  0.0605360523349820  0.4391667708022340
  0.4430354483304716  0.0603706916897521  0.4401595256785147
  0.5654882764973344  0.9390238469882340  0.3160756970712708
  0.5630431444563048  0.6873053914361111  0.0622102695595706
  0.8131189805783354  0.4371220410096274  0.8132704659360971
  0.4350354790812797  0.3116321623822513  0.6874991625819890
  0.5646740547829354  0.6865322652686260  0.8143386974237969
  0.6874968525470014  0.5626521102169346  0.6865876665093688
  0.8181884366198938  0.6942155182738726  0.5641898101678645
  0.0623485919820685  0.9353230430808358  0.5655050719962595
  0.0682866735251496  0.4485937573814964  0.8093647182244320
  0.9378634591133146  0.0573006332652828  0.6882600651296505
  0.4394257736435723  0.8119149899016027  0.6888372128011137
  0.0630431722215036  0.6870980110596987  0.0592961374187777
  0.3131899620927336  0.9360240358234689  0.0576155144116909
  0.4454079199502712  0.5670283255838562  0.4334003536317970
  0.4407226274841848  0.8115598408218957  0.4405965940198712
  0.9308440371829659  0.0616444190375279  0.4406481849163162
  0.9394326220028918  0.8173436969100273  0.4383409610010100
  0.1869512431051014  0.5596372195428587  0.6875787516388369
  0.6906361717527701  0.8147775783029281  0.4376348481702288
  0.1853357683118693  0.3135846038166858  0.1803396749231057
  0.8120791081273421  0.6868958768025236  0.3170548008711509
  0.1873948930505249  0.8138139708877352  0.9350195121873862
  0.8099685144060710  0.9348981428486615  0.5644892242121878
  0.8105604203037372  0.1894784120544674  0.3136035079925241
  0.9367177182656524  0.5660104114776311  0.4372149099399949
  0.3119395326675269  0.9371103459265347  0.3187001665222547
  0.3110892089561814  0.9366980840135444  0.8117730959664932
  0.9358147498413913  0.8129151833880135  0.9361899618320981
  0.6860067793770948  0.8172104091910070  0.9371857306629869
  0.1854466945890669  0.0622634268548231  0.6886448360571432
  0.6871225885842023  0.3019493662210604  0.9379474057085745
  0.0541774771311488  0.4433657287789302  0.3135657912073027
  0.6966065072986966  0.8192294553735989  0.1879905030006233
  0.1891003079023325  0.3088459976101846  0.6913895644630192
  0.0658441645769904  0.9372022567107443  0.0613757202928682
  0.9312332545466731  0.8109298364632264  0.1871482648387774
  0.9361618265563731  0.0643121628745879  0.1829930717655394
  0.4359713438416059  0.0592651490203165  0.6893697914526304
  0.4340424644030968  0.0539781312751269  0.9349461216485805
  0.9367039670803969  0.8142373685927012  0.6884365526061623
  0.8146956494808212  0.9328850791316214  0.0609680269032560
  0.4312122678406379  0.5703987567163934  0.9364926581657150
  0.0655068780698610  0.1876709201979178  0.0576498995605438
 
  0.00000000E+00  0.00000000E+00  0.00000000E+00
  0.00000000E+00  0.00000000E+00  0.00000000E+00
  0.00000000E+00  0.00000000E+00  0.00000000E+00
  0.00000000E+00  0.00000000E+00  0.00000000E+00
  0.00000000E+00  0.00000000E+00  0.00000000E+00
  0.00000000E+00  0.00000000E+00  0.00000000E+00
  0.00000000E+00  0.00000000E+00  0.00000000E+00
  0.00000000E+00  0.00000000E+00  0.00000000E+00
  0.00000000E+00  0.00000000E+00  0.00000000E+00
  0.00000000E+00  0.00000000E+00  0.00000000E+00
  0.00000000E+00  0.00000000E+00  0.00000000E+00
  0.00000000E+00  0.00000000E+00  0.00000000E+00
  0.00000000E+00  0.00000000E+00  0.00000000E+00
  0.00000000E+00  0.00000000E+00  0.00000000E+00
  0.00000000E+00  0.00000000E+00  0.00000000E+00
  0.00000000E+00  0.00000000E+00  0.00000000E+00
  0.00000000E+00  0.00000000E+00  0.00000000E+00
  0.00000000E+00  0.00000000E+00  0.00000000E+00
  0.00000000E+00  0.00000000E+00  0.00000000E+00
  0.00000000E+00  0.00000000E+00  0.00000000E+00
  0.00000000E+00  0.00000000E+00  0.00000000E+00
  0.00000000E+00  0.00000000E+00  0.00000000E+00
  0.00000000E+00  0.00000000E+00  0.00000000E+00
  0.00000000E+00  0.00000000E+00  0.00000000E+00
  0.00000000E+00  0.00000000E+00  0.00000000E+00
  0.00000000E+00  0.00000000E+00  0.00000000E+00
  0.00000000E+00  0.00000000E+00  0.00000000E+00
  0.00000000E+00  0.00000000E+00  0.00000000E+00
  0.00000000E+00  0.00000000E+00  0.00000000E+00
  0.00000000E+00  0.00000000E+00  0.00000000E+00
  0.00000000E+00  0.00000000E+00  0.00000000E+00
  0.00000000E+00  0.00000000E+00  0.00000000E+00
  0.00000000E+00  0.00000000E+00  0.00000000E+00
  0.00000000E+00  0.00000000E+00  0.00000000E+00
  0.00000000E+00  0.00000000E+00  0.00000000E+00
  0.00000000E+00  0.00000000E+00  0.00000000E+00
  0.00000000E+00  0.00000000E+00  0.00000000E+00
  0.00000000E+00  0.00000000E+00  0.00000000E+00
  0.00000000E+00  0.00000000E+00  0.00000000E+00
  0.00000000E+00  0.00000000E+00  0.00000000E+00
  0.00000000E+00  0.00000000E+00  0.00000000E+00
  0.00000000E+00  0.00000000E+00  0.00000000E+00
  0.00000000E+00  0.00000000E+00  0.00000000E+00
  0.00000000E+00  0.00000000E+00  0.00000000E+00
  0.00000000E+00  0.00000000E+00  0.00000000E+00
  0.00000000E+00  0.00000000E+00  0.00000000E+00
  0.00000000E+00  0.00000000E+00  0.00000000E+00
  0.00000000E+00  0.00000000E+00  0.00000000E+00
  0.00000000E+00  0.00000000E+00  0.00000000E+00
  0.00000000E+00  0.00000000E+00  0.00000000E+00
  0.00000000E+00  0.00000000E+00  0.00000000E+00
  0.00000000E+00  0.00000000E+00  0.00000000E+00
  0.00000000E+00  0.00000000E+00  0.00000000E+00
  0.00000000E+00  0.00000000E+00  0.00000000E+00
  0.00000000E+00  0.00000000E+00  0.00000000E+00
  0.00000000E+00  0.00000000E+00  0.00000000E+00
  0.00000000E+00  0.00000000E+00  0.00000000E+00
  0.00000000E+00  0.00000000E+00  0.00000000E+00
  0.00000000E+00  0.00000000E+00  0.00000000E+00
  0.00000000E+00  0.00000000E+00  0.00000000E+00
  0.00000000E+00  0.00000000E+00  0.00000000E+00
  0.00000000E+00  0.00000000E+00  0.00000000E+00
  0.00000000E+00  0.00000000E+00  0.00000000E+00
  0.00000000E+00  0.00000000E+00  0.00000000E+00
  0.00000000E+00  0.00000000E+00  0.00000000E+00
  0.00000000E+00  0.00000000E+00  0.00000000E+00
  0.00000000E+00  0.00000000E+00  0.00000000E+00
  0.00000000E+00  0.00000000E+00  0.00000000E+00
  0.00000000E+00  0.00000000E+00  0.00000000E+00
  0.00000000E+00  0.00000000E+00  0.00000000E+00
  0.00000000E+00  0.00000000E+00  0.00000000E+00
  0.00000000E+00  0.00000000E+00  0.00000000E+00
  0.00000000E+00  0.00000000E+00  0.00000000E+00
  0.00000000E+00  0.00000000E+00  0.00000000E+00
  0.00000000E+00  0.00000000E+00  0.00000000E+00
  0.00000000E+00  0.00000000E+00  0.00000000E+00
  0.00000000E+00  0.00000000E+00  0.00000000E+00
  0.00000000E+00  0.00000000E+00  0.00000000E+00
  0.00000000E+00  0.00000000E+00  0.00000000E+00
  0.00000000E+00  0.00000000E+00  0.00000000E+00
  0.00000000E+00  0.00000000E+00  0.00000000E+00
  0.00000000E+00  0.00000000E+00  0.00000000E+00
  0.00000000E+00  0.00000000E+00  0.00000000E+00
  0.00000000E+00  0.00000000E+00  0.00000000E+00
  0.00000000E+00  0.00000000E+00  0.00000000E+00
  0.00000000E+00  0.00000000E+00  0.00000000E+00
  0.00000000E+00  0.00000000E+00  0.00000000E+00
  0.00000000E+00  0.00000000E+00  0.00000000E+00
  0.00000000E+00  0.00000000E+00  0.00000000E+00
  0.00000000E+00  0.00000000E+00  0.00000000E+00
  0.00000000E+00  0.00000000E+00  0.00000000E+00
  0.00000000E+00  0.00000000E+00  0.00000000E+00
  0.00000000E+00  0.00000000E+00  0.00000000E+00
  0.00000000E+00  0.00000000E+00  0.00000000E+00
  0.00000000E+00  0.00000000E+00  0.00000000E+00
  0.00000000E+00  0.00000000E+00  0.00000000E+00
  0.00000000E+00  0.00000000E+00  0.00000000E+00
  0.00000000E+00  0.00000000E+00  0.00000000E+00
  0.00000000E+00  0.00000000E+00  0.00000000E+00
  0.00000000E+00  0.00000000E+00  0.00000000E+00
  0.00000000E+00  0.00000000E+00  0.00000000E+00
  0.00000000E+00  0.00000000E+00  0.00000000E+00
  0.00000000E+00  0.00000000E+00  0.00000000E+00
  0.00000000E+00  0.00000000E+00  0.00000000E+00
  0.00000000E+00  0.00000000E+00  0.00000000E+00
  0.00000000E+00  0.00000000E+00  0.00000000E+00
  0.00000000E+00  0.00000000E+00  0.00000000E+00
  0.00000000E+00  0.00000000E+00  0.00000000E+00
  0.00000000E+00  0.00000000E+00  0.00000000E+00
  0.00000000E+00  0.00000000E+00  0.00000000E+00
  0.00000000E+00  0.00000000E+00  0.00000000E+00
  0.00000000E+00  0.00000000E+00  0.00000000E+00
  0.00000000E+00  0.00000000E+00  0.00000000E+00
  0.00000000E+00  0.00000000E+00  0.00000000E+00
  0.00000000E+00  0.00000000E+00  0.00000000E+00
  0.00000000E+00  0.00000000E+00  0.00000000E+00
  0.00000000E+00  0.00000000E+00  0.00000000E+00
  0.00000000E+00  0.00000000E+00  0.00000000E+00
  0.00000000E+00  0.00000000E+00  0.00000000E+00
  0.00000000E+00  0.00000000E+00  0.00000000E+00
  0.00000000E+00  0.00000000E+00  0.00000000E+00
  0.00000000E+00  0.00000000E+00  0.00000000E+00
  0.00000000E+00  0.00000000E+00  0.00000000E+00
  0.00000000E+00  0.00000000E+00  0.00000000E+00
  0.00000000E+00  0.00000000E+00  0.00000000E+00
  0.00000000E+00  0.00000000E+00  0.00000000E+00
  0.00000000E+00  0.00000000E+00  0.00000000E+00
  0.00000000E+00  0.00000000E+00  0.00000000E+00
