Hf Ta                                   
    1.000000000000000     
    12.7030037422102531   -0.0874579054322654   -0.0061607523065606
    -6.4272019276343881   11.0017777051008743    0.0002005811623530
    -0.0097776850863011   -0.0053477627132785   20.1621626166676506
  Hf             Ta           
             112              16
Direct
  0.3356100648414924  0.1655732181879062  0.5629873152139433
  0.8349408183569104  0.4206263305983380  0.5606516653104637
  0.8364866753463985  0.1714030441086601  0.5593609926771375
  0.4182669881512108  0.0818312995388751  0.6880646285079064
  0.8324961871273675  0.1640960543403785  0.8130010141160140
  0.0847185519309946  0.9208377632485771  0.5622297466952005
  0.6644699994340399  0.8351523899209115  0.6860490162054615
  0.6711911007827648  0.8391331210126526  0.9382654601165995
  0.0793951165280223  0.4092120291722823  0.5622754317861243
  0.8351248194765365  0.9199991125511884  0.5626156341799007
  0.0880024504642862  0.9166421117356340  0.3130481895403737
  0.3341984634215153  0.4149439264251079  0.0618599973405916
  0.5891563891660774  0.6699926072964304  0.0614716552947806
  0.3332568710879977  0.6670517599822519  0.8129560285635375
  0.4123715356201773  0.0809855314299745  0.4367647426706012
  0.1647300522236127  0.8333868351454574  0.9377879744337915
  0.4171817476947259  0.5840293808328177  0.9370608134998474
  0.5846775550843314  0.4197203052514784  0.8105884898883723
  0.3295318612980051  0.9067899472700903  0.3111326192008384
  0.6684288012832877  0.0876857570579508  0.4373136515272776
  0.9230843213656317  0.0862373153250598  0.4389439233120104
  0.3358257534105261  0.9189420270327350  0.8139135333833654
  0.1638019129564030  0.0832531334967952  0.6868861934029102
  0.1624279272177208  0.3287152406116794  0.6862372628305267
  0.6664702127294198  0.3382380873051210  0.4388399240583331
  0.8469468385050842  0.1789707775602590  0.3152816011679556
  0.9163058498390487  0.8350075231087207  0.4376721358921337
  0.4150917363957353  0.3314186034443423  0.1879772094919049
  0.4210792971544348  0.8358103338414909  0.6864777744053541
  0.1664895124860150  0.0807721097840266  0.9365737736955133
  0.0807216352445348  0.1647518256029046  0.8136444045696745
  0.8333924097431027  0.6644270361890848  0.8130302138563507
  0.0822406376011314  0.6646000676320895  0.8132026927516367
  0.0872905419512728  0.1650127002991001  0.3129295704394089
  0.4192841745234100  0.3366100461113627  0.6862016959572518
  0.3373363086192248  0.1653204339401691  0.8130177412491422
  0.6699278434925620  0.0882049543723039  0.1900133434817833
  0.9088314976557085  0.8283106462581031  0.6863741635774687
  0.4171421369397406  0.8366024267695893  0.9385690528977541
  0.1638202415371400  0.3318462048194175  0.9374039532787259
  0.4163566756342148  0.5849942154436941  0.1876240621145766
  0.5896191325014496  0.9189483323224705  0.0643417322743756
  0.4110051377960519  0.8279813361475720  0.1884914858561821
  0.6647701210485586  0.5804571749973805  0.4385625939059172
  0.0813221372683913  0.6667490796597719  0.5619846808814644
  0.0833916202278045  0.9149004327227025  0.0636422803384293
  0.8344311839274791  0.6665405588695378  0.0620042768107997
  0.5843314764775288  0.4167541798065305  0.0630539066435361
  0.5834188701062087  0.6637737332689673  0.5628349723425833
  0.4150217034612622  0.0801370244650378  0.1879002353583279
  0.5879978417061661  0.6672546149443576  0.8112876330338279
  0.5856351153448894  0.1655615825608918  0.5627395154352196
  0.8353301879246919  0.6655792328167094  0.3139409594831116
  0.0790693869615767  0.1605666537232288  0.0613303774054881
  0.1538958514683458  0.3306780022238127  0.4355542737203141
  0.8319224787835108  0.9168071173918838  0.3133004566014204
  0.8362047061333426  0.4200081170200355  0.8162195927858474
  0.1663431947142158  0.8330345680007770  0.6869560765989906
  0.1643710624968550  0.8349124570036034  0.4382569242210200
  0.9188279842061086  0.5883912180659910  0.1870207515828941
  0.8338601536039060  0.4161923974959439  0.0618985826318797
  0.5822279856638272  0.4157818007403630  0.3136467471013896
  0.9167301071282442  0.8367126029473929  0.9381933026781593
  0.5857345808010070  0.1660423223115047  0.8111421771167678
  0.8416909308826381  0.4212761837636801  0.3141550711164560
  0.1604127658693684  0.5803851015782939  0.9377793665084032
  0.6655143212431135  0.5839202799847280  0.1888370872232856
  0.1603091169673856  0.5825891825069988  0.4379735237489180
  0.8380148596778871  0.9205450762872576  0.8136101561402506
  0.5844066102308503  0.9166560662109530  0.8111239286368377
  0.6656433584814608  0.8367291374410323  0.4396975243469232
  0.0831631865237231  0.6671878995280066  0.0625016060846867
  0.9052036662792957  0.3293000652523177  0.6870764971986693
  0.1653866812318213  0.5826863339515270  0.6857523479938976
  0.9134132222974420  0.3277840085540124  0.9390305895584774
  0.6688825920682189  0.5828977957263882  0.9369338478173067
  0.6662776951266763  0.3353730165330884  0.1886569941630087
  0.6656608082021880  0.0864165044649360  0.9367475090549082
  0.5859142790437548  0.1656287032244476  0.0623087209445465
  0.6630586160442949  0.3332996863301250  0.9373276384157386
  0.0837645148956520  0.4158521926352305  0.8112801462606651
  0.5826285069521918  0.9134519192324349  0.3127358303917037
  0.9133962661761509  0.0814919532073391  0.1861338664770966
  0.9127581330402250  0.5819711068715272  0.6882686798807909
  0.5813381688939409  0.6680312930839373  0.3134304921589059
  0.0834374864284560  0.9135776389231441  0.8111093676463997
  0.0864418766257428  0.6646828864163263  0.3132604578501291
  0.1680912972405609  0.0806211093630608  0.1878290515657765
  0.6696482680407853  0.8345237257429873  0.1864733334927427
  0.3312538929484072  0.1630361956362757  0.3138386050901893
  0.1679865786348331  0.5849682819828156  0.1886771737704326
  0.4122380819312944  0.3303027748894848  0.4384339384277360
  0.3363771443444823  0.1647425999358480  0.0615150122032253
  0.4157648314655759  0.8307044209343688  0.4369094406233722
  0.3388165655700041  0.6689247375782708  0.5626577869854775
  0.3329714991175950  0.4169589392824726  0.3122946080284525
  0.0806731501040709  0.4100546939829064  0.0628018095402673
  0.9189975931701090  0.3342652131862943  0.1882798761069038
  0.3351796844540432  0.6655805613595025  0.0616325834131480
  0.1663250943982995  0.3336296957078675  0.1871179988208610
  0.9161374076560191  0.0852012289452327  0.6860438000037490
  0.4155817039367943  0.5807786134381709  0.6882260744397314
  0.3312545837415261  0.4135874840651362  0.5612467451492912
  0.9165095510561874  0.8359153141801013  0.1881575013909375
  0.4154299383829782  0.3310804255642592  0.9372834543956737
  0.6645204136235775  0.3390020747257006  0.6860423079728302
  0.8287541491855961  0.6618331321138414  0.5618048921661681
  0.4111460183954792  0.5817981344936469  0.4369802387134906
  0.5845171681654785  0.1676833497069674  0.3135073051613925
  0.3372973267443284  0.9164971423610984  0.5622633886537631
  0.3316462099895923  0.4143520374825216  0.8125086040936811
  0.3333208303982233  0.9169893355045964  0.0627593585081856
  0.8355635611579504  0.1512692663132150  0.0613520440800850
  0.9179854260208015  0.3537346814890594  0.4368561406196214
  0.0944213144404738  0.4166975458432607  0.3092981308561976
  0.9089652441837600  0.0851484046529487  0.9393279159094464
  0.4154568805865455  0.0847588241415744  0.9378263292279889
  0.1622338507261362  0.8365069408935963  0.1868630372792267
  0.3289531365786736  0.6535948570969862  0.3137112743928127
  0.9165747178323151  0.5866796466344621  0.9388344444640100
  0.5800239994775163  0.4201034538338468  0.5630710855285862
  0.9193442912145267  0.5891932787661278  0.4376960416524172
  0.0932498045543021  0.1638062082675241  0.5615145095103705
  0.5916578815683871  0.9288396325367034  0.5619255091791754
  0.6630939354833782  0.0742463895194729  0.6832587988753054
  0.1624870802937519  0.0897681112671424  0.4406940063803081
  0.6608082158720062  0.5776841274424117  0.6847050055553208
  0.8384593280580963  0.9223014518692221  0.0614467607631505
 
  0.00000000E+00  0.00000000E+00  0.00000000E+00
  0.00000000E+00  0.00000000E+00  0.00000000E+00
  0.00000000E+00  0.00000000E+00  0.00000000E+00
  0.00000000E+00  0.00000000E+00  0.00000000E+00
  0.00000000E+00  0.00000000E+00  0.00000000E+00
  0.00000000E+00  0.00000000E+00  0.00000000E+00
  0.00000000E+00  0.00000000E+00  0.00000000E+00
  0.00000000E+00  0.00000000E+00  0.00000000E+00
  0.00000000E+00  0.00000000E+00  0.00000000E+00
  0.00000000E+00  0.00000000E+00  0.00000000E+00
  0.00000000E+00  0.00000000E+00  0.00000000E+00
  0.00000000E+00  0.00000000E+00  0.00000000E+00
  0.00000000E+00  0.00000000E+00  0.00000000E+00
  0.00000000E+00  0.00000000E+00  0.00000000E+00
  0.00000000E+00  0.00000000E+00  0.00000000E+00
  0.00000000E+00  0.00000000E+00  0.00000000E+00
  0.00000000E+00  0.00000000E+00  0.00000000E+00
  0.00000000E+00  0.00000000E+00  0.00000000E+00
  0.00000000E+00  0.00000000E+00  0.00000000E+00
  0.00000000E+00  0.00000000E+00  0.00000000E+00
  0.00000000E+00  0.00000000E+00  0.00000000E+00
  0.00000000E+00  0.00000000E+00  0.00000000E+00
  0.00000000E+00  0.00000000E+00  0.00000000E+00
  0.00000000E+00  0.00000000E+00  0.00000000E+00
  0.00000000E+00  0.00000000E+00  0.00000000E+00
  0.00000000E+00  0.00000000E+00  0.00000000E+00
  0.00000000E+00  0.00000000E+00  0.00000000E+00
  0.00000000E+00  0.00000000E+00  0.00000000E+00
  0.00000000E+00  0.00000000E+00  0.00000000E+00
  0.00000000E+00  0.00000000E+00  0.00000000E+00
  0.00000000E+00  0.00000000E+00  0.00000000E+00
  0.00000000E+00  0.00000000E+00  0.00000000E+00
  0.00000000E+00  0.00000000E+00  0.00000000E+00
  0.00000000E+00  0.00000000E+00  0.00000000E+00
  0.00000000E+00  0.00000000E+00  0.00000000E+00
  0.00000000E+00  0.00000000E+00  0.00000000E+00
  0.00000000E+00  0.00000000E+00  0.00000000E+00
  0.00000000E+00  0.00000000E+00  0.00000000E+00
  0.00000000E+00  0.00000000E+00  0.00000000E+00
  0.00000000E+00  0.00000000E+00  0.00000000E+00
  0.00000000E+00  0.00000000E+00  0.00000000E+00
  0.00000000E+00  0.00000000E+00  0.00000000E+00
  0.00000000E+00  0.00000000E+00  0.00000000E+00
  0.00000000E+00  0.00000000E+00  0.00000000E+00
  0.00000000E+00  0.00000000E+00  0.00000000E+00
  0.00000000E+00  0.00000000E+00  0.00000000E+00
  0.00000000E+00  0.00000000E+00  0.00000000E+00
  0.00000000E+00  0.00000000E+00  0.00000000E+00
  0.00000000E+00  0.00000000E+00  0.00000000E+00
  0.00000000E+00  0.00000000E+00  0.00000000E+00
  0.00000000E+00  0.00000000E+00  0.00000000E+00
  0.00000000E+00  0.00000000E+00  0.00000000E+00
  0.00000000E+00  0.00000000E+00  0.00000000E+00
  0.00000000E+00  0.00000000E+00  0.00000000E+00
  0.00000000E+00  0.00000000E+00  0.00000000E+00
  0.00000000E+00  0.00000000E+00  0.00000000E+00
  0.00000000E+00  0.00000000E+00  0.00000000E+00
  0.00000000E+00  0.00000000E+00  0.00000000E+00
  0.00000000E+00  0.00000000E+00  0.00000000E+00
  0.00000000E+00  0.00000000E+00  0.00000000E+00
  0.00000000E+00  0.00000000E+00  0.00000000E+00
  0.00000000E+00  0.00000000E+00  0.00000000E+00
  0.00000000E+00  0.00000000E+00  0.00000000E+00
  0.00000000E+00  0.00000000E+00  0.00000000E+00
  0.00000000E+00  0.00000000E+00  0.00000000E+00
  0.00000000E+00  0.00000000E+00  0.00000000E+00
  0.00000000E+00  0.00000000E+00  0.00000000E+00
  0.00000000E+00  0.00000000E+00  0.00000000E+00
  0.00000000E+00  0.00000000E+00  0.00000000E+00
  0.00000000E+00  0.00000000E+00  0.00000000E+00
  0.00000000E+00  0.00000000E+00  0.00000000E+00
  0.00000000E+00  0.00000000E+00  0.00000000E+00
  0.00000000E+00  0.00000000E+00  0.00000000E+00
  0.00000000E+00  0.00000000E+00  0.00000000E+00
  0.00000000E+00  0.00000000E+00  0.00000000E+00
  0.00000000E+00  0.00000000E+00  0.00000000E+00
  0.00000000E+00  0.00000000E+00  0.00000000E+00
  0.00000000E+00  0.00000000E+00  0.00000000E+00
  0.00000000E+00  0.00000000E+00  0.00000000E+00
  0.00000000E+00  0.00000000E+00  0.00000000E+00
  0.00000000E+00  0.00000000E+00  0.00000000E+00
  0.00000000E+00  0.00000000E+00  0.00000000E+00
  0.00000000E+00  0.00000000E+00  0.00000000E+00
  0.00000000E+00  0.00000000E+00  0.00000000E+00
  0.00000000E+00  0.00000000E+00  0.00000000E+00
  0.00000000E+00  0.00000000E+00  0.00000000E+00
  0.00000000E+00  0.00000000E+00  0.00000000E+00
  0.00000000E+00  0.00000000E+00  0.00000000E+00
  0.00000000E+00  0.00000000E+00  0.00000000E+00
  0.00000000E+00  0.00000000E+00  0.00000000E+00
  0.00000000E+00  0.00000000E+00  0.00000000E+00
  0.00000000E+00  0.00000000E+00  0.00000000E+00
  0.00000000E+00  0.00000000E+00  0.00000000E+00
  0.00000000E+00  0.00000000E+00  0.00000000E+00
  0.00000000E+00  0.00000000E+00  0.00000000E+00
  0.00000000E+00  0.00000000E+00  0.00000000E+00
  0.00000000E+00  0.00000000E+00  0.00000000E+00
  0.00000000E+00  0.00000000E+00  0.00000000E+00
  0.00000000E+00  0.00000000E+00  0.00000000E+00
  0.00000000E+00  0.00000000E+00  0.00000000E+00
  0.00000000E+00  0.00000000E+00  0.00000000E+00
  0.00000000E+00  0.00000000E+00  0.00000000E+00
  0.00000000E+00  0.00000000E+00  0.00000000E+00
  0.00000000E+00  0.00000000E+00  0.00000000E+00
  0.00000000E+00  0.00000000E+00  0.00000000E+00
  0.00000000E+00  0.00000000E+00  0.00000000E+00
  0.00000000E+00  0.00000000E+00  0.00000000E+00
  0.00000000E+00  0.00000000E+00  0.00000000E+00
  0.00000000E+00  0.00000000E+00  0.00000000E+00
  0.00000000E+00  0.00000000E+00  0.00000000E+00
  0.00000000E+00  0.00000000E+00  0.00000000E+00
  0.00000000E+00  0.00000000E+00  0.00000000E+00
  0.00000000E+00  0.00000000E+00  0.00000000E+00
  0.00000000E+00  0.00000000E+00  0.00000000E+00
  0.00000000E+00  0.00000000E+00  0.00000000E+00
  0.00000000E+00  0.00000000E+00  0.00000000E+00
  0.00000000E+00  0.00000000E+00  0.00000000E+00
  0.00000000E+00  0.00000000E+00  0.00000000E+00
  0.00000000E+00  0.00000000E+00  0.00000000E+00
  0.00000000E+00  0.00000000E+00  0.00000000E+00
  0.00000000E+00  0.00000000E+00  0.00000000E+00
  0.00000000E+00  0.00000000E+00  0.00000000E+00
  0.00000000E+00  0.00000000E+00  0.00000000E+00
  0.00000000E+00  0.00000000E+00  0.00000000E+00
  0.00000000E+00  0.00000000E+00  0.00000000E+00
  0.00000000E+00  0.00000000E+00  0.00000000E+00
  0.00000000E+00  0.00000000E+00  0.00000000E+00
  0.00000000E+00  0.00000000E+00  0.00000000E+00
