Hf Ta                                   
    1.000000000000000     
    11.7645715581052261    1.0286903296076926    0.0192196021782144
    -4.9671596371710738   10.7383715133811322   -0.0165515087811061
    -0.0339222312400325    0.0313686449467439   19.2297518597112429
  Hf             Ta           
              48              80
Direct
  0.6837399334875119  0.0694881821443728  0.1893703657809569
  0.3000791268642983  0.4348845313008615  0.0511664194823154
  0.5640623710528323  0.6885031768651466  0.8116595028227349
  0.8129954247479130  0.6824411539008332  0.0603543026540786
  0.9356174683469656  0.8141099017300744  0.1941177689940428
  0.1876889439434803  0.0683134783915528  0.4453795735155032
  0.1817066115585132  0.2866708403299035  0.9268503011915642
  0.8031554392001361  0.1752410903340630  0.3271419938832410
  0.4242348721435015  0.0604257998931012  0.1768746901304847
  0.3246879179260860  0.4370114150192789  0.8096686755197088
  0.4392237597808913  0.7993122639337514  0.9351277680658981
  0.3034848321463152  0.1781296029012787  0.3081188917695555
  0.0700179917443381  0.4356043883290857  0.7988697213401840
  0.9318214768899472  0.3115988350729601  0.1950979522302602
  0.5622365212836320  0.4403741654326464  0.5619529610127031
  0.1907616830305601  0.8043300144286815  0.1851328872516667
  0.0614426669613740  0.9417489671008902  0.8089786235691910
  0.4350953083220225  0.0617382848504607  0.6887543817107897
  0.3173240913031763  0.9288593114547387  0.3133795552927132
  0.3106279508526505  0.6929861019407516  0.0734858909427598
  0.1881442837355008  0.5632580563592727  0.9380772425754216
  0.0579098031073639  0.4348922000481826  0.5615104999269300
  0.0494388260766672  0.6836533806471873  0.8135211757831304
  0.0588314645016784  0.4447760228325188  0.0713252622565519
  0.0718160423760566  0.1838495141999634  0.5640972194251815
  0.5651423552325406  0.6968804434388841  0.0516071748199867
  0.6877500876335997  0.3142621097451804  0.4412596657217010
  0.5629549456555775  0.4386883654423261  0.0595514674873784
  0.9354804806026821  0.0636291931714365  0.1815594158265927
  0.0661427811708037  0.6937504852276479  0.5667579329248544
  0.9349946684052856  0.3139921147818439  0.9368605838113351
  0.4382288715569137  0.5606359418233051  0.4434494964908105
  0.4360605064642800  0.5651276818632214  0.1825480200107633
  0.6912708043725015  0.8087621518752927  0.4419056785669052
  0.0629499160283302  0.2012160331246918  0.3145153630186449
  0.9350957006917769  0.5560962824232807  0.4388977529164826
  0.5671436236112678  0.6874408195969630  0.3107417994153039
  0.8126697828299245  0.1918932893165165  0.5614018954253721
  0.4453776364425711  0.0656659249971056  0.9369080848901560
  0.3050662714775281  0.6983185676099511  0.8026439042960828
  0.3085720368015737  0.4362923457322874  0.3106498105757370
  0.5626918738792355  0.1925735654999064  0.3050474408276461
  0.9419792600320859  0.5642479473185816  0.1858452676810854
  0.8121656229587682  0.4372735185043749  0.8138467488411455
  0.9247959313183884  0.0498527517031103  0.4365329289363186
  0.3130267534328446  0.1869932796588216  0.0645654063504083
  0.4393448269115214  0.0658185414874116  0.4444881608393951
  0.5564262616226313  0.9432563224397521  0.0622767517897733
  0.3263714974178324  0.1921070751035139  0.5674287212865126
  0.5663520211600094  0.4379710947364473  0.3149619018842267
  0.0670449409505241  0.6979060550668996  0.3168974546272014
  0.8043872298596418  0.4374374709013589  0.3096134976784757
  0.9397910389706841  0.5586185109015490  0.6882101419123023
  0.1707813796368144  0.0501964912234741  0.1871604638969566
  0.1960835367767235  0.8215648373061551  0.6902982888261285
  0.9608022681000229  0.3110598848017143  0.4327448146865613
  0.8171009675528003  0.6841080592848278  0.3177640813662226
  0.4344787235078242  0.3159013381523428  0.6897470303434038
  0.9379268674368171  0.8131616944234750  0.9349340379164243
  0.3089443167421851  0.6861078875296747  0.3162171735962164
  0.6826186344756789  0.3082854840870836  0.6874933261062380
  0.8094384961077323  0.9239038452864772  0.3070082478321108
  0.5685609826537252  0.1913276163480367  0.8116478886814708
  0.4424952838890143  0.5645622140640665  0.6829611053138009
  0.6932955180854421  0.8134815474048410  0.6871354111153007
  0.3113796113479394  0.4376012175836906  0.5699610976091329
  0.9356642060725346  0.0575375341369347  0.6889826108843208
  0.0542184001313339  0.1831579404844518  0.8032466491594504
  0.5667727693078868  0.4333105401264652  0.8085500837350051
  0.6719628364624398  0.0450175328906139  0.4486426104503460
  0.1997599768080603  0.3313875994235418  0.4438805693559112
  0.6963742272548997  0.0666419650895948  0.9343816018891239
  0.8091260055474100  0.4255746275659386  0.0573171950971411
  0.8148199782188056  0.1821513364697080  0.0600374907430863
  0.7020937707785097  0.8228642805547429  0.9332160563307462
  0.1847965695565693  0.8156585528377087  0.9327721553069783
  0.8126870412701795  0.9349865078846281  0.5695354770747815
  0.3041562825982242  0.9311976099581296  0.5644967765414681
  0.9473480945613370  0.8099488035469448  0.4403098577936465
  0.4467329280829006  0.8126615007767086  0.6839750660950297
  0.0658545459568885  0.6972058041979073  0.0528249758331233
  0.9377484284600118  0.8094975788871170  0.6842941235882388
  0.4495744329335182  0.8208121763299456  0.2024230349079182
  0.5815001674954005  0.1962790364773466  0.0630247696217085
  0.5606344119698131  0.9382953577289488  0.5669867340542606
  0.8090952596937421  0.4457264419169146  0.5761681380351031
  0.1923209440828549  0.5707851156766173  0.4380478253879623
  0.5628260687367108  0.6945234199986300  0.5704957382158888
  0.6850152425212954  0.8137185123858079  0.1835228766258354
  0.0579779617668537  0.1831081725526067  0.0565064598785898
  0.5626946448420079  0.9462613677358942  0.8104992736626604
  0.4423046616751550  0.3132755955847513  0.9283155340355228
  0.5651327050077606  0.1870139544118762  0.5680308936600535
  0.1935627096760979  0.5715226934176963  0.6782384642437783
  0.0545332531351650  0.9364935980837797  0.0610140279017241
  0.0576884776881063  0.9332742789808035  0.5671838248197695
  0.8080241382143672  0.6891919823122002  0.5616027736335945
  0.1896284285580521  0.3011120979030014  0.1815276471894368
  0.6884482671799748  0.5679568046282315  0.1950296197290505
  0.0622073344389458  0.9435969751631227  0.3172409327899264
  0.6893700297689849  0.0615800454697856  0.6890354639578108
  0.0552255459928224  0.4522362463338669  0.3197127824955300
  0.3118122045562864  0.1804684807658376  0.8101527150174563
  0.8120376358321432  0.6974093670657846  0.8088942617835698
  0.1839059399007003  0.3150587045745073  0.6877101394482101
  0.3187761392738966  0.6897872802471166  0.5615785189797716
  0.1861172480738690  0.0484665913502852  0.9404807914029770
  0.8118045276784938  0.9374441488704339  0.0560509929506538
  0.8072515670662581  0.9394472105516910  0.8108709811764178
  0.6930294044981974  0.5636532980385188  0.6876888986734687
  0.5751950172785109  0.9384764872932539  0.3212480820958861
  0.1908192662381875  0.8113150687565122  0.4397821701611292
  0.1847287807589473  0.0678156375344185  0.6832017874061269
  0.6918638201075559  0.5656489565891204  0.4321128186430293
  0.2893190899478678  0.9333312676451293  0.0511421163094111
  0.9269326555123523  0.3052304667647495  0.6885935050267228
  0.4249029274363917  0.3070835666195367  0.4379561326919670
  0.6875918201081964  0.3297295874175492  0.1827966904105386
  0.9275461238618145  0.5694198598334642  0.9456378733498452
  0.4341879798381728  0.8135937411349194  0.4402147449885416
  0.6813793457686574  0.3059140320692043  0.9373664978697901
  0.4512693048901356  0.5452279676976605  0.9378633386670535
  0.6887852601062376  0.5627056375301488  0.9292474456014640
  0.8090689501440865  0.1802582395281904  0.8101699261415384
  0.3143407818863193  0.9434800262776826  0.8133936258299592
  0.1848291091122985  0.5441690102949744  0.2015283382762592
  0.9383963222115709  0.0608221682422934  0.9336889278458433
  0.4468997542799558  0.3183097769550863  0.1934995012576928
 
  0.00000000E+00  0.00000000E+00  0.00000000E+00
  0.00000000E+00  0.00000000E+00  0.00000000E+00
  0.00000000E+00  0.00000000E+00  0.00000000E+00
  0.00000000E+00  0.00000000E+00  0.00000000E+00
  0.00000000E+00  0.00000000E+00  0.00000000E+00
  0.00000000E+00  0.00000000E+00  0.00000000E+00
  0.00000000E+00  0.00000000E+00  0.00000000E+00
  0.00000000E+00  0.00000000E+00  0.00000000E+00
  0.00000000E+00  0.00000000E+00  0.00000000E+00
  0.00000000E+00  0.00000000E+00  0.00000000E+00
  0.00000000E+00  0.00000000E+00  0.00000000E+00
  0.00000000E+00  0.00000000E+00  0.00000000E+00
  0.00000000E+00  0.00000000E+00  0.00000000E+00
  0.00000000E+00  0.00000000E+00  0.00000000E+00
  0.00000000E+00  0.00000000E+00  0.00000000E+00
  0.00000000E+00  0.00000000E+00  0.00000000E+00
  0.00000000E+00  0.00000000E+00  0.00000000E+00
  0.00000000E+00  0.00000000E+00  0.00000000E+00
  0.00000000E+00  0.00000000E+00  0.00000000E+00
  0.00000000E+00  0.00000000E+00  0.00000000E+00
  0.00000000E+00  0.00000000E+00  0.00000000E+00
  0.00000000E+00  0.00000000E+00  0.00000000E+00
  0.00000000E+00  0.00000000E+00  0.00000000E+00
  0.00000000E+00  0.00000000E+00  0.00000000E+00
  0.00000000E+00  0.00000000E+00  0.00000000E+00
  0.00000000E+00  0.00000000E+00  0.00000000E+00
  0.00000000E+00  0.00000000E+00  0.00000000E+00
  0.00000000E+00  0.00000000E+00  0.00000000E+00
  0.00000000E+00  0.00000000E+00  0.00000000E+00
  0.00000000E+00  0.00000000E+00  0.00000000E+00
  0.00000000E+00  0.00000000E+00  0.00000000E+00
  0.00000000E+00  0.00000000E+00  0.00000000E+00
  0.00000000E+00  0.00000000E+00  0.00000000E+00
  0.00000000E+00  0.00000000E+00  0.00000000E+00
  0.00000000E+00  0.00000000E+00  0.00000000E+00
  0.00000000E+00  0.00000000E+00  0.00000000E+00
  0.00000000E+00  0.00000000E+00  0.00000000E+00
  0.00000000E+00  0.00000000E+00  0.00000000E+00
  0.00000000E+00  0.00000000E+00  0.00000000E+00
  0.00000000E+00  0.00000000E+00  0.00000000E+00
  0.00000000E+00  0.00000000E+00  0.00000000E+00
  0.00000000E+00  0.00000000E+00  0.00000000E+00
  0.00000000E+00  0.00000000E+00  0.00000000E+00
  0.00000000E+00  0.00000000E+00  0.00000000E+00
  0.00000000E+00  0.00000000E+00  0.00000000E+00
  0.00000000E+00  0.00000000E+00  0.00000000E+00
  0.00000000E+00  0.00000000E+00  0.00000000E+00
  0.00000000E+00  0.00000000E+00  0.00000000E+00
  0.00000000E+00  0.00000000E+00  0.00000000E+00
  0.00000000E+00  0.00000000E+00  0.00000000E+00
  0.00000000E+00  0.00000000E+00  0.00000000E+00
  0.00000000E+00  0.00000000E+00  0.00000000E+00
  0.00000000E+00  0.00000000E+00  0.00000000E+00
  0.00000000E+00  0.00000000E+00  0.00000000E+00
  0.00000000E+00  0.00000000E+00  0.00000000E+00
  0.00000000E+00  0.00000000E+00  0.00000000E+00
  0.00000000E+00  0.00000000E+00  0.00000000E+00
  0.00000000E+00  0.00000000E+00  0.00000000E+00
  0.00000000E+00  0.00000000E+00  0.00000000E+00
  0.00000000E+00  0.00000000E+00  0.00000000E+00
  0.00000000E+00  0.00000000E+00  0.00000000E+00
  0.00000000E+00  0.00000000E+00  0.00000000E+00
  0.00000000E+00  0.00000000E+00  0.00000000E+00
  0.00000000E+00  0.00000000E+00  0.00000000E+00
  0.00000000E+00  0.00000000E+00  0.00000000E+00
  0.00000000E+00  0.00000000E+00  0.00000000E+00
  0.00000000E+00  0.00000000E+00  0.00000000E+00
  0.00000000E+00  0.00000000E+00  0.00000000E+00
  0.00000000E+00  0.00000000E+00  0.00000000E+00
  0.00000000E+00  0.00000000E+00  0.00000000E+00
  0.00000000E+00  0.00000000E+00  0.00000000E+00
  0.00000000E+00  0.00000000E+00  0.00000000E+00
  0.00000000E+00  0.00000000E+00  0.00000000E+00
  0.00000000E+00  0.00000000E+00  0.00000000E+00
  0.00000000E+00  0.00000000E+00  0.00000000E+00
  0.00000000E+00  0.00000000E+00  0.00000000E+00
  0.00000000E+00  0.00000000E+00  0.00000000E+00
  0.00000000E+00  0.00000000E+00  0.00000000E+00
  0.00000000E+00  0.00000000E+00  0.00000000E+00
  0.00000000E+00  0.00000000E+00  0.00000000E+00
  0.00000000E+00  0.00000000E+00  0.00000000E+00
  0.00000000E+00  0.00000000E+00  0.00000000E+00
  0.00000000E+00  0.00000000E+00  0.00000000E+00
  0.00000000E+00  0.00000000E+00  0.00000000E+00
  0.00000000E+00  0.00000000E+00  0.00000000E+00
  0.00000000E+00  0.00000000E+00  0.00000000E+00
  0.00000000E+00  0.00000000E+00  0.00000000E+00
  0.00000000E+00  0.00000000E+00  0.00000000E+00
  0.00000000E+00  0.00000000E+00  0.00000000E+00
  0.00000000E+00  0.00000000E+00  0.00000000E+00
  0.00000000E+00  0.00000000E+00  0.00000000E+00
  0.00000000E+00  0.00000000E+00  0.00000000E+00
  0.00000000E+00  0.00000000E+00  0.00000000E+00
  0.00000000E+00  0.00000000E+00  0.00000000E+00
  0.00000000E+00  0.00000000E+00  0.00000000E+00
  0.00000000E+00  0.00000000E+00  0.00000000E+00
  0.00000000E+00  0.00000000E+00  0.00000000E+00
  0.00000000E+00  0.00000000E+00  0.00000000E+00
  0.00000000E+00  0.00000000E+00  0.00000000E+00
  0.00000000E+00  0.00000000E+00  0.00000000E+00
  0.00000000E+00  0.00000000E+00  0.00000000E+00
  0.00000000E+00  0.00000000E+00  0.00000000E+00
  0.00000000E+00  0.00000000E+00  0.00000000E+00
  0.00000000E+00  0.00000000E+00  0.00000000E+00
  0.00000000E+00  0.00000000E+00  0.00000000E+00
  0.00000000E+00  0.00000000E+00  0.00000000E+00
  0.00000000E+00  0.00000000E+00  0.00000000E+00
  0.00000000E+00  0.00000000E+00  0.00000000E+00
  0.00000000E+00  0.00000000E+00  0.00000000E+00
  0.00000000E+00  0.00000000E+00  0.00000000E+00
  0.00000000E+00  0.00000000E+00  0.00000000E+00
  0.00000000E+00  0.00000000E+00  0.00000000E+00
  0.00000000E+00  0.00000000E+00  0.00000000E+00
  0.00000000E+00  0.00000000E+00  0.00000000E+00
  0.00000000E+00  0.00000000E+00  0.00000000E+00
  0.00000000E+00  0.00000000E+00  0.00000000E+00
  0.00000000E+00  0.00000000E+00  0.00000000E+00
  0.00000000E+00  0.00000000E+00  0.00000000E+00
  0.00000000E+00  0.00000000E+00  0.00000000E+00
  0.00000000E+00  0.00000000E+00  0.00000000E+00
  0.00000000E+00  0.00000000E+00  0.00000000E+00
  0.00000000E+00  0.00000000E+00  0.00000000E+00
  0.00000000E+00  0.00000000E+00  0.00000000E+00
  0.00000000E+00  0.00000000E+00  0.00000000E+00
  0.00000000E+00  0.00000000E+00  0.00000000E+00
  0.00000000E+00  0.00000000E+00  0.00000000E+00
  0.00000000E+00  0.00000000E+00  0.00000000E+00
  0.00000000E+00  0.00000000E+00  0.00000000E+00
