Nb Ti                                   
    1.000000000000000     
    11.3247198235784499    0.9812806298665298    0.0096895408443932
    -4.7558048350016344   10.3371572066142789   -0.0377140241813291
     0.0200311116954805   -0.0665633308997746   18.4223708970994799
  Nb              Ti            
    60    68
Direct
     0.9370888612698137    0.5647046641963700    0.6888757148338965
     0.1886826406940037    0.5620746022101281    0.1849351310605475
     0.9411288972820615    0.5671219555785576    0.4380324215290063
     0.1899985881749565    0.0608322384148982    0.1907379899074940
     0.9401413593614713    0.3269511437278572    0.9383396187041066
     0.4439727785537018    0.5644117388234599    0.6890143141798063
     0.0676732664548055    0.6859832659933547    0.8128019516372222
     0.5658788137800927    0.4417240133756691    0.5598127960728517
     0.6847929044431526    0.8049299799852381    0.4393664532375523
     0.1836795707247880    0.8118986294805806    0.1838414016994740
     0.8177730090566929    0.1871248317083177    0.5599923331665696
     0.3173514617653090    0.4421331752197507    0.8084895306540282
     0.3126053097207280    0.6895580648221997    0.8155939677653706
     0.4331609014311444    0.3103183194627573    0.9392990710077881
     0.1842537586666838    0.5525733134104999    0.4394237689503402
     0.0652086441636042    0.6856909607524113    0.0603424013735368
     0.4342169184116647    0.5737939759767001    0.1863182618042809
     0.8159963240132285    0.1822484581334849    0.3090136881130288
     0.9308700986173445    0.5606463557347082    0.1886293818146952
     0.9354115181569281    0.0600852592201913    0.6902769201090202
     0.1860729880918081    0.8148922053649527    0.6931740766242217
     0.0649201357144649    0.4402514932472313    0.0613730292984011
     0.3138158438242566    0.9350077744635903    0.0633329425567443
     0.5678182599981162    0.1852130069962777    0.0598075654665166
     0.6850590108886297    0.8159787824208798    0.9430880676130350
     0.1902720202997096    0.3137086164815590    0.4385240816733298
     0.3122151567244361    0.1932871948347936    0.8154763384718711
     0.0655655483770882    0.1857767525985529    0.3163165115922075
     0.8128570427252803    0.9399165504860206    0.5642877195147233
     0.8147386605300493    0.4352298240146977    0.8111594408039627
     0.0600485595483520    0.9362971086014641    0.5615195089915357
     0.5594280039352744    0.6832784252987202    0.5630640381724284
     0.5630103295823666    0.9414512623987056    0.8125989566128445
     0.3145665172731855    0.6834102518513604    0.5572455336471323
     0.6866795162246875    0.5639698096990239    0.6909200522587101
     0.3111563379648054    0.1829818084887387    0.3084570291931867
     0.4328039971512645    0.3055040050234007    0.4338242949785404
     0.8134999929190386    0.4324781895450182    0.5635147017438156
     0.9375839267544769    0.0571246233229694    0.4360367946316486
     0.0561922358359042    0.1852150391318704    0.0586271563304481
     0.8127008740331163    0.4388833602919347    0.0666892903646873
     0.6824058796952741    0.3089194909392901    0.4371785885453366
     0.6875131052576805    0.3184544314509300    0.6927105552354663
     0.0688910383107269    0.1860847143711116    0.8069227743350527
     0.4350275803226740    0.8096717442217340    0.6894976182494240
     0.8039366716715626    0.9319600955200931    0.8168440485131062
     0.6898090911877298    0.0673758022042461    0.1902527147655474
     0.5607589333920528    0.9341980123574766    0.3137820536946436
     0.4372355451057373    0.0622244653595371    0.6812711158656569
     0.6907473334341386    0.0633010601789170    0.4335606605066192
     0.5632028481177759    0.4272550317835258    0.0618062824579264
     0.0592956781592437    0.6834904744787100    0.3073867571472384
     0.6884731110434782    0.5574238975713500    0.4369284959479200
     0.9409671303586612    0.8139626480440256    0.4393174784665214
     0.8094650667145621    0.1906195011182994    0.0624207355127180
     0.0656993314202055    0.1836648922435991    0.5610251758547737
     0.9421577132688189    0.8154189218262290    0.6878201437054874
     0.4426108271122957    0.8148765200537146    0.9359618282318595
     0.3158756252915755    0.9478809861268730    0.8104369557670459
     0.4375034515633826    0.8114627512583824    0.4370788873680916
     0.1869396677511629    0.8058666825541552    0.4328425475657646
     0.8143547915656424    0.6752473084500177    0.3173913507120840
     0.4377290867567130    0.3120771182712581    0.6869065191646283
     0.6774250742387709    0.5701878360745173    0.9423837408189175
     0.8193310226546436    0.6878510109385629    0.8146912848834186
     0.3117865668902192    0.1805081742982079    0.0650409511117760
     0.8168504747871551    0.1878969020996235    0.8164532107588746
     0.0610875506335717    0.9339300941655682    0.3142053126738656
     0.9419285746136746    0.0621325585832545    0.1881550136764371
     0.9234259020700173    0.8059913505195090    0.1935722241043777
     0.3169587094535278    0.9370484781483708    0.3097696645560480
     0.0663512218012394    0.9359590790982349    0.0713233168121238
     0.8049441852919650    0.9254421094322938    0.3084919376577361
     0.6799699970880159    0.0641181492504249    0.9392783669164024
     0.4403642168719579    0.0711736342639856    0.1827029060061179
     0.3174484331681074    0.4372235987359242    0.5615179764756053
     0.3196435294271529    0.6888840633658551    0.0610455873846526
     0.2997859981606269    0.9215578324901225    0.5652314631182357
     0.6897364447884128    0.0707646839902372    0.6878481898587091
     0.6882666038416029    0.3212638597886060    0.9369547125760801
     0.1866162913490920    0.3177824597421747    0.9335258243598600
     0.1919934037516133    0.5682603782616471    0.6862295593868497
     0.8216719115815417    0.4283105653836505    0.3173609801471202
     0.5634291754421752    0.9331791430471327    0.0654679379779054
     0.4269034009951534    0.5564016928766889    0.9358456518781622
     0.3201461598911304    0.4328623444447472    0.3076964454665453
     0.6890692520628604    0.8123911755960901    0.6874262588968104
     0.5648114837690328    0.4399105849447257    0.8157224750153004
     0.9359507647045899    0.0815935513113742    0.9269432750813936
     0.6819256372429015    0.8226062741611369    0.1745972915679318
     0.8106044948181556    0.6880322186968315    0.5642607774429058
     0.0671937963302214    0.4313459095384626    0.8104581204868351
     0.3075908425485788    0.6793560002522411    0.3158825322681937
     0.4274664784260627    0.0602705988297849    0.9392142885435459
     0.4300507646226596    0.3234995522538172    0.1878901907623998
     0.5718963515446478    0.4357762555353613    0.3116372898730044
     0.5578847956140889    0.1867324396569029    0.8104090039450746
     0.1886856354677576    0.0649711392465939    0.6886446911654279
     0.1763952819777977    0.0646295379331475    0.9414703314230043
     0.0733596895357019    0.4375690408905597    0.3087541317859581
     0.5620220132346018    0.9377668188803874    0.5624373898116667
     0.9309567688230576    0.3126551578594091    0.1846710579944841
     0.0627696004474785    0.4298545394870920    0.5646080915831942
     0.6790594476119083    0.3128202582603609    0.1910588668855435
     0.8277719981676411    0.9505304354967895    0.0552642234880902
     0.4375261073853572    0.0570450954325224    0.4439414425742730
     0.1782484077560618    0.5671081093228718    0.9375358726682859
     0.8219116136728414    0.6948029925112810    0.0611727276383225
     0.5586539036108020    0.1774158292734800    0.3153201133052829
     0.4293816589646793    0.8162565173488410    0.1921304888092842
     0.9380484429058122    0.8323219138800699    0.9416592978338179
     0.0679499457761124    0.6884750309352672    0.5646317845801896
     0.3151183602852329    0.4348884782675140    0.0649191662444630
     0.1842623059252071    0.3169035628367801    0.6852398964460639
     0.6828723021766191    0.5732388638124206    0.1852837430727430
     0.5697778609497237    0.6908405415300654    0.3059079571656090
     0.1883285701307487    0.0628623940709819    0.4368860316226199
     0.3194998316030562    0.1791058436495943    0.5616991338894266
     0.1763394746110020    0.3055899319402730    0.1883604383401084
     0.4400028033667961    0.5620442915738466    0.4340285215974682
     0.9291514385311946    0.3078100403493829    0.6885632717690197
     0.5648842364033682    0.6906161742881661    0.8162752150788349
     0.5745127466948150    0.1982160930180722    0.5674782898332903
     0.1935210693701536    0.8220936011208871    0.9359777330107137
     0.5636168068094353    0.6707707212426743    0.0594807335470520
     0.9378633098298275    0.3122229512052943    0.4335493532111475
     0.0578408827256225    0.9325661285959128    0.8138646866451512
     0.9276687321349888    0.5696666727911329    0.9384340187167935
 
  0.00000000E+00  0.00000000E+00  0.00000000E+00
  0.00000000E+00  0.00000000E+00  0.00000000E+00
  0.00000000E+00  0.00000000E+00  0.00000000E+00
  0.00000000E+00  0.00000000E+00  0.00000000E+00
  0.00000000E+00  0.00000000E+00  0.00000000E+00
  0.00000000E+00  0.00000000E+00  0.00000000E+00
  0.00000000E+00  0.00000000E+00  0.00000000E+00
  0.00000000E+00  0.00000000E+00  0.00000000E+00
  0.00000000E+00  0.00000000E+00  0.00000000E+00
  0.00000000E+00  0.00000000E+00  0.00000000E+00
  0.00000000E+00  0.00000000E+00  0.00000000E+00
  0.00000000E+00  0.00000000E+00  0.00000000E+00
  0.00000000E+00  0.00000000E+00  0.00000000E+00
  0.00000000E+00  0.00000000E+00  0.00000000E+00
  0.00000000E+00  0.00000000E+00  0.00000000E+00
  0.00000000E+00  0.00000000E+00  0.00000000E+00
  0.00000000E+00  0.00000000E+00  0.00000000E+00
  0.00000000E+00  0.00000000E+00  0.00000000E+00
  0.00000000E+00  0.00000000E+00  0.00000000E+00
  0.00000000E+00  0.00000000E+00  0.00000000E+00
  0.00000000E+00  0.00000000E+00  0.00000000E+00
  0.00000000E+00  0.00000000E+00  0.00000000E+00
  0.00000000E+00  0.00000000E+00  0.00000000E+00
  0.00000000E+00  0.00000000E+00  0.00000000E+00
  0.00000000E+00  0.00000000E+00  0.00000000E+00
  0.00000000E+00  0.00000000E+00  0.00000000E+00
  0.00000000E+00  0.00000000E+00  0.00000000E+00
  0.00000000E+00  0.00000000E+00  0.00000000E+00
  0.00000000E+00  0.00000000E+00  0.00000000E+00
  0.00000000E+00  0.00000000E+00  0.00000000E+00
  0.00000000E+00  0.00000000E+00  0.00000000E+00
  0.00000000E+00  0.00000000E+00  0.00000000E+00
  0.00000000E+00  0.00000000E+00  0.00000000E+00
  0.00000000E+00  0.00000000E+00  0.00000000E+00
  0.00000000E+00  0.00000000E+00  0.00000000E+00
  0.00000000E+00  0.00000000E+00  0.00000000E+00
  0.00000000E+00  0.00000000E+00  0.00000000E+00
  0.00000000E+00  0.00000000E+00  0.00000000E+00
  0.00000000E+00  0.00000000E+00  0.00000000E+00
  0.00000000E+00  0.00000000E+00  0.00000000E+00
  0.00000000E+00  0.00000000E+00  0.00000000E+00
  0.00000000E+00  0.00000000E+00  0.00000000E+00
  0.00000000E+00  0.00000000E+00  0.00000000E+00
  0.00000000E+00  0.00000000E+00  0.00000000E+00
  0.00000000E+00  0.00000000E+00  0.00000000E+00
  0.00000000E+00  0.00000000E+00  0.00000000E+00
  0.00000000E+00  0.00000000E+00  0.00000000E+00
  0.00000000E+00  0.00000000E+00  0.00000000E+00
  0.00000000E+00  0.00000000E+00  0.00000000E+00
  0.00000000E+00  0.00000000E+00  0.00000000E+00
  0.00000000E+00  0.00000000E+00  0.00000000E+00
  0.00000000E+00  0.00000000E+00  0.00000000E+00
  0.00000000E+00  0.00000000E+00  0.00000000E+00
  0.00000000E+00  0.00000000E+00  0.00000000E+00
  0.00000000E+00  0.00000000E+00  0.00000000E+00
  0.00000000E+00  0.00000000E+00  0.00000000E+00
  0.00000000E+00  0.00000000E+00  0.00000000E+00
  0.00000000E+00  0.00000000E+00  0.00000000E+00
  0.00000000E+00  0.00000000E+00  0.00000000E+00
  0.00000000E+00  0.00000000E+00  0.00000000E+00
  0.00000000E+00  0.00000000E+00  0.00000000E+00
  0.00000000E+00  0.00000000E+00  0.00000000E+00
  0.00000000E+00  0.00000000E+00  0.00000000E+00
  0.00000000E+00  0.00000000E+00  0.00000000E+00
  0.00000000E+00  0.00000000E+00  0.00000000E+00
  0.00000000E+00  0.00000000E+00  0.00000000E+00
  0.00000000E+00  0.00000000E+00  0.00000000E+00
  0.00000000E+00  0.00000000E+00  0.00000000E+00
  0.00000000E+00  0.00000000E+00  0.00000000E+00
  0.00000000E+00  0.00000000E+00  0.00000000E+00
  0.00000000E+00  0.00000000E+00  0.00000000E+00
  0.00000000E+00  0.00000000E+00  0.00000000E+00
  0.00000000E+00  0.00000000E+00  0.00000000E+00
  0.00000000E+00  0.00000000E+00  0.00000000E+00
  0.00000000E+00  0.00000000E+00  0.00000000E+00
  0.00000000E+00  0.00000000E+00  0.00000000E+00
  0.00000000E+00  0.00000000E+00  0.00000000E+00
  0.00000000E+00  0.00000000E+00  0.00000000E+00
  0.00000000E+00  0.00000000E+00  0.00000000E+00
  0.00000000E+00  0.00000000E+00  0.00000000E+00
  0.00000000E+00  0.00000000E+00  0.00000000E+00
  0.00000000E+00  0.00000000E+00  0.00000000E+00
  0.00000000E+00  0.00000000E+00  0.00000000E+00
  0.00000000E+00  0.00000000E+00  0.00000000E+00
  0.00000000E+00  0.00000000E+00  0.00000000E+00
  0.00000000E+00  0.00000000E+00  0.00000000E+00
  0.00000000E+00  0.00000000E+00  0.00000000E+00
  0.00000000E+00  0.00000000E+00  0.00000000E+00
  0.00000000E+00  0.00000000E+00  0.00000000E+00
  0.00000000E+00  0.00000000E+00  0.00000000E+00
  0.00000000E+00  0.00000000E+00  0.00000000E+00
  0.00000000E+00  0.00000000E+00  0.00000000E+00
  0.00000000E+00  0.00000000E+00  0.00000000E+00
  0.00000000E+00  0.00000000E+00  0.00000000E+00
  0.00000000E+00  0.00000000E+00  0.00000000E+00
  0.00000000E+00  0.00000000E+00  0.00000000E+00
  0.00000000E+00  0.00000000E+00  0.00000000E+00
  0.00000000E+00  0.00000000E+00  0.00000000E+00
  0.00000000E+00  0.00000000E+00  0.00000000E+00
  0.00000000E+00  0.00000000E+00  0.00000000E+00
  0.00000000E+00  0.00000000E+00  0.00000000E+00
  0.00000000E+00  0.00000000E+00  0.00000000E+00
  0.00000000E+00  0.00000000E+00  0.00000000E+00
  0.00000000E+00  0.00000000E+00  0.00000000E+00
  0.00000000E+00  0.00000000E+00  0.00000000E+00
  0.00000000E+00  0.00000000E+00  0.00000000E+00
  0.00000000E+00  0.00000000E+00  0.00000000E+00
  0.00000000E+00  0.00000000E+00  0.00000000E+00
  0.00000000E+00  0.00000000E+00  0.00000000E+00
  0.00000000E+00  0.00000000E+00  0.00000000E+00
  0.00000000E+00  0.00000000E+00  0.00000000E+00
  0.00000000E+00  0.00000000E+00  0.00000000E+00
  0.00000000E+00  0.00000000E+00  0.00000000E+00
  0.00000000E+00  0.00000000E+00  0.00000000E+00
  0.00000000E+00  0.00000000E+00  0.00000000E+00
  0.00000000E+00  0.00000000E+00  0.00000000E+00
  0.00000000E+00  0.00000000E+00  0.00000000E+00
  0.00000000E+00  0.00000000E+00  0.00000000E+00
  0.00000000E+00  0.00000000E+00  0.00000000E+00
  0.00000000E+00  0.00000000E+00  0.00000000E+00
  0.00000000E+00  0.00000000E+00  0.00000000E+00
  0.00000000E+00  0.00000000E+00  0.00000000E+00
  0.00000000E+00  0.00000000E+00  0.00000000E+00
  0.00000000E+00  0.00000000E+00  0.00000000E+00
  0.00000000E+00  0.00000000E+00  0.00000000E+00
  0.00000000E+00  0.00000000E+00  0.00000000E+00
  0.00000000E+00  0.00000000E+00  0.00000000E+00
  0.00000000E+00  0.00000000E+00  0.00000000E+00
