 128 128   0   0
  0.1336480E+02  0.1195981E-08  0.1195981E-08  0.1195981E-08  0.5000000E-15
   1.0000000000000000E-004
  CAR 
 bcc_NbZr_Zr128                          
     15.48510624    -57.21685758  301      9.78543867      1.00000000
    -57.217  0.0000E+00  0.0000E+00
    -56.975  0.0000E+00  0.0000E+00
    -56.732  0.0000E+00  0.0000E+00
    -56.490  0.0000E+00  0.0000E+00
    -56.247  0.0000E+00  0.0000E+00
    -56.005  0.0000E+00  0.0000E+00
    -55.763  0.0000E+00  0.0000E+00
    -55.520 -0.8380E-29 -0.2031E-29
    -55.278 -0.6168E-21 -0.1495E-21
    -55.036 -0.2404E-14 -0.5825E-15
    -54.793 -0.5181E-09 -0.1256E-09
    -54.551 -0.6268E-05 -0.1519E-05
    -54.309 -0.4461E-02 -0.1083E-02
    -54.066 -0.1699E+00 -0.4225E-01
    -53.824  0.1777E+01  0.3884E+00
    -53.582  0.8046E+01  0.2338E+01
    -53.339  0.1056E+01  0.2594E+01
    -53.097 -0.1398E+00  0.2560E+01
    -52.855 -0.1539E-02  0.2560E+01
    -52.612 -0.8317E-06  0.2560E+01
    -52.370 -0.2599E-10  0.2560E+01
    -52.128 -0.1833E-16  0.2560E+01
    -51.885  0.0000E+00  0.2560E+01
    -51.643  0.0000E+00  0.2560E+01
    -51.401  0.0000E+00  0.2560E+01
    -51.158  0.0000E+00  0.2560E+01
    -50.916  0.0000E+00  0.2560E+01
    -50.674  0.0000E+00  0.2560E+01
    -50.431  0.0000E+00  0.2560E+01
    -50.189  0.0000E+00  0.2560E+01
    -49.947  0.0000E+00  0.2560E+01
    -49.704  0.0000E+00  0.2560E+01
    -49.462  0.0000E+00  0.2560E+01
    -49.220  0.0000E+00  0.2560E+01
    -48.977  0.0000E+00  0.2560E+01
    -48.735  0.0000E+00  0.2560E+01
    -48.493  0.0000E+00  0.2560E+01
    -48.250  0.0000E+00  0.2560E+01
    -48.008  0.0000E+00  0.2560E+01
    -47.766  0.0000E+00  0.2560E+01
    -47.523  0.0000E+00  0.2560E+01
    -47.281  0.0000E+00  0.2560E+01
    -47.039  0.0000E+00  0.2560E+01
    -46.796  0.0000E+00  0.2560E+01
    -46.554  0.0000E+00  0.2560E+01
    -46.312  0.0000E+00  0.2560E+01
    -46.069  0.0000E+00  0.2560E+01
    -45.827  0.0000E+00  0.2560E+01
    -45.585  0.0000E+00  0.2560E+01
    -45.342  0.0000E+00  0.2560E+01
    -45.100  0.0000E+00  0.2560E+01
    -44.858  0.0000E+00  0.2560E+01
    -44.615  0.0000E+00  0.2560E+01
    -44.373  0.0000E+00  0.2560E+01
    -44.131  0.0000E+00  0.2560E+01
    -43.888  0.0000E+00  0.2560E+01
    -43.646  0.0000E+00  0.2560E+01
    -43.403  0.0000E+00  0.2560E+01
    -43.161  0.0000E+00  0.2560E+01
    -42.919  0.0000E+00  0.2560E+01
    -42.676  0.0000E+00  0.2560E+01
    -42.434  0.0000E+00  0.2560E+01
    -42.192  0.0000E+00  0.2560E+01
    -41.949  0.0000E+00  0.2560E+01
    -41.707  0.0000E+00  0.2560E+01
    -41.465  0.0000E+00  0.2560E+01
    -41.222  0.0000E+00  0.2560E+01
    -40.980  0.0000E+00  0.2560E+01
    -40.738  0.0000E+00  0.2560E+01
    -40.495  0.0000E+00  0.2560E+01
    -40.253  0.0000E+00  0.2560E+01
    -40.011  0.0000E+00  0.2560E+01
    -39.768  0.0000E+00  0.2560E+01
    -39.526  0.0000E+00  0.2560E+01
    -39.284  0.0000E+00  0.2560E+01
    -39.041  0.0000E+00  0.2560E+01
    -38.799  0.0000E+00  0.2560E+01
    -38.557  0.0000E+00  0.2560E+01
    -38.314  0.0000E+00  0.2560E+01
    -38.072  0.0000E+00  0.2560E+01
    -37.830  0.0000E+00  0.2560E+01
    -37.587  0.0000E+00  0.2560E+01
    -37.345  0.0000E+00  0.2560E+01
    -37.103  0.0000E+00  0.2560E+01
    -36.860  0.0000E+00  0.2560E+01
    -36.618  0.0000E+00  0.2560E+01
    -36.376  0.0000E+00  0.2560E+01
    -36.133  0.0000E+00  0.2560E+01
    -35.891  0.0000E+00  0.2560E+01
    -35.649  0.0000E+00  0.2560E+01
    -35.406  0.0000E+00  0.2560E+01
    -35.164  0.0000E+00  0.2560E+01
    -34.922  0.0000E+00  0.2560E+01
    -34.679  0.0000E+00  0.2560E+01
    -34.437  0.0000E+00  0.2560E+01
    -34.195  0.0000E+00  0.2560E+01
    -33.952  0.0000E+00  0.2560E+01
    -33.710  0.0000E+00  0.2560E+01
    -33.468  0.0000E+00  0.2560E+01
    -33.225  0.0000E+00  0.2560E+01
    -32.983  0.0000E+00  0.2560E+01
    -32.741  0.0000E+00  0.2560E+01
    -32.498  0.0000E+00  0.2560E+01
    -32.256  0.0000E+00  0.2560E+01
    -32.014  0.0000E+00  0.2560E+01
    -31.771  0.0000E+00  0.2560E+01
    -31.529  0.0000E+00  0.2560E+01
    -31.286  0.0000E+00  0.2560E+01
    -31.044  0.0000E+00  0.2560E+01
    -30.802  0.0000E+00  0.2560E+01
    -30.559  0.0000E+00  0.2560E+01
    -30.317  0.0000E+00  0.2560E+01
    -30.075  0.0000E+00  0.2560E+01
    -29.832 -0.9453E-32  0.2560E+01
    -29.590 -0.1846E-23  0.2560E+01
    -29.348 -0.1996E-16  0.2560E+01
    -29.105 -0.1164E-10  0.2560E+01
    -28.863 -0.3905E-06  0.2560E+01
    -28.621 -0.7333E-03  0.2560E+01
    -28.378 -0.7125E-01  0.2543E+01
    -28.136  0.3292E+00  0.2622E+01
    -27.894  0.5740E+01  0.4013E+01
    -27.651  0.6930E+01  0.5693E+01
    -27.409  0.9366E+01  0.7962E+01
    -27.167  0.8895E+01  0.1012E+02
    -26.924  0.6253E+00  0.1027E+02
    -26.682 -0.1205E+00  0.1024E+02
    -26.440 -0.9758E-03  0.1024E+02
    -26.197 -0.3486E-06  0.1024E+02
    -25.955 -0.6406E-11  0.1024E+02
    -25.713  0.0000E+00  0.1024E+02
    -25.470  0.0000E+00  0.1024E+02
    -25.228  0.0000E+00  0.1024E+02
    -24.986  0.0000E+00  0.1024E+02
    -24.743  0.0000E+00  0.1024E+02
    -24.501  0.0000E+00  0.1024E+02
    -24.259  0.0000E+00  0.1024E+02
    -24.016  0.0000E+00  0.1024E+02
    -23.774  0.0000E+00  0.1024E+02
    -23.532  0.0000E+00  0.1024E+02
    -23.289  0.0000E+00  0.1024E+02
    -23.047  0.0000E+00  0.1024E+02
    -22.805  0.0000E+00  0.1024E+02
    -22.562  0.0000E+00  0.1024E+02
    -22.320  0.0000E+00  0.1024E+02
    -22.078  0.0000E+00  0.1024E+02
    -21.835  0.0000E+00  0.1024E+02
    -21.593  0.0000E+00  0.1024E+02
    -21.351  0.0000E+00  0.1024E+02
    -21.108  0.0000E+00  0.1024E+02
    -20.866  0.0000E+00  0.1024E+02
    -20.624  0.0000E+00  0.1024E+02
    -20.381  0.0000E+00  0.1024E+02
    -20.139  0.0000E+00  0.1024E+02
    -19.897  0.0000E+00  0.1024E+02
    -19.654  0.0000E+00  0.1024E+02
    -19.412  0.0000E+00  0.1024E+02
    -19.169  0.0000E+00  0.1024E+02
    -18.927  0.0000E+00  0.1024E+02
    -18.685  0.0000E+00  0.1024E+02
    -18.442  0.0000E+00  0.1024E+02
    -18.200  0.0000E+00  0.1024E+02
    -17.958  0.0000E+00  0.1024E+02
    -17.715  0.0000E+00  0.1024E+02
    -17.473  0.0000E+00  0.1024E+02
    -17.231  0.0000E+00  0.1024E+02
    -16.988  0.0000E+00  0.1024E+02
    -16.746  0.0000E+00  0.1024E+02
    -16.504  0.0000E+00  0.1024E+02
    -16.261  0.0000E+00  0.1024E+02
    -16.019  0.0000E+00  0.1024E+02
    -15.777  0.0000E+00  0.1024E+02
    -15.534  0.0000E+00  0.1024E+02
    -15.292  0.0000E+00  0.1024E+02
    -15.050  0.0000E+00  0.1024E+02
    -14.807  0.0000E+00  0.1024E+02
    -14.565  0.0000E+00  0.1024E+02
    -14.323  0.0000E+00  0.1024E+02
    -14.080  0.0000E+00  0.1024E+02
    -13.838  0.0000E+00  0.1024E+02
    -13.596  0.0000E+00  0.1024E+02
    -13.353  0.0000E+00  0.1024E+02
    -13.111  0.0000E+00  0.1024E+02
    -12.869  0.0000E+00  0.1024E+02
    -12.626  0.0000E+00  0.1024E+02
    -12.384  0.0000E+00  0.1024E+02
    -12.142  0.0000E+00  0.1024E+02
    -11.899  0.0000E+00  0.1024E+02
    -11.657  0.0000E+00  0.1024E+02
    -11.415  0.0000E+00  0.1024E+02
    -11.172  0.0000E+00  0.1024E+02
    -10.930  0.0000E+00  0.1024E+02
    -10.688  0.0000E+00  0.1024E+02
    -10.445  0.0000E+00  0.1024E+02
    -10.203  0.0000E+00  0.1024E+02
     -9.961  0.0000E+00  0.1024E+02
     -9.718  0.0000E+00  0.1024E+02
     -9.476  0.0000E+00  0.1024E+02
     -9.234  0.0000E+00  0.1024E+02
     -8.991  0.0000E+00  0.1024E+02
     -8.749  0.0000E+00  0.1024E+02
     -8.507  0.0000E+00  0.1024E+02
     -8.264  0.0000E+00  0.1024E+02
     -8.022  0.0000E+00  0.1024E+02
     -7.780  0.0000E+00  0.1024E+02
     -7.537  0.0000E+00  0.1024E+02
     -7.295  0.0000E+00  0.1024E+02
     -7.053  0.0000E+00  0.1024E+02
     -6.810  0.0000E+00  0.1024E+02
     -6.568  0.0000E+00  0.1024E+02
     -6.325  0.0000E+00  0.1024E+02
     -6.083  0.0000E+00  0.1024E+02
     -5.841  0.0000E+00  0.1024E+02
     -5.598  0.0000E+00  0.1024E+02
     -5.356  0.0000E+00  0.1024E+02
     -5.114  0.0000E+00  0.1024E+02
     -4.871  0.0000E+00  0.1024E+02
     -4.629  0.0000E+00  0.1024E+02
     -4.387  0.0000E+00  0.1024E+02
     -4.144  0.0000E+00  0.1024E+02
     -3.902  0.0000E+00  0.1024E+02
     -3.660  0.0000E+00  0.1024E+02
     -3.417  0.0000E+00  0.1024E+02
     -3.175  0.0000E+00  0.1024E+02
     -2.933  0.0000E+00  0.1024E+02
     -2.690  0.0000E+00  0.1024E+02
     -2.448  0.0000E+00  0.1024E+02
     -2.206  0.0000E+00  0.1024E+02
     -1.963  0.0000E+00  0.1024E+02
     -1.721  0.0000E+00  0.1024E+02
     -1.479  0.0000E+00  0.1024E+02
     -1.236  0.0000E+00  0.1024E+02
     -0.994  0.0000E+00  0.1024E+02
     -0.752  0.0000E+00  0.1024E+02
     -0.509  0.0000E+00  0.1024E+02
     -0.267  0.0000E+00  0.1024E+02
     -0.025  0.0000E+00  0.1024E+02
      0.218  0.0000E+00  0.1024E+02
      0.460  0.0000E+00  0.1024E+02
      0.702  0.0000E+00  0.1024E+02
      0.945  0.0000E+00  0.1024E+02
      1.187  0.0000E+00  0.1024E+02
      1.429 -0.1653E-34  0.1024E+02
      1.672 -0.5202E-26  0.1024E+02
      1.914 -0.8461E-19  0.1024E+02
      2.156 -0.6767E-13  0.1024E+02
      2.399 -0.2739E-08  0.1024E+02
      2.641 -0.5069E-05  0.1024E+02
      2.883 -0.2975E-03  0.1024E+02
      3.126  0.2469E-02  0.1024E+02
      3.368  0.1197E-01  0.1024E+02
      3.610  0.5058E-01  0.1026E+02
      3.853  0.9555E-01  0.1028E+02
      4.095  0.7984E-01  0.1030E+02
      4.337  0.5468E-01  0.1031E+02
      4.580  0.1045E+00  0.1034E+02
      4.822  0.2358E+00  0.1039E+02
      5.064  0.1947E+00  0.1044E+02
      5.307  0.4749E-01  0.1045E+02
      5.549  0.1542E+00  0.1049E+02
      5.792  0.3229E+00  0.1057E+02
      6.034  0.3015E+00  0.1064E+02
      6.276  0.3362E+00  0.1072E+02
      6.519  0.5538E+00  0.1086E+02
      6.761  0.5501E+00  0.1099E+02
      7.003  0.1357E+01  0.1132E+02
      7.246  0.1591E+01  0.1170E+02
      7.488  0.1193E+01  0.1199E+02
      7.730  0.2543E+01  0.1261E+02
      7.973  0.7606E+00  0.1279E+02
      8.215  0.7814E+00  0.1298E+02
      8.457  0.1250E+01  0.1329E+02
      8.700  0.2248E+01  0.1383E+02
      8.942  0.2820E+01  0.1451E+02
      9.184  0.2504E+01  0.1512E+02
      9.427  0.2199E+01  0.1565E+02
      9.669  0.2784E+01  0.1633E+02
      9.911  0.2480E+01  0.1693E+02
     10.154  0.1416E+01  0.1727E+02
     10.396  0.1013E+01  0.1752E+02
     10.638  0.6985E+00  0.1769E+02
     10.881  0.6186E+00  0.1784E+02
     11.123  0.6985E+00  0.1801E+02
     11.365  0.1213E+01  0.1830E+02
     11.608  0.1487E+01  0.1866E+02
     11.850  0.2661E+01  0.1931E+02
     12.092  0.2091E+01  0.1981E+02
     12.335  0.8252E+00  0.2001E+02
     12.577 -0.4941E-01  0.2000E+02
     12.819 -0.3683E-02  0.2000E+02
     13.062 -0.6949E-05  0.2000E+02
     13.304 -0.6606E-09  0.2000E+02
     13.546 -0.3436E-14  0.2000E+02
     13.789  0.0000E+00  0.2000E+02
     14.031  0.0000E+00  0.2000E+02
     14.273  0.0000E+00  0.2000E+02
     14.516  0.0000E+00  0.2000E+02
     14.758  0.0000E+00  0.2000E+02
     15.000  0.0000E+00  0.2000E+02
     15.243  0.0000E+00  0.2000E+02
     15.485  0.0000E+00  0.2000E+02
