  128  128  100    1
  0.1336480E+02  0.1195981E-08  0.1195981E-08  0.1195981E-08  0.5000000E-15
   1.0000000000000000E-004
  CAR 
 bcc_NbZr_Zr128                          
   1664      4   1000
 
  0.1262379E-14  0.1262379E-14  0.1262379E-14  0.1250000E+00
      1        -53.912223   1.000000
      2        -53.855085   1.000000
      3        -53.855001   1.000000
      4        -53.854986   1.000000
      5        -53.854947   1.000000
      6        -53.854903   1.000000
      7        -53.854793   1.000000
      8        -53.811473   1.000000
      9        -53.811381   1.000000
     10        -53.811358   1.000000
     11        -53.811349   1.000000
     12        -53.811347   1.000000
     13        -53.811319   1.000000
     14        -53.811296   1.000000
     15        -53.811255   1.000000
     16        -53.811229   1.000000
     17        -53.811213   1.000000
     18        -53.811158   1.000000
     19        -53.811089   1.000000
     20        -53.778201   1.000000
     21        -53.778180   1.000000
     22        -53.778095   1.000000
     23        -53.778086   1.000000
     24        -53.778074   1.000000
     25        -53.778064   1.000000
     26        -53.777980   1.000000
     27        -53.777959   1.000000
     28        -53.726657   1.000000
     29        -53.726657   1.000000
     30        -53.726656   1.000000
     31        -53.726656   1.000000
     32        -53.726652   1.000000
     33        -53.726650   1.000000
     34        -53.717829   1.000000
     35        -53.717823   1.000000
     36        -53.717816   1.000000
     37        -53.717810   1.000000
     38        -53.717802   1.000000
     39        -53.717795   1.000000
     40        -53.717749   1.000000
     41        -53.717729   1.000000
     42        -53.717727   1.000000
     43        -53.717711   1.000000
     44        -53.717706   1.000000
     45        -53.717705   1.000000
     46        -53.717675   1.000000
     47        -53.717668   1.000000
     48        -53.717656   1.000000
     49        -53.717645   1.000000
     50        -53.717631   1.000000
     51        -53.717629   1.000000
     52        -53.717607   1.000000
     53        -53.717571   1.000000
     54        -53.717567   1.000000
     55        -53.717551   1.000000
     56        -53.717503   1.000000
     57        -53.717473   1.000000
     58        -53.709865   1.000000
     59        -53.709779   1.000000
     60        -53.709765   1.000000
     61        -53.709756   1.000000
     62        -53.709748   1.000000
     63        -53.709724   1.000000
     64        -53.709717   1.000000
     65        -53.709686   1.000000
     66        -53.709663   1.000000
     67        -53.709652   1.000000
     68        -53.709642   1.000000
     69        -53.709634   1.000000
     70        -53.709615   1.000000
     71        -53.709595   1.000000
     72        -53.709584   1.000000
     73        -53.709581   1.000000
     74        -53.709576   1.000000
     75        -53.709575   1.000000
     76        -53.709557   1.000000
     77        -53.709514   1.000000
     78        -53.709486   1.000000
     79        -53.709485   1.000000
     80        -53.709427   1.000000
     81        -53.709392   1.000000
     82        -53.709177   1.000000
     83        -53.709169   1.000000
     84        -53.709165   1.000000
     85        -53.709162   1.000000
     86        -53.709128   1.000000
     87        -53.709127   1.000000
     88        -53.701828   1.000000
     89        -53.701824   1.000000
     90        -53.701803   1.000000
     91        -53.701751   1.000000
     92        -53.701708   1.000000
     93        -53.701705   1.000000
     94        -53.701682   1.000000
     95        -53.701669   1.000000
     96        -53.701651   1.000000
     97        -53.701607   1.000000
     98        -53.701555   1.000000
     99        -53.701487   1.000000
    100        -53.694530   1.000000
    101        -53.694530   1.000000
    102        -53.657821   1.000000
    103        -53.657806   1.000000
    104        -53.657718   1.000000
    105        -53.657708   1.000000
    106        -53.657703   1.000000
    107        -53.657693   1.000000
    108        -53.657605   1.000000
    109        -53.657590   1.000000
    110        -53.640985   1.000000
    111        -53.640898   1.000000
    112        -53.640875   1.000000
    113        -53.640867   1.000000
    114        -53.640864   1.000000
    115        -53.640840   1.000000
    116        -53.640818   1.000000
    117        -53.640773   1.000000
    118        -53.640746   1.000000
    119        -53.640732   1.000000
    120        -53.640683   1.000000
    121        -53.640610   1.000000
    122        -53.613952   1.000000
    123        -53.613868   1.000000
    124        -53.613858   1.000000
    125        -53.613818   1.000000
    126        -53.613777   1.000000
    127        -53.613667   1.000000
    128        -53.570033   1.000000
    129        -28.134576   1.000000
    130        -28.134575   1.000000
    131        -28.134575   1.000000
    132        -28.134575   1.000000
    133        -28.134575   1.000000
    134        -28.134575   1.000000
    135        -27.998221   1.000000
    136        -27.998219   1.000000
    137        -27.998196   1.000000
    138        -27.998166   1.000000
    139        -27.998143   1.000000
    140        -27.998134   1.000000
    141        -27.998133   1.000000
    142        -27.998120   1.000000
    143        -27.998083   1.000000
    144        -27.998064   1.000000
    145        -27.998042   1.000000
    146        -27.998021   1.000000
    147        -27.990715   1.000000
    148        -27.990706   1.000000
    149        -27.990683   1.000000
    150        -27.990673   1.000000
    151        -27.990665   1.000000
    152        -27.990653   1.000000
    153        -27.990647   1.000000
    154        -27.990640   1.000000
    155        -27.990632   1.000000
    156        -27.990609   1.000000
    157        -27.990597   1.000000
    158        -27.990584   1.000000
    159        -27.972128   1.000000
    160        -27.972126   1.000000
    161        -27.972111   1.000000
    162        -27.972093   1.000000
    163        -27.972082   1.000000
    164        -27.972075   1.000000
    165        -27.972071   1.000000
    166        -27.972062   1.000000
    167        -27.972044   1.000000
    168        -27.972034   1.000000
    169        -27.972022   1.000000
    170        -27.972013   1.000000
    171        -27.972005   1.000000
    172        -27.972001   1.000000
    173        -27.971995   1.000000
    174        -27.971987   1.000000
    175        -27.971985   1.000000
    176        -27.971967   1.000000
    177        -27.971939   1.000000
    178        -27.971925   1.000000
    179        -27.971894   1.000000
    180        -27.971880   1.000000
    181        -27.971870   1.000000
    182        -27.971862   1.000000
    183        -27.964451   1.000000
    184        -27.964421   1.000000
    185        -27.964386   1.000000
    186        -27.964377   1.000000
    187        -27.964359   1.000000
    188        -27.964356   1.000000
    189        -27.964339   1.000000
    190        -27.964328   1.000000
    191        -27.964321   1.000000
    192        -27.964314   1.000000
    193        -27.964310   1.000000
    194        -27.964303   1.000000
    195        -27.964295   1.000000
    196        -27.964285   1.000000
    197        -27.964277   1.000000
    198        -27.964264   1.000000
    199        -27.964261   1.000000
    200        -27.964254   1.000000
    201        -27.964246   1.000000
    202        -27.964203   1.000000
    203        -27.964189   1.000000
    204        -27.964178   1.000000
    205        -27.964167   1.000000
    206        -27.964128   1.000000
    207        -27.873769   1.000000
    208        -27.873764   1.000000
    209        -27.873756   1.000000
    210        -27.873752   1.000000
    211        -27.873748   1.000000
    212        -27.873744   1.000000
    213        -27.873704   1.000000
    214        -27.873690   1.000000
    215        -27.873683   1.000000
    216        -27.873668   1.000000
    217        -27.873628   1.000000
    218        -27.873624   1.000000
    219        -27.873620   1.000000
    220        -27.873617   1.000000
    221        -27.873607   1.000000
    222        -27.873603   1.000000
    223        -27.843355   1.000000
    224        -27.843347   1.000000
    225        -27.843346   1.000000
    226        -27.838296   1.000000
    227        -27.838292   1.000000
    228        -27.838252   1.000000
    229        -27.838223   1.000000
    230        -27.838196   1.000000
    231        -27.838191   1.000000
    232        -27.817080   1.000000
    233        -27.817073   1.000000
    234        -27.817040   1.000000
    235        -27.817037   1.000000
    236        -27.817033   1.000000
    237        -27.817030   1.000000
    238        -27.816997   1.000000
    239        -27.816990   1.000000
    240        -27.747661   1.000000
    241        -27.747617   1.000000
    242        -27.747614   1.000000
    243        -27.747586   1.000000
    244        -27.747559   1.000000
    245        -27.747553   1.000000
    246        -27.747544   1.000000
    247        -27.747533   1.000000
    248        -27.747531   1.000000
    249        -27.747462   1.000000
    250        -27.747422   1.000000
    251        -27.747414   1.000000
    252        -27.704391   1.000000
    253        -27.704391   1.000000
    254        -27.704390   1.000000
    255        -27.704390   1.000000
    256        -27.704390   1.000000
    257        -27.704390   1.000000
    258        -27.686171   1.000000
    259        -27.686165   1.000000
    260        -27.686146   1.000000
    261        -27.686129   1.000000
    262        -27.686122   1.000000
    263        -27.686112   1.000000
    264        -27.686109   1.000000
    265        -27.686098   1.000000
    266        -27.686089   1.000000
    267        -27.686071   1.000000
    268        -27.686060   1.000000
    269        -27.686040   1.000000
    270        -27.676046   1.000000
    271        -27.676002   1.000000
    272        -27.675997   1.000000
    273        -27.675981   1.000000
    274        -27.675976   1.000000
    275        -27.675936   1.000000
    276        -27.675926   1.000000
    277        -27.675887   1.000000
    278        -27.675882   1.000000
    279        -27.675865   1.000000
    280        -27.675861   1.000000
    281        -27.675815   1.000000
    282        -27.672757   1.000000
    283        -27.672757   1.000000
    284        -27.672757   1.000000
    285        -27.672757   1.000000
    286        -27.672756   1.000000
    287        -27.672756   1.000000
    288        -27.596693   1.000000
    289        -27.596677   1.000000
    290        -27.596677   1.000000
    291        -27.596670   1.000000
    292        -27.596657   1.000000
    293        -27.596657   1.000000
    294        -27.596644   1.000000
    295        -27.596642   1.000000
    296        -27.596639   1.000000
    297        -27.596632   1.000000
    298        -27.596625   1.000000
    299        -27.596621   1.000000
    300        -27.596620   1.000000
    301        -27.596616   1.000000
    302        -27.596613   1.000000
    303        -27.596605   1.000000
    304        -27.596600   1.000000
    305        -27.596597   1.000000
    306        -27.596583   1.000000
    307        -27.596582   1.000000
    308        -27.596571   1.000000
    309        -27.596556   1.000000
    310        -27.596554   1.000000
    311        -27.596551   1.000000
    312        -27.588697   1.000000
    313        -27.588688   1.000000
    314        -27.588611   1.000000
    315        -27.588604   1.000000
    316        -27.588597   1.000000
    317        -27.588594   1.000000
    318        -27.588591   1.000000
    319        -27.588585   1.000000
    320        -27.588578   1.000000
    321        -27.588576   1.000000
    322        -27.588495   1.000000
    323        -27.588484   1.000000
    324        -27.539641   1.000000
    325        -27.539634   1.000000
    326        -27.539612   1.000000
    327        -27.539599   1.000000
    328        -27.539591   1.000000
    329        -27.539581   1.000000
    330        -27.539576   1.000000
    331        -27.539568   1.000000
    332        -27.539556   1.000000
    333        -27.539537   1.000000
    334        -27.539529   1.000000
    335        -27.539505   1.000000
    336        -27.520849   1.000000
    337        -27.520848   1.000000
    338        -27.520848   1.000000
    339        -27.520848   1.000000
    340        -27.520843   1.000000
    341        -27.520842   1.000000
    342        -27.520842   1.000000
    343        -27.520842   1.000000
    344        -27.520842   1.000000
    345        -27.520841   1.000000
    346        -27.520841   1.000000
    347        -27.520841   1.000000
    348        -27.512160   1.000000
    349        -27.512154   1.000000
    350        -27.512149   1.000000
    351        -27.512149   1.000000
    352        -27.512137   1.000000
    353        -27.512092   1.000000
    354        -27.512076   1.000000
    355        -27.512056   1.000000
    356        -27.512054   1.000000
    357        -27.512053   1.000000
    358        -27.512053   1.000000
    359        -27.512040   1.000000
    360        -27.512018   1.000000
    361        -27.512017   1.000000
    362        -27.512009   1.000000
    363        -27.512005   1.000000
    364        -27.511996   1.000000
    365        -27.511981   1.000000
    366        -27.511978   1.000000
    367        -27.511966   1.000000
    368        -27.511915   1.000000
    369        -27.511898   1.000000
    370        -27.511885   1.000000
    371        -27.511843   1.000000
    372        -27.503507   1.000000
    373        -27.503506   1.000000
    374        -27.503502   1.000000
    375        -27.503502   1.000000
    376        -27.503502   1.000000
    377        -27.503502   1.000000
    378        -27.398134   1.000000
    379        -27.398130   1.000000
    380        -27.398089   1.000000
    381        -27.398072   1.000000
    382        -27.398033   1.000000
    383        -27.398029   1.000000
    384        -27.389335   1.000000
    385        -27.389327   1.000000
    386        -27.389295   1.000000
    387        -27.389291   1.000000
    388        -27.389287   1.000000
    389        -27.389284   1.000000
    390        -27.389251   1.000000
    391        -27.389244   1.000000
    392        -27.361922   1.000000
    393        -27.361879   1.000000
    394        -27.361874   1.000000
    395        -27.361861   1.000000
    396        -27.361856   1.000000
    397        -27.361817   1.000000
    398        -27.361808   1.000000
    399        -27.361769   1.000000
    400        -27.361764   1.000000
    401        -27.361751   1.000000
    402        -27.361746   1.000000
    403        -27.361702   1.000000
    404        -27.353222   1.000000
    405        -27.353216   1.000000
    406        -27.353197   1.000000
    407        -27.353168   1.000000
    408        -27.353143   1.000000
    409        -27.353138   1.000000
    410        -27.353136   1.000000
    411        -27.353126   1.000000
    412        -27.353091   1.000000
    413        -27.353070   1.000000
    414        -27.353053   1.000000
    415        -27.353033   1.000000
    416        -27.328387   1.000000
    417        -27.328381   1.000000
    418        -27.328375   1.000000
    419        -27.328372   1.000000
    420        -27.328369   1.000000
    421        -27.328365   1.000000
    422        -27.328325   1.000000
    423        -27.328315   1.000000
    424        -27.328306   1.000000
    425        -27.328296   1.000000
    426        -27.328256   1.000000
    427        -27.328252   1.000000
    428        -27.328249   1.000000
    429        -27.328246   1.000000
    430        -27.328240   1.000000
    431        -27.328234   1.000000
    432        -27.319985   1.000000
    433        -27.319977   1.000000
    434        -27.319957   1.000000
    435        -27.319944   1.000000
    436        -27.319936   1.000000
    437        -27.319926   1.000000
    438        -27.319918   1.000000
    439        -27.319914   1.000000
    440        -27.319898   1.000000
    441        -27.319890   1.000000
    442        -27.319881   1.000000
    443        -27.319873   1.000000
    444        -27.319867   1.000000
    445        -27.319859   1.000000
    446        -27.319857   1.000000
    447        -27.319851   1.000000
    448        -27.319849   1.000000
    449        -27.319838   1.000000
    450        -27.319796   1.000000
    451        -27.319788   1.000000
    452        -27.319753   1.000000
    453        -27.319750   1.000000
    454        -27.319740   1.000000
    455        -27.319737   1.000000
    456        -27.311428   1.000000
    457        -27.311410   1.000000
    458        -27.311384   1.000000
    459        -27.311376   1.000000
    460        -27.311363   1.000000
    461        -27.311358   1.000000
    462        -27.311342   1.000000
    463        -27.311335   1.000000
    464        -27.311335   1.000000
    465        -27.311322   1.000000
    466        -27.311310   1.000000
    467        -27.311306   1.000000
    468        -27.311297   1.000000
    469        -27.311292   1.000000
    470        -27.311283   1.000000
    471        -27.311277   1.000000
    472        -27.311267   1.000000
    473        -27.311256   1.000000
    474        -27.311245   1.000000
    475        -27.311218   1.000000
    476        -27.311204   1.000000
    477        -27.311196   1.000000
    478        -27.311186   1.000000
    479        -27.311161   1.000000
    480        -27.304159   1.000000
    481        -27.304117   1.000000
    482        -27.304112   1.000000
    483        -27.304087   1.000000
    484        -27.304062   1.000000
    485        -27.304056   1.000000
    486        -27.304050   1.000000
    487        -27.304037   1.000000
    488        -27.304035   1.000000
    489        -27.303968   1.000000
    490        -27.303929   1.000000
    491        -27.303924   1.000000
    492        -27.223418   1.000000
    493        -27.223417   1.000000
    494        -27.223417   1.000000
    495        -27.223417   1.000000
    496        -27.223416   1.000000
    497        -27.223415   1.000000
    498        -27.220259   1.000000
    499        -27.220248   1.000000
    500        -27.220227   1.000000
    501        -27.220215   1.000000
    502        -27.220208   1.000000
    503        -27.220195   1.000000
    504        -27.220189   1.000000
    505        -27.220182   1.000000
    506        -27.220174   1.000000
    507        -27.220153   1.000000
    508        -27.220139   1.000000
    509        -27.220128   1.000000
    510        -27.217298   1.000000
    511        -27.217297   1.000000
    512        -27.217296   1.000000
    513          3.177721   1.000000
    514          4.380348   1.000000
    515          4.380440   1.000000
    516          4.380472   1.000000
    517          4.380510   1.000000
    518          4.380569   1.000000
    519          4.380698   1.000000
    520          5.333414   1.000000
    521          5.333522   1.000000
    522          5.333546   1.000000
    523          5.333550   1.000000
    524          5.333556   1.000000
    525          5.333587   1.000000
    526          5.333624   1.000000
    527          5.333662   1.000000
    528          5.333686   1.000000
    529          5.333715   1.000000
    530          5.333771   1.000000
    531          5.333852   1.000000
    532          6.311900   1.000000
    533          6.311924   1.000000
    534          6.312029   1.000000
    535          6.312041   1.000000
    536          6.312053   1.000000
    537          6.312064   1.000000
    538          6.312170   1.000000
    539          6.312193   1.000000
    540          6.591091   1.000000
    541          6.591091   1.000000
    542          6.591091   1.000000
    543          6.591091   1.000000
    544          6.591091   1.000000
    545          6.591091   1.000000
    546          6.763275   1.000000
    547          6.763276   1.000000
    548          6.872396   1.000000
    549          6.872396   1.000000
    550          6.872397   1.000000
    551          6.872397   1.000000
    552          6.872398   1.000000
    553          6.872399   1.000000
    554          6.920596   1.000000
    555          6.920603   1.000000
    556          6.920608   1.000000
    557          6.920620   1.000000
    558          6.920626   1.000000
    559          6.920637   1.000000
    560          6.920669   1.000000
    561          6.920681   1.000000
    562          6.920684   1.000000
    563          6.920689   1.000000
    564          6.920694   1.000000
    565          6.920705   1.000000
    566          6.920718   1.000000
    567          6.920728   1.000000
    568          6.920739   1.000000
    569          6.920752   1.000000
    570          6.920756   1.000000
    571          6.920760   1.000000
    572          6.920770   1.000000
    573          6.920791   1.000000
    574          6.920806   1.000000
    575          6.920821   1.000000
    576          6.920855   1.000000
    577          6.920879   1.000000
    578          7.324081   1.000000
    579          7.324100   1.000000
    580          7.324148   1.000000
    581          7.324164   1.000000
    582          7.324206   1.000000
    583          7.324259   1.000000
    584          7.431273   1.000000
    585          7.431287   1.000000
    586          7.431350   1.000000
    587          7.431369   1.000000
    588          7.431419   1.000000
    589          7.431477   1.000000
    590          7.513908   1.000000
    591          7.513956   1.000000
    592          7.513973   1.000000
    593          7.513976   1.000000
    594          7.513986   1.000000
    595          7.514014   1.000000
    596          7.514033   1.000000
    597          7.514050   1.000000
    598          7.514062   1.000000
    599          7.514095   1.000000
    600          7.514102   1.000000
    601          7.514147   1.000000
    602          7.536843   1.000000
    603          7.536854   1.000000
    604          7.536936   1.000000
    605          7.536943   1.000000
    606          7.536945   1.000000
    607          7.536958   1.000000
    608          7.536967   1.000000
    609          7.536982   1.000000
    610          7.536982   1.000000
    611          7.536987   1.000000
    612          7.537069   1.000000
    613          7.537083   1.000000
    614          7.610882   1.000000
    615          7.610894   1.000000
    616          7.610927   1.000000
    617          7.610936   1.000000
    618          7.610937   1.000000
    619          7.610943   1.000000
    620          7.610952   1.000000
    621          7.610961   1.000000
    622          7.610967   1.000000
    623          7.610983   1.000000
    624          7.610986   1.000000
    625          7.610987   1.000000
    626          7.611006   1.000000
    627          7.611015   1.000000
    628          7.611018   1.000000
    629          7.611023   1.000000
    630          7.611026   1.000000
    631          7.611033   1.000000
    632          7.611051   1.000000
    633          7.611055   1.000000
    634          7.611063   1.000000
    635          7.611084   1.000000
    636          7.611102   1.000000
    637          7.611116   1.000000
    638          8.180566   1.000000
    639          8.180626   1.000000
    640          8.180647   1.000000
    641          8.180654   1.000000
    642          8.180665   1.000000
    643          8.180693   1.000000
    644          8.180723   1.000000
    645          8.180741   1.000000
    646          8.180752   1.000000
    647          8.180799   1.000000
    648          8.180808   1.000000
    649          8.180863   1.000000
    650          8.351759   1.000000
    651          8.351762   1.000000
    652          8.351777   1.000000
    653          8.351782   1.000000
    654          8.351861   1.000000
    655          8.351868   1.000000
    656          8.351870   1.000000
    657          8.351878   1.000000
    658          8.351880   1.000000
    659          8.351888   1.000000
    660          8.351890   1.000000
    661          8.351897   1.000000
    662          8.351976   1.000000
    663          8.351981   1.000000
    664          8.351996   1.000000
    665          8.351999   1.000000
    666          8.492784   1.000000
    667          8.492790   1.000000
    668          8.492811   1.000000
    669          8.492836   1.000000
    670          8.492861   1.000000
    671          8.492863   1.000000
    672          8.492868   1.000000
    673          8.492874   1.000000
    674          8.492906   1.000000
    675          8.492928   1.000000
    676          8.492943   1.000000
    677          8.492962   1.000000
    678          8.621530   1.000000
    679          8.621546   1.000000
    680          8.621578   1.000000
    681          8.621588   1.000000
    682          8.621590   1.000000
    683          8.621597   1.000000
    684          8.621599   1.000000
    685          8.621607   1.000000
    686          8.621624   1.000000
    687          8.621627   1.000000
    688          8.621630   1.000000
    689          8.621646   1.000000
    690          8.621656   1.000000
    691          8.621657   1.000000
    692          8.621661   1.000000
    693          8.621672   1.000000
    694          8.621674   1.000000
    695          8.621678   1.000000
    696          8.621681   1.000000
    697          8.621701   1.000000
    698          8.621715   1.000000
    699          8.621729   1.000000
    700          8.621732   1.000000
    701          8.621776   1.000000
    702          8.650998   1.000000
    703          8.650998   1.000000
    704          8.650998   1.000000
    705          8.650998   1.000000
    706          8.650999   1.000000
    707          8.650999   1.000000
    708          8.664602   1.000000
    709          8.664603   1.000000
    710          8.664603   1.000000
    711          8.664603   1.000000
    712          8.664603   1.000000
    713          8.664604   1.000000
    714          8.974571   1.000000
    715          8.974572   1.000000
    716          8.974577   1.000000
    717          8.974577   1.000000
    718          8.974578   1.000000
    719          8.974579   1.000000
    720          8.974584   1.000000
    721          8.974585   1.000000
    722          9.034259   1.000001
    723          9.034260   1.000001
    724          9.034260   1.000001
    725          9.034260   1.000001
    726          9.034277   1.000001
    727          9.034283   1.000001
    728          9.034288   1.000001
    729          9.034296   1.000001
    730          9.034348   1.000001
    731          9.034356   1.000001
    732          9.034361   1.000001
    733          9.034368   1.000001
    734          9.034384   1.000001
    735          9.034384   1.000001
    736          9.034385   1.000001
    737          9.034385   1.000001
    738          9.208845   1.000177
    739          9.208845   1.000177
    740          9.208845   1.000177
    741          9.208845   1.000177
    742          9.208846   1.000177
    743          9.208846   1.000177
    744          9.312449   1.002072
    745          9.312467   1.002073
    746          9.312491   1.002074
    747          9.312499   1.002074
    748          9.312501   1.002075
    749          9.312508   1.002075
    750          9.312513   1.002075
    751          9.312519   1.002075
    752          9.312521   1.002075
    753          9.312527   1.002076
    754          9.312556   1.002077
    755          9.312557   1.002077
    756          9.312567   1.002077
    757          9.312568   1.002077
    758          9.312596   1.002079
    759          9.312601   1.002079
    760          9.312603   1.002079
    761          9.312607   1.002079
    762          9.312626   1.002080
    763          9.312626   1.002080
    764          9.312630   1.002080
    765          9.312635   1.002080
    766          9.312659   1.002081
    767          9.312677   1.002082
    768          9.338463   1.003483
    769          9.338476   1.003484
    770          9.338497   1.003486
    771          9.338505   1.003486
    772          9.338507   1.003486
    773          9.338538   1.003488
    774          9.338554   1.003489
    775          9.338556   1.003490
    776          9.338572   1.003491
    777          9.338575   1.003491
    778          9.338583   1.003491
    779          9.338594   1.003492
    780          9.338599   1.003492
    781          9.338607   1.003493
    782          9.338612   1.003493
    783          9.338613   1.003493
    784          9.338618   1.003494
    785          9.338628   1.003494
    786          9.338675   1.003498
    787          9.338701   1.003499
    788          9.338724   1.003501
    789          9.338740   1.003502
    790          9.338747   1.003502
    791          9.338751   1.003503
    792          9.373118   1.006519
    793          9.373144   1.006521
    794          9.373151   1.006522
    795          9.373167   1.006524
    796          9.373178   1.006525
    797          9.373187   1.006526
    798          9.373197   1.006527
    799          9.373203   1.006528
    800          9.373210   1.006529
    801          9.373214   1.006529
    802          9.373234   1.006531
    803          9.373249   1.006533
    804          9.452705   1.020156
    805          9.452706   1.020156
    806          9.452713   1.020158
    807          9.452719   1.020159
    808          9.452727   1.020161
    809          9.452734   1.020163
    810          9.452738   1.020164
    811          9.452740   1.020164
    812          9.452770   1.020171
    813          9.452775   1.020172
    814          9.452782   1.020174
    815          9.452786   1.020174
    816          9.452789   1.020175
    817          9.452790   1.020175
    818          9.452795   1.020177
    819          9.452804   1.020179
    820          9.452822   1.020183
    821          9.452830   1.020184
    822          9.452831   1.020185
    823          9.452845   1.020188
    824          9.452854   1.020190
    825          9.452860   1.020191
    826          9.452863   1.020192
    827          9.452872   1.020194
    828          9.765411   0.584277
    829          9.765422   0.584231
    830          9.765430   0.584195
    831          9.765440   0.584156
    832          9.765441   0.584149
    833          9.765445   0.584133
    834          9.765453   0.584099
    835          9.765461   0.584068
    836          9.765464   0.584053
    837          9.765467   0.584042
    838          9.765468   0.584037
    839          9.765486   0.583961
    840          9.889348   0.119356
    841          9.889351   0.119349
    842          9.889374   0.119288
    843          9.889387   0.119252
    844          9.889406   0.119202
    845          9.889416   0.119177
    846          9.889420   0.119167
    847          9.889425   0.119153
    848          9.889445   0.119098
    849          9.889466   0.119045
    850          9.889478   0.119011
    851          9.889493   0.118972
    852         10.175808  -0.009311
    853         10.175850  -0.009305
    854         10.175855  -0.009305
    855         10.175879  -0.009301
    856         10.175900  -0.009298
    857         10.175906  -0.009297
    858         10.175910  -0.009297
    859         10.175925  -0.009294
    860         10.175927  -0.009294
    861         10.175988  -0.009285
    862         10.176027  -0.009280
    863         10.176030  -0.009279
    864         10.203525  -0.005904
    865         10.203527  -0.005904
    866         10.203527  -0.005904
    867         10.554288  -0.000000
    868         10.554308  -0.000000
    869         10.554316  -0.000000
    870         10.554334  -0.000000
    871         10.554345  -0.000000
    872         10.554355  -0.000000
    873         10.554363  -0.000000
    874         10.554367  -0.000000
    875         10.554376  -0.000000
    876         10.554379  -0.000000
    877         10.554403  -0.000000
    878         10.554411  -0.000000
    879         10.640959  -0.000000
    880         10.640959  -0.000000
    881         10.640959  -0.000000
    882         10.640959  -0.000000
    883         10.640960  -0.000000
    884         10.640960  -0.000000
    885         10.640960  -0.000000
    886         10.640960  -0.000000
    887         10.640960  -0.000000
    888         10.640960  -0.000000
    889         10.640960  -0.000000
    890         10.640960  -0.000000
    891         10.642117  -0.000000
    892         10.642126  -0.000000
    893         10.642177  -0.000000
    894         10.642200  -0.000000
    895         10.642252  -0.000000
    896         10.642258  -0.000000
    897         11.267380  -0.000000
    898         11.267397  -0.000000
    899         11.267436  -0.000000
    900         11.267448  -0.000000
    901         11.267484  -0.000000
    902         11.267529  -0.000000
    903         11.374320  -0.000000
    904         11.374332  -0.000000
    905         11.374338  -0.000000
    906         11.374339  -0.000000
    907         11.374343  -0.000000
    908         11.374354  -0.000000
    909         11.374356  -0.000000
    910         11.374369  -0.000000
    911         11.374371  -0.000000
    912         11.374375  -0.000000
    913         11.374377  -0.000000
    914         11.374390  -0.000000
    915         11.443703  -0.000000
    916         11.443703  -0.000000
    917         11.443703  -0.000000
    918         11.443703  -0.000000
    919         11.443704  -0.000000
    920         11.443704  -0.000000
    921         11.624394  -0.000000
    922         11.624402  -0.000000
    923         11.624435  -0.000000
    924         11.624439  -0.000000
    925         11.624444  -0.000000
    926         11.624446  -0.000000
    927         11.624459  -0.000000
    928         11.624470  -0.000000
    929         11.624474  -0.000000
    930         11.624479  -0.000000
    931         11.624485  -0.000000
    932         11.624486  -0.000000
    933         11.624491  -0.000000
    934         11.624500  -0.000000
    935         11.624504  -0.000000
    936         11.624506  -0.000000
    937         11.624509  -0.000000
    938         11.624511  -0.000000
    939         11.624557  -0.000000
    940         11.624558  -0.000000
    941         11.624595  -0.000000
    942         11.624595  -0.000000
    943         11.624599  -0.000000
    944         11.624601  -0.000000
    945         11.765811  -0.000000
    946         11.765811  -0.000000
    947         11.765811  -0.000000
    948         11.765811  -0.000000
    949         11.765811  -0.000000
    950         11.765811  -0.000000
    951         11.832035  -0.000000
    952         11.832050  -0.000000
    953         11.832060  -0.000000
    954         11.832081  -0.000000
    955         11.832090  -0.000000
    956         11.832096  -0.000000
    957         11.832104  -0.000000
    958         11.832115  -0.000000
    959         11.832122  -0.000000
    960         11.832129  -0.000000
    961         11.832154  -0.000000
    962         11.832157  -0.000000
    963         11.891037  -0.000000
    964         11.891067  -0.000000
    965         11.891077  -0.000000
    966         11.891085  -0.000000
    967         11.891090  -0.000000
    968         11.891095  -0.000000
    969         11.891114  -0.000000
    970         11.891119  -0.000000
    971         11.891132  -0.000000
    972         11.891151  -0.000000
    973         11.891161  -0.000000
    974         11.891188  -0.000000
    975         12.006041  -0.000000
    976         12.006092  -0.000000
    977         12.006096  -0.000000
    978         12.006108  -0.000000
    979         12.006117  -0.000000
    980         12.006126  -0.000000
    981         12.006130  -0.000000
    982         12.006132  -0.000000
    983         12.006161  -0.000000
    984         12.006164  -0.000000
    985         12.006168  -0.000000
    986         12.006174  -0.000000
    987         12.006183  -0.000000
    988         12.006185  -0.000000
    989         12.006196  -0.000000
    990         12.006198  -0.000000
    991         12.006204  -0.000000
    992         12.006206  -0.000000
    993         12.006218  -0.000000
    994         12.006224  -0.000000
    995         12.006242  -0.000000
    996         12.006257  -0.000000
    997         12.006269  -0.000000
    998         12.006320  -0.000000
    999         12.151584  -0.000000
   1000         12.151634  -0.000000
 
  0.5000000E+00  0.1262379E-14  0.1262379E-14  0.3750000E+00
      1        -53.896949   1.000000
      2        -53.896834   1.000000
      3        -53.843476   1.000000
      4        -53.843363   1.000000
      5        -53.843343   1.000000
      6        -53.843331   1.000000
      7        -53.843245   1.000000
      8        -53.843229   1.000000
      9        -53.843226   1.000000
     10        -53.843123   1.000000
     11        -53.802678   1.000000
     12        -53.802657   1.000000
     13        -53.802574   1.000000
     14        -53.802564   1.000000
     15        -53.802550   1.000000
     16        -53.802543   1.000000
     17        -53.802456   1.000000
     18        -53.802437   1.000000
     19        -53.794314   1.000000
     20        -53.794304   1.000000
     21        -53.766610   1.000000
     22        -53.766600   1.000000
     23        -53.766504   1.000000
     24        -53.766495   1.000000
     25        -53.766484   1.000000
     26        -53.766469   1.000000
     27        -53.766375   1.000000
     28        -53.766369   1.000000
     29        -53.744866   1.000000
     30        -53.744859   1.000000
     31        -53.744847   1.000000
     32        -53.744833   1.000000
     33        -53.744761   1.000000
     34        -53.744753   1.000000
     35        -53.744740   1.000000
     36        -53.744728   1.000000
     37        -53.724052   1.000000
     38        -53.724049   1.000000
     39        -53.724044   1.000000
     40        -53.724041   1.000000
     41        -53.723936   1.000000
     42        -53.723934   1.000000
     43        -53.723931   1.000000
     44        -53.723930   1.000000
     45        -53.715584   1.000000
     46        -53.715580   1.000000
     47        -53.715472   1.000000
     48        -53.715461   1.000000
     49        -53.715460   1.000000
     50        -53.715443   1.000000
     51        -53.715437   1.000000
     52        -53.715416   1.000000
     53        -53.715357   1.000000
     54        -53.715346   1.000000
     55        -53.715331   1.000000
     56        -53.715321   1.000000
     57        -53.715318   1.000000
     58        -53.715302   1.000000
     59        -53.715227   1.000000
     60        -53.715199   1.000000
     61        -53.711826   1.000000
     62        -53.711822   1.000000
     63        -53.711817   1.000000
     64        -53.711813   1.000000
     65        -53.711710   1.000000
     66        -53.711704   1.000000
     67        -53.711704   1.000000
     68        -53.711699   1.000000
     69        -53.707134   1.000000
     70        -53.707131   1.000000
     71        -53.707019   1.000000
     72        -53.707019   1.000000
     73        -53.704139   1.000000
     74        -53.704134   1.000000
     75        -53.704027   1.000000
     76        -53.704015   1.000000
     77        -53.704011   1.000000
     78        -53.703997   1.000000
     79        -53.703991   1.000000
     80        -53.703971   1.000000
     81        -53.703908   1.000000
     82        -53.703900   1.000000
     83        -53.703885   1.000000
     84        -53.703873   1.000000
     85        -53.703870   1.000000
     86        -53.703855   1.000000
     87        -53.703782   1.000000
     88        -53.703749   1.000000
     89        -53.695870   1.000000
     90        -53.695868   1.000000
     91        -53.695757   1.000000
     92        -53.695751   1.000000
     93        -53.679529   1.000000
     94        -53.679524   1.000000
     95        -53.679520   1.000000
     96        -53.679512   1.000000
     97        -53.679426   1.000000
     98        -53.679420   1.000000
     99        -53.679419   1.000000
    100        -53.679408   1.000000
    101        -53.674346   1.000000
    102        -53.674337   1.000000
    103        -53.674247   1.000000
    104        -53.674237   1.000000
    105        -53.674226   1.000000
    106        -53.674215   1.000000
    107        -53.674113   1.000000
    108        -53.674107   1.000000
    109        -53.663513   1.000000
    110        -53.663505   1.000000
    111        -53.645044   1.000000
    112        -53.645028   1.000000
    113        -53.644943   1.000000
    114        -53.644930   1.000000
    115        -53.644924   1.000000
    116        -53.644913   1.000000
    117        -53.644826   1.000000
    118        -53.644811   1.000000
    119        -53.620369   1.000000
    120        -53.620260   1.000000
    121        -53.620237   1.000000
    122        -53.620230   1.000000
    123        -53.620142   1.000000
    124        -53.620127   1.000000
    125        -53.620124   1.000000
    126        -53.620021   1.000000
    127        -53.582214   1.000000
    128        -53.582101   1.000000
    129        -28.099137   1.000000
    130        -28.099137   1.000000
    131        -28.099022   1.000000
    132        -28.099021   1.000000
    133        -28.090939   1.000000
    134        -28.090938   1.000000
    135        -28.090938   1.000000
    136        -28.090936   1.000000
    137        -28.090825   1.000000
    138        -28.090824   1.000000
    139        -28.090823   1.000000
    140        -28.090823   1.000000
    141        -28.017556   1.000000
    142        -28.017552   1.000000
    143        -28.017506   1.000000
    144        -28.017501   1.000000
    145        -28.017490   1.000000
    146        -28.017488   1.000000
    147        -28.017440   1.000000
    148        -28.017435   1.000000
    149        -27.983939   1.000000
    150        -27.983908   1.000000
    151        -27.983869   1.000000
    152        -27.983868   1.000000
    153        -27.983861   1.000000
    154        -27.983847   1.000000
    155        -27.983823   1.000000
    156        -27.983795   1.000000
    157        -27.983788   1.000000
    158        -27.983783   1.000000
    159        -27.983755   1.000000
    160        -27.983745   1.000000
    161        -27.983737   1.000000
    162        -27.983730   1.000000
    163        -27.983691   1.000000
    164        -27.983668   1.000000
    165        -27.966563   1.000000
    166        -27.966556   1.000000
    167        -27.966460   1.000000
    168        -27.966450   1.000000
    169        -27.966443   1.000000
    170        -27.966431   1.000000
    171        -27.966425   1.000000
    172        -27.966419   1.000000
    173        -27.966348   1.000000
    174        -27.966344   1.000000
    175        -27.966336   1.000000
    176        -27.966330   1.000000
    177        -27.966325   1.000000
    178        -27.966319   1.000000
    179        -27.966242   1.000000
    180        -27.966224   1.000000
    181        -27.960151   1.000000
    182        -27.960148   1.000000
    183        -27.960143   1.000000
    184        -27.960142   1.000000
    185        -27.960035   1.000000
    186        -27.960033   1.000000
    187        -27.960028   1.000000
    188        -27.960025   1.000000
    189        -27.951147   1.000000
    190        -27.951144   1.000000
    191        -27.951132   1.000000
    192        -27.951130   1.000000
    193        -27.951075   1.000000
    194        -27.951071   1.000000
    195        -27.951060   1.000000
    196        -27.951057   1.000000
    197        -27.912662   1.000000
    198        -27.912642   1.000000
    199        -27.912631   1.000000
    200        -27.912626   1.000000
    201        -27.912600   1.000000
    202        -27.912589   1.000000
    203        -27.912587   1.000000
    204        -27.912555   1.000000
    205        -27.911433   1.000000
    206        -27.911429   1.000000
    207        -27.911421   1.000000
    208        -27.911421   1.000000
    209        -27.911377   1.000000
    210        -27.911372   1.000000
    211        -27.911365   1.000000
    212        -27.911364   1.000000
    213        -27.854045   1.000000
    214        -27.854042   1.000000
    215        -27.853997   1.000000
    216        -27.853991   1.000000
    217        -27.853980   1.000000
    218        -27.853978   1.000000
    219        -27.853930   1.000000
    220        -27.853926   1.000000
    221        -27.847945   1.000000
    222        -27.847945   1.000000
    223        -27.847934   1.000000
    224        -27.847933   1.000000
    225        -27.845262   1.000000
    226        -27.845151   1.000000
    227        -27.818875   1.000000
    228        -27.818873   1.000000
    229        -27.818760   1.000000
    230        -27.818758   1.000000
    231        -27.814168   1.000000
    232        -27.814168   1.000000
    233        -27.814165   1.000000
    234        -27.814165   1.000000
    235        -27.814120   1.000000
    236        -27.814120   1.000000
    237        -27.814116   1.000000
    238        -27.814116   1.000000
    239        -27.797809   1.000000
    240        -27.797802   1.000000
    241        -27.758898   1.000000
    242        -27.758882   1.000000
    243        -27.758843   1.000000
    244        -27.758826   1.000000
    245        -27.758814   1.000000
    246        -27.758796   1.000000
    247        -27.758755   1.000000
    248        -27.758741   1.000000
    249        -27.745474   1.000000
    250        -27.745472   1.000000
    251        -27.745467   1.000000
    252        -27.745466   1.000000
    253        -27.745463   1.000000
    254        -27.745461   1.000000
    255        -27.745456   1.000000
    256        -27.745454   1.000000
    257        -27.728650   1.000000
    258        -27.728607   1.000000
    259        -27.728584   1.000000
    260        -27.728540   1.000000
    261        -27.728534   1.000000
    262        -27.728490   1.000000
    263        -27.728470   1.000000
    264        -27.728423   1.000000
    265        -27.725460   1.000000
    266        -27.725457   1.000000
    267        -27.725442   1.000000
    268        -27.725440   1.000000
    269        -27.725374   1.000000
    270        -27.725372   1.000000
    271        -27.725357   1.000000
    272        -27.725353   1.000000
    273        -27.660908   1.000000
    274        -27.660867   1.000000
    275        -27.660841   1.000000
    276        -27.660823   1.000000
    277        -27.660812   1.000000
    278        -27.660802   1.000000
    279        -27.660762   1.000000
    280        -27.660740   1.000000
    281        -27.647608   1.000000
    282        -27.647605   1.000000
    283        -27.647495   1.000000
    284        -27.647492   1.000000
    285        -27.642276   1.000000
    286        -27.642274   1.000000
    287        -27.642265   1.000000
    288        -27.642263   1.000000
    289        -27.600938   1.000000
    290        -27.600890   1.000000
    291        -27.600885   1.000000
    292        -27.600882   1.000000
    293        -27.600876   1.000000
    294        -27.600861   1.000000
    295        -27.600857   1.000000
    296        -27.600844   1.000000
    297        -27.600815   1.000000
    298        -27.600812   1.000000
    299        -27.600801   1.000000
    300        -27.600797   1.000000
    301        -27.600788   1.000000
    302        -27.600780   1.000000
    303        -27.600774   1.000000
    304        -27.600725   1.000000
    305        -27.599122   1.000000
    306        -27.599111   1.000000
    307        -27.599078   1.000000
    308        -27.599070   1.000000
    309        -27.599058   1.000000
    310        -27.599045   1.000000
    311        -27.599012   1.000000
    312        -27.599002   1.000000
    313        -27.560642   1.000000
    314        -27.560635   1.000000
    315        -27.547538   1.000000
    316        -27.547527   1.000000
    317        -27.547450   1.000000
    318        -27.547446   1.000000
    319        -27.547444   1.000000
    320        -27.547431   1.000000
    321        -27.547420   1.000000
    322        -27.547398   1.000000
    323        -27.547371   1.000000
    324        -27.547365   1.000000
    325        -27.547347   1.000000
    326        -27.547337   1.000000
    327        -27.547327   1.000000
    328        -27.547314   1.000000
    329        -27.547263   1.000000
    330        -27.547250   1.000000
    331        -27.528553   1.000000
    332        -27.528550   1.000000
    333        -27.528441   1.000000
    334        -27.528438   1.000000
    335        -27.518310   1.000000
    336        -27.518308   1.000000
    337        -27.518306   1.000000
    338        -27.518304   1.000000
    339        -27.518195   1.000000
    340        -27.518193   1.000000
    341        -27.518193   1.000000
    342        -27.518192   1.000000
    343        -27.510233   1.000000
    344        -27.510213   1.000000
    345        -27.510201   1.000000
    346        -27.510195   1.000000
    347        -27.510171   1.000000
    348        -27.510160   1.000000
    349        -27.510157   1.000000
    350        -27.510126   1.000000
    351        -27.506028   1.000000
    352        -27.506025   1.000000
    353        -27.506024   1.000000
    354        -27.506022   1.000000
    355        -27.505912   1.000000
    356        -27.505911   1.000000
    357        -27.505907   1.000000
    358        -27.505905   1.000000
    359        -27.498308   1.000000
    360        -27.498307   1.000000
    361        -27.498300   1.000000
    362        -27.498299   1.000000
    363        -27.471522   1.000000
    364        -27.471514   1.000000
    365        -27.471488   1.000000
    366        -27.471483   1.000000
    367        -27.471462   1.000000
    368        -27.471456   1.000000
    369        -27.471431   1.000000
    370        -27.471423   1.000000
    371        -27.450437   1.000000
    372        -27.450435   1.000000
    373        -27.450432   1.000000
    374        -27.450429   1.000000
    375        -27.450429   1.000000
    376        -27.450427   1.000000
    377        -27.450423   1.000000
    378        -27.450421   1.000000
    379        -27.430715   1.000000
    380        -27.430713   1.000000
    381        -27.430712   1.000000
    382        -27.430711   1.000000
    383        -27.430669   1.000000
    384        -27.430669   1.000000
    385        -27.430667   1.000000
    386        -27.430665   1.000000
    387        -27.429104   1.000000
    388        -27.429094   1.000000
    389        -27.429060   1.000000
    390        -27.429055   1.000000
    391        -27.429045   1.000000
    392        -27.429034   1.000000
    393        -27.428997   1.000000
    394        -27.428988   1.000000
    395        -27.422081   1.000000
    396        -27.422076   1.000000
    397        -27.422040   1.000000
    398        -27.422036   1.000000
    399        -27.422027   1.000000
    400        -27.422025   1.000000
    401        -27.421988   1.000000
    402        -27.421982   1.000000
    403        -27.402320   1.000000
    404        -27.402318   1.000000
    405        -27.402311   1.000000
    406        -27.402310   1.000000
    407        -27.350790   1.000000
    408        -27.350774   1.000000
    409        -27.350709   1.000000
    410        -27.350700   1.000000
    411        -27.350692   1.000000
    412        -27.350681   1.000000
    413        -27.350614   1.000000
    414        -27.350600   1.000000
    415        -27.335664   1.000000
    416        -27.335648   1.000000
    417        -27.335603   1.000000
    418        -27.335600   1.000000
    419        -27.335583   1.000000
    420        -27.335581   1.000000
    421        -27.335542   1.000000
    422        -27.335531   1.000000
    423        -27.335478   1.000000
    424        -27.335469   1.000000
    425        -27.335459   1.000000
    426        -27.335452   1.000000
    427        -27.335402   1.000000
    428        -27.335400   1.000000
    429        -27.335395   1.000000
    430        -27.335374   1.000000
    431        -27.335266   1.000000
    432        -27.335240   1.000000
    433        -27.335224   1.000000
    434        -27.335218   1.000000
    435        -27.335205   1.000000
    436        -27.335187   1.000000
    437        -27.335166   1.000000
    438        -27.335163   1.000000
    439        -27.318904   1.000000
    440        -27.318863   1.000000
    441        -27.318844   1.000000
    442        -27.318801   1.000000
    443        -27.318790   1.000000
    444        -27.318748   1.000000
    445        -27.318730   1.000000
    446        -27.318685   1.000000
    447        -27.311837   1.000000
    448        -27.311833   1.000000
    449        -27.311825   1.000000
    450        -27.311825   1.000000
    451        -27.311781   1.000000
    452        -27.311777   1.000000
    453        -27.311769   1.000000
    454        -27.311769   1.000000
    455        -27.310505   1.000000
    456        -27.310500   1.000000
    457        -27.310423   1.000000
    458        -27.310403   1.000000
    459        -27.310402   1.000000
    460        -27.310398   1.000000
    461        -27.310390   1.000000
    462        -27.310371   1.000000
    463        -27.310335   1.000000
    464        -27.310324   1.000000
    465        -27.310305   1.000000
    466        -27.310300   1.000000
    467        -27.310296   1.000000
    468        -27.310292   1.000000
    469        -27.310226   1.000000
    470        -27.310216   1.000000
    471        -27.267285   1.000000
    472        -27.267172   1.000000
    473        -27.257184   1.000000
    474        -27.257183   1.000000
    475        -27.257070   1.000000
    476        -27.257069   1.000000
    477        -27.248221   1.000000
    478        -27.248201   1.000000
    479        -27.248189   1.000000
    480        -27.248187   1.000000
    481        -27.248171   1.000000
    482        -27.248162   1.000000
    483        -27.248126   1.000000
    484        -27.248112   1.000000
    485        -27.248086   1.000000
    486        -27.248083   1.000000
    487        -27.248076   1.000000
    488        -27.248075   1.000000
    489        -27.248057   1.000000
    490        -27.248054   1.000000
    491        -27.248036   1.000000
    492        -27.248025   1.000000
    493        -27.247942   1.000000
    494        -27.247939   1.000000
    495        -27.247863   1.000000
    496        -27.247855   1.000000
    497        -27.247820   1.000000
    498        -27.247806   1.000000
    499        -27.247773   1.000000
    500        -27.247763   1.000000
    501        -27.247559   1.000000
    502        -27.247524   1.000000
    503        -27.247495   1.000000
    504        -27.247484   1.000000
    505        -27.247473   1.000000
    506        -27.247459   1.000000
    507        -27.247428   1.000000
    508        -27.247403   1.000000
    509        -27.239684   1.000000
    510        -27.239680   1.000000
    511        -27.239569   1.000000
    512        -27.239567   1.000000
    513          3.493384   1.000000
    514          3.493506   1.000000
    515          4.641151   1.000000
    516          4.641284   1.000000
    517          4.641296   1.000000
    518          4.641322   1.000000
    519          4.641410   1.000000
    520          4.641426   1.000000
    521          4.641447   1.000000
    522          4.641555   1.000000
    523          5.605072   1.000000
    524          5.605096   1.000000
    525          5.605188   1.000000
    526          5.605199   1.000000
    527          5.605215   1.000000
    528          5.605228   1.000000
    529          5.605324   1.000000
    530          5.605344   1.000000
    531          5.642439   1.000000
    532          5.642461   1.000000
    533          6.194200   1.000000
    534          6.194216   1.000000
    535          6.194297   1.000000
    536          6.194313   1.000000
    537          6.194316   1.000000
    538          6.194333   1.000000
    539          6.194416   1.000000
    540          6.194431   1.000000
    541          6.699413   1.000000
    542          6.699413   1.000000
    543          6.699415   1.000000
    544          6.699415   1.000000
    545          6.699525   1.000000
    546          6.699525   1.000000
    547          6.699527   1.000000
    548          6.699528   1.000000
    549          6.853692   1.000000
    550          6.853696   1.000000
    551          6.853812   1.000000
    552          6.853815   1.000000
    553          6.932814   1.000000
    554          6.932934   1.000000
    555          6.938720   1.000000
    556          6.938835   1.000000
    557          6.954612   1.000000
    558          6.954614   1.000000
    559          6.954614   1.000000
    560          6.954616   1.000000
    561          6.954720   1.000000
    562          6.954721   1.000000
    563          6.954721   1.000000
    564          6.954723   1.000000
    565          7.090764   1.000000
    566          7.090780   1.000000
    567          7.090787   1.000000
    568          7.090800   1.000000
    569          7.090879   1.000000
    570          7.090895   1.000000
    571          7.090901   1.000000
    572          7.090914   1.000000
    573          7.158783   1.000000
    574          7.158793   1.000000
    575          7.158871   1.000000
    576          7.158887   1.000000
    577          7.158909   1.000000
    578          7.158917   1.000000
    579          7.158926   1.000000
    580          7.158939   1.000000
    581          7.158990   1.000000
    582          7.158993   1.000000
    583          7.159000   1.000000
    584          7.159019   1.000000
    585          7.159025   1.000000
    586          7.159041   1.000000
    587          7.159104   1.000000
    588          7.159122   1.000000
    589          7.376669   1.000000
    590          7.376676   1.000000
    591          7.376705   1.000000
    592          7.376709   1.000000
    593          7.376715   1.000000
    594          7.376725   1.000000
    595          7.376752   1.000000
    596          7.376758   1.000000
    597          7.432296   1.000000
    598          7.432406   1.000000
    599          7.432429   1.000000
    600          7.432437   1.000000
    601          7.432524   1.000000
    602          7.432537   1.000000
    603          7.432540   1.000000
    604          7.432643   1.000000
    605          7.475444   1.000000
    606          7.475449   1.000000
    607          7.605784   1.000000
    608          7.605902   1.000000
    609          7.605920   1.000000
    610          7.605935   1.000000
    611          7.606021   1.000000
    612          7.606037   1.000000
    613          7.606044   1.000000
    614          7.606149   1.000000
    615          7.617435   1.000000
    616          7.617504   1.000000
    617          7.617512   1.000000
    618          7.617519   1.000000
    619          7.617530   1.000000
    620          7.617539   1.000000
    621          7.617548   1.000000
    622          7.617554   1.000000
    623          7.617612   1.000000
    624          7.617613   1.000000
    625          7.617622   1.000000
    626          7.617628   1.000000
    627          7.617638   1.000000
    628          7.617646   1.000000
    629          7.617650   1.000000
    630          7.617729   1.000000
    631          7.762259   1.000000
    632          7.762276   1.000000
    633          7.762352   1.000000
    634          7.762373   1.000000
    635          7.762375   1.000000
    636          7.762394   1.000000
    637          7.762475   1.000000
    638          7.762488   1.000000
    639          8.111545   1.000000
    640          8.111548   1.000000
    641          8.111557   1.000000
    642          8.111560   1.000000
    643          8.111609   1.000000
    644          8.111612   1.000000
    645          8.111621   1.000000
    646          8.111624   1.000000
    647          8.216246   1.000000
    648          8.216264   1.000000
    649          8.229984   1.000000
    650          8.230006   1.000000
    651          8.230094   1.000000
    652          8.230099   1.000000
    653          8.230116   1.000000
    654          8.230121   1.000000
    655          8.230213   1.000000
    656          8.230232   1.000000
    657          8.309805   1.000000
    658          8.309810   1.000000
    659          8.309910   1.000000
    660          8.309915   1.000000
    661          8.474478   1.000000
    662          8.474478   1.000000
    663          8.474484   1.000000
    664          8.474484   1.000000
    665          8.488964   1.000000
    666          8.488974   1.000000
    667          8.488978   1.000000
    668          8.488991   1.000000
    669          8.489048   1.000000
    670          8.489058   1.000000
    671          8.489062   1.000000
    672          8.489074   1.000000
    673          8.583055   1.000000
    674          8.583057   1.000000
    675          8.583117   1.000000
    676          8.583125   1.000000
    677          8.583133   1.000000
    678          8.583148   1.000000
    679          8.583163   1.000000
    680          8.583169   1.000000
    681          8.583205   1.000000
    682          8.583216   1.000000
    683          8.583227   1.000000
    684          8.583233   1.000000
    685          8.583243   1.000000
    686          8.583247   1.000000
    687          8.583295   1.000000
    688          8.583311   1.000000
    689          8.596106   1.000000
    690          8.596106   1.000000
    691          8.596215   1.000000
    692          8.596215   1.000000
    693          8.795029   1.000000
    694          8.795034   1.000000
    695          8.795038   1.000000
    696          8.795041   1.000000
    697          8.795073   1.000000
    698          8.795078   1.000000
    699          8.795082   1.000000
    700          8.795086   1.000000
    701          8.829608   1.000000
    702          8.829610   1.000000
    703          8.829610   1.000000
    704          8.829610   1.000000
    705          8.829727   1.000000
    706          8.829727   1.000000
    707          8.829727   1.000000
    708          8.829730   1.000000
    709          8.876770   1.000000
    710          8.876783   1.000000
    711          8.876817   1.000000
    712          8.876831   1.000000
    713          8.876839   1.000000
    714          8.876850   1.000000
    715          8.876884   1.000000
    716          8.876898   1.000000
    717          8.932330   1.000000
    718          8.932342   1.000000
    719          8.932357   1.000000
    720          8.932374   1.000000
    721          8.932401   1.000000
    722          8.932407   1.000000
    723          8.932415   1.000000
    724          8.932417   1.000000
    725          8.932421   1.000000
    726          8.932422   1.000000
    727          8.932439   1.000000
    728          8.932441   1.000000
    729          8.932453   1.000000
    730          8.932455   1.000000
    731          8.932500   1.000000
    732          8.932506   1.000000
    733          9.010513   1.000000
    734          9.010518   1.000000
    735          9.010523   1.000000
    736          9.010532   1.000000
    737          9.010552   1.000000
    738          9.010557   1.000000
    739          9.010560   1.000000
    740          9.010570   1.000000
    741          9.093494   1.000006
    742          9.093497   1.000006
    743          9.093498   1.000006
    744          9.093498   1.000006
    745          9.093581   1.000006
    746          9.093582   1.000006
    747          9.093582   1.000006
    748          9.093585   1.000006
    749          9.134898   1.000021
    750          9.134898   1.000021
    751          9.134903   1.000021
    752          9.134903   1.000021
    753          9.164078   1.000051
    754          9.164085   1.000051
    755          9.164089   1.000051
    756          9.164093   1.000051
    757          9.164101   1.000051
    758          9.164108   1.000051
    759          9.164113   1.000051
    760          9.164116   1.000051
    761          9.203542   1.000154
    762          9.203546   1.000154
    763          9.203579   1.000154
    764          9.203586   1.000154
    765          9.203593   1.000154
    766          9.203595   1.000154
    767          9.203629   1.000154
    768          9.203635   1.000154
    769          9.270444   1.000823
    770          9.270450   1.000823
    771          9.270467   1.000823
    772          9.270470   1.000823
    773          9.270549   1.000825
    774          9.270552   1.000825
    775          9.270570   1.000825
    776          9.270575   1.000825
    777          9.454133   1.020478
    778          9.454140   1.020479
    779          9.454164   1.020485
    780          9.454170   1.020486
    781          9.454217   1.020497
    782          9.454222   1.020498
    783          9.454247   1.020504
    784          9.454253   1.020505
    785          9.530661   1.035110
    786          9.530694   1.035112
    787          9.530714   1.035114
    788          9.530719   1.035114
    789          9.530726   1.035114
    790          9.530731   1.035115
    791          9.530764   1.035117
    792          9.530772   1.035118
    793          9.530786   1.035118
    794          9.530790   1.035119
    795          9.530817   1.035121
    796          9.530823   1.035121
    797          9.530827   1.035121
    798          9.530831   1.035122
    799          9.530859   1.035123
    800          9.530882   1.035125
    801          9.538615   1.035445
    802          9.538629   1.035445
    803          9.538630   1.035445
    804          9.538636   1.035445
    805          9.538657   1.035445
    806          9.538659   1.035445
    807          9.538668   1.035445
    808          9.538669   1.035445
    809          9.538670   1.035445
    810          9.538670   1.035445
    811          9.538680   1.035445
    812          9.538685   1.035446
    813          9.538697   1.035446
    814          9.538706   1.035446
    815          9.538707   1.035446
    816          9.538723   1.035446
    817          9.701132   0.824012
    818          9.701136   0.824001
    819          9.701160   0.823926
    820          9.701162   0.823918
    821          9.701165   0.823910
    822          9.701168   0.823900
    823          9.701193   0.823821
    824          9.701195   0.823816
    825          9.777283   0.534479
    826          9.777329   0.534284
    827          9.777341   0.534232
    828          9.777359   0.534156
    829          9.777376   0.534085
    830          9.777386   0.534043
    831          9.777411   0.533938
    832          9.777439   0.533821
    833          9.800103   0.438134
    834          9.800106   0.438122
    835          9.800139   0.437983
    836          9.800146   0.437953
    837          9.800153   0.437925
    838          9.800155   0.437916
    839          9.800188   0.437778
    840          9.800194   0.437750
    841          9.837326   0.288424
    842          9.837328   0.288418
    843          9.837334   0.288395
    844          9.837337   0.288382
    845          9.837371   0.288255
    846          9.837374   0.288242
    847          9.837381   0.288216
    848          9.837382   0.288213
    849          9.981955  -0.023224
    850          9.981983  -0.023240
    851          9.981995  -0.023247
    852          9.982024  -0.023263
    853          9.982033  -0.023269
    854          9.982062  -0.023285
    855          9.982073  -0.023291
    856          9.982101  -0.023308
    857         10.079990  -0.028848
    858         10.079991  -0.028848
    859         10.079995  -0.028847
    860         10.079996  -0.028846
    861         10.080046  -0.028836
    862         10.080047  -0.028835
    863         10.080052  -0.028834
    864         10.080052  -0.028834
    865         10.184081  -0.008171
    866         10.184081  -0.008171
    867         10.184192  -0.008157
    868         10.184192  -0.008157
    869         10.283795  -0.001201
    870         10.283797  -0.001201
    871         10.292725  -0.000982
    872         10.292725  -0.000982
    873         10.292732  -0.000982
    874         10.292733  -0.000982
    875         10.316190  -0.000567
    876         10.316308  -0.000565
    877         10.528717  -0.000001
    878         10.528718  -0.000001
    879         10.528719  -0.000001
    880         10.528724  -0.000001
    881         10.528764  -0.000001
    882         10.528768  -0.000001
    883         10.528770  -0.000001
    884         10.528771  -0.000001
    885         10.832623  -0.000000
    886         10.832624  -0.000000
    887         10.832693  -0.000000
    888         10.832693  -0.000000
    889         11.012350  -0.000000
    890         11.012350  -0.000000
    891         11.012351  -0.000000
    892         11.012351  -0.000000
    893         11.012411  -0.000000
    894         11.012411  -0.000000
    895         11.012412  -0.000000
    896         11.012412  -0.000000
    897         11.132950  -0.000000
    898         11.132966  -0.000000
    899         11.132981  -0.000000
    900         11.132987  -0.000000
    901         11.133011  -0.000000
    902         11.133020  -0.000000
    903         11.133026  -0.000000
    904         11.133055  -0.000000
    905         11.145723  -0.000000
    906         11.145739  -0.000000
    907         11.272374  -0.000000
    908         11.272374  -0.000000
    909         11.272376  -0.000000
    910         11.272377  -0.000000
    911         11.351901  -0.000000
    912         11.351902  -0.000000
    913         11.351905  -0.000000
    914         11.351908  -0.000000
    915         11.351910  -0.000000
    916         11.351911  -0.000000
    917         11.351913  -0.000000
    918         11.351916  -0.000000
    919         11.483911  -0.000000
    920         11.483960  -0.000000
    921         11.483965  -0.000000
    922         11.483981  -0.000000
    923         11.484008  -0.000000
    924         11.484018  -0.000000
    925         11.484031  -0.000000
    926         11.484067  -0.000000
    927         11.545015  -0.000000
    928         11.545062  -0.000000
    929         11.545072  -0.000000
    930         11.545107  -0.000000
    931         11.545116  -0.000000
    932         11.545146  -0.000000
    933         11.545153  -0.000000
    934         11.545199  -0.000000
    935         11.704957  -0.000000
    936         11.704961  -0.000000
    937         11.705037  -0.000000
    938         11.705041  -0.000000
    939         11.705059  -0.000000
    940         11.705066  -0.000000
    941         11.705066  -0.000000
    942         11.705068  -0.000000
    943         11.705131  -0.000000
    944         11.705134  -0.000000
    945         11.705138  -0.000000
    946         11.705143  -0.000000
    947         11.705145  -0.000000
    948         11.705151  -0.000000
    949         11.705219  -0.000000
    950         11.705226  -0.000000
    951         11.776460  -0.000000
    952         11.776463  -0.000000
    953         11.776512  -0.000000
    954         11.776514  -0.000000
    955         11.776525  -0.000000
    956         11.776529  -0.000000
    957         11.776578  -0.000000
    958         11.776580  -0.000000
    959         11.832509  -0.000000
    960         11.832538  -0.000000
    961         11.832546  -0.000000
    962         11.832576  -0.000000
    963         11.832599  -0.000000
    964         11.832628  -0.000000
    965         11.832636  -0.000000
    966         11.832662  -0.000000
    967         11.963768  -0.000000
    968         11.963877  -0.000000
    969         11.972379  -0.000000
    970         11.972390  -0.000000
    971         11.972443  -0.000000
    972         11.972458  -0.000000
    973         11.972478  -0.000000
    974         11.972493  -0.000000
    975         11.972548  -0.000000
    976         11.972557  -0.000000
    977         11.990732  -0.000000
    978         11.990735  -0.000000
    979         11.990750  -0.000000
    980         11.990756  -0.000000
    981         11.990785  -0.000000
    982         11.990790  -0.000000
    983         11.990806  -0.000000
    984         11.990807  -0.000000
    985         12.069081  -0.000000
    986         12.069117  -0.000000
    987         12.069175  -0.000000
    988         12.069288  -0.000000
    989         12.069324  -0.000000
    990         12.069725  -0.000000
    991         12.070176  -0.000000
    992         12.070794  -0.000000
    993         12.101235  -0.000000
    994         12.101298  -0.000000
    995         12.101504  -0.000000
    996         12.101791  -0.000000
    997         12.102467  -0.000000
    998         12.105100  -0.000000
    999         12.108228  -0.000000
   1000         12.117463  -0.000000
 
  0.5000000E+00  0.5000000E+00  0.1262379E-14  0.3750000E+00
      1        -53.883186   1.000000
      2        -53.883049   1.000000
      3        -53.882805   1.000000
      4        -53.882712   1.000000
      5        -53.832791   1.000000
      6        -53.832677   1.000000
      7        -53.832654   1.000000
      8        -53.832541   1.000000
      9        -53.832403   1.000000
     10        -53.832313   1.000000
     11        -53.832303   1.000000
     12        -53.832208   1.000000
     13        -53.786970   1.000000
     14        -53.786959   1.000000
     15        -53.786843   1.000000
     16        -53.786834   1.000000
     17        -53.786736   1.000000
     18        -53.786718   1.000000
     19        -53.786608   1.000000
     20        -53.786595   1.000000
     21        -53.760936   1.000000
     22        -53.760926   1.000000
     23        -53.760825   1.000000
     24        -53.760813   1.000000
     25        -53.760807   1.000000
     26        -53.760795   1.000000
     27        -53.760703   1.000000
     28        -53.760700   1.000000
     29        -53.760689   1.000000
     30        -53.760680   1.000000
     31        -53.760594   1.000000
     32        -53.760573   1.000000
     33        -53.760570   1.000000
     34        -53.760553   1.000000
     35        -53.760466   1.000000
     36        -53.760456   1.000000
     37        -53.739290   1.000000
     38        -53.739273   1.000000
     39        -53.739249   1.000000
     40        -53.739227   1.000000
     41        -53.723800   1.000000
     42        -53.723783   1.000000
     43        -53.723758   1.000000
     44        -53.723739   1.000000
     45        -53.723697   1.000000
     46        -53.723676   1.000000
     47        -53.723656   1.000000
     48        -53.723628   1.000000
     49        -53.721945   1.000000
     50        -53.721943   1.000000
     51        -53.721817   1.000000
     52        -53.721799   1.000000
     53        -53.721567   1.000000
     54        -53.721563   1.000000
     55        -53.721479   1.000000
     56        -53.721463   1.000000
     57        -53.709729   1.000000
     58        -53.709714   1.000000
     59        -53.709700   1.000000
     60        -53.709680   1.000000
     61        -53.709591   1.000000
     62        -53.709581   1.000000
     63        -53.709565   1.000000
     64        -53.709538   1.000000
     65        -53.709354   1.000000
     66        -53.709332   1.000000
     67        -53.709321   1.000000
     68        -53.709297   1.000000
     69        -53.709257   1.000000
     70        -53.709239   1.000000
     71        -53.709220   1.000000
     72        -53.709207   1.000000
     73        -53.698484   1.000000
     74        -53.698481   1.000000
     75        -53.698356   1.000000
     76        -53.698335   1.000000
     77        -53.698104   1.000000
     78        -53.698102   1.000000
     79        -53.698017   1.000000
     80        -53.698003   1.000000
     81        -53.689549   1.000000
     82        -53.689530   1.000000
     83        -53.689505   1.000000
     84        -53.689485   1.000000
     85        -53.688555   1.000000
     86        -53.688539   1.000000
     87        -53.688514   1.000000
     88        -53.688496   1.000000
     89        -53.688445   1.000000
     90        -53.688426   1.000000
     91        -53.688405   1.000000
     92        -53.688378   1.000000
     93        -53.675643   1.000000
     94        -53.675636   1.000000
     95        -53.675536   1.000000
     96        -53.675525   1.000000
     97        -53.675519   1.000000
     98        -53.675508   1.000000
     99        -53.675417   1.000000
    100        -53.675412   1.000000
    101        -53.675404   1.000000
    102        -53.675391   1.000000
    103        -53.675307   1.000000
    104        -53.675290   1.000000
    105        -53.675279   1.000000
    106        -53.675263   1.000000
    107        -53.675178   1.000000
    108        -53.675170   1.000000
    109        -53.666105   1.000000
    110        -53.666095   1.000000
    111        -53.665981   1.000000
    112        -53.665974   1.000000
    113        -53.665872   1.000000
    114        -53.665855   1.000000
    115        -53.665743   1.000000
    116        -53.665731   1.000000
    117        -53.626440   1.000000
    118        -53.626331   1.000000
    119        -53.626304   1.000000
    120        -53.626196   1.000000
    121        -53.626055   1.000000
    122        -53.625965   1.000000
    123        -53.625958   1.000000
    124        -53.625865   1.000000
    125        -53.592136   1.000000
    126        -53.592000   1.000000
    127        -53.591758   1.000000
    128        -53.591664   1.000000
    129        -28.092832   1.000000
    130        -28.092813   1.000000
    131        -28.092789   1.000000
    132        -28.092770   1.000000
    133        -28.062146   1.000000
    134        -28.062137   1.000000
    135        -28.062127   1.000000
    136        -28.062116   1.000000
    137        -28.062007   1.000000
    138        -28.062005   1.000000
    139        -28.061988   1.000000
    140        -28.061981   1.000000
    141        -28.061771   1.000000
    142        -28.061757   1.000000
    143        -28.061750   1.000000
    144        -28.061737   1.000000
    145        -28.061674   1.000000
    146        -28.061670   1.000000
    147        -28.061651   1.000000
    148        -28.061649   1.000000
    149        -28.005065   1.000000
    150        -28.005046   1.000000
    151        -28.005023   1.000000
    152        -28.005004   1.000000
    153        -27.995170   1.000000
    154        -27.995167   1.000000
    155        -27.995141   1.000000
    156        -27.995139   1.000000
    157        -27.995054   1.000000
    158        -27.995045   1.000000
    159        -27.995028   1.000000
    160        -27.995019   1.000000
    161        -27.994944   1.000000
    162        -27.994935   1.000000
    163        -27.994917   1.000000
    164        -27.994908   1.000000
    165        -27.994825   1.000000
    166        -27.994819   1.000000
    167        -27.994797   1.000000
    168        -27.994793   1.000000
    169        -27.962062   1.000000
    170        -27.962058   1.000000
    171        -27.961960   1.000000
    172        -27.961957   1.000000
    173        -27.961939   1.000000
    174        -27.961937   1.000000
    175        -27.961842   1.000000
    176        -27.961838   1.000000
    177        -27.961693   1.000000
    178        -27.961689   1.000000
    179        -27.961611   1.000000
    180        -27.961608   1.000000
    181        -27.961597   1.000000
    182        -27.961593   1.000000
    183        -27.961511   1.000000
    184        -27.961509   1.000000
    185        -27.914544   1.000000
    186        -27.914514   1.000000
    187        -27.914459   1.000000
    188        -27.914429   1.000000
    189        -27.914291   1.000000
    190        -27.914269   1.000000
    191        -27.914222   1.000000
    192        -27.914198   1.000000
    193        -27.893847   1.000000
    194        -27.893837   1.000000
    195        -27.893797   1.000000
    196        -27.893783   1.000000
    197        -27.893757   1.000000
    198        -27.893742   1.000000
    199        -27.893695   1.000000
    200        -27.893687   1.000000
    201        -27.890036   1.000000
    202        -27.890030   1.000000
    203        -27.889981   1.000000
    204        -27.889962   1.000000
    205        -27.889844   1.000000
    206        -27.889843   1.000000
    207        -27.889790   1.000000
    208        -27.889777   1.000000
    209        -27.887257   1.000000
    210        -27.887239   1.000000
    211        -27.887215   1.000000
    212        -27.887197   1.000000
    213        -27.868971   1.000000
    214        -27.868967   1.000000
    215        -27.868942   1.000000
    216        -27.868939   1.000000
    217        -27.868865   1.000000
    218        -27.868860   1.000000
    219        -27.868839   1.000000
    220        -27.868829   1.000000
    221        -27.868769   1.000000
    222        -27.868764   1.000000
    223        -27.868743   1.000000
    224        -27.868733   1.000000
    225        -27.868662   1.000000
    226        -27.868657   1.000000
    227        -27.868633   1.000000
    228        -27.868629   1.000000
    229        -27.861169   1.000000
    230        -27.861164   1.000000
    231        -27.861091   1.000000
    232        -27.861074   1.000000
    233        -27.860920   1.000000
    234        -27.860920   1.000000
    235        -27.860856   1.000000
    236        -27.860843   1.000000
    237        -27.795492   1.000000
    238        -27.795353   1.000000
    239        -27.795107   1.000000
    240        -27.795013   1.000000
    241        -27.784405   1.000000
    242        -27.784388   1.000000
    243        -27.784364   1.000000
    244        -27.784347   1.000000
    245        -27.784296   1.000000
    246        -27.784275   1.000000
    247        -27.784254   1.000000
    248        -27.784232   1.000000
    249        -27.755958   1.000000
    250        -27.755939   1.000000
    251        -27.755916   1.000000
    252        -27.755896   1.000000
    253        -27.712763   1.000000
    254        -27.712756   1.000000
    255        -27.712740   1.000000
    256        -27.712729   1.000000
    257        -27.712715   1.000000
    258        -27.712704   1.000000
    259        -27.712693   1.000000
    260        -27.712673   1.000000
    261        -27.677188   1.000000
    262        -27.677181   1.000000
    263        -27.677135   1.000000
    264        -27.677124   1.000000
    265        -27.677098   1.000000
    266        -27.677083   1.000000
    267        -27.677039   1.000000
    268        -27.677033   1.000000
    269        -27.663609   1.000000
    270        -27.663598   1.000000
    271        -27.663534   1.000000
    272        -27.663532   1.000000
    273        -27.663530   1.000000
    274        -27.663518   1.000000
    275        -27.663477   1.000000
    276        -27.663466   1.000000
    277        -27.663463   1.000000
    278        -27.663453   1.000000
    279        -27.663405   1.000000
    280        -27.663404   1.000000
    281        -27.663390   1.000000
    282        -27.663387   1.000000
    283        -27.663335   1.000000
    284        -27.663326   1.000000
    285        -27.650022   1.000000
    286        -27.650016   1.000000
    287        -27.650001   1.000000
    288        -27.650000   1.000000
    289        -27.649976   1.000000
    290        -27.649975   1.000000
    291        -27.649960   1.000000
    292        -27.649955   1.000000
    293        -27.630884   1.000000
    294        -27.630871   1.000000
    295        -27.630756   1.000000
    296        -27.630746   1.000000
    297        -27.630649   1.000000
    298        -27.630628   1.000000
    299        -27.630519   1.000000
    300        -27.630504   1.000000
    301        -27.581820   1.000000
    302        -27.581815   1.000000
    303        -27.581758   1.000000
    304        -27.581754   1.000000
    305        -27.581629   1.000000
    306        -27.581625   1.000000
    307        -27.581570   1.000000
    308        -27.581565   1.000000
    309        -27.576328   1.000000
    310        -27.576295   1.000000
    311        -27.576289   1.000000
    312        -27.576255   1.000000
    313        -27.576212   1.000000
    314        -27.576170   1.000000
    315        -27.576164   1.000000
    316        -27.576122   1.000000
    317        -27.554683   1.000000
    318        -27.554666   1.000000
    319        -27.554642   1.000000
    320        -27.554620   1.000000
    321        -27.548598   1.000000
    322        -27.548591   1.000000
    323        -27.548549   1.000000
    324        -27.548536   1.000000
    325        -27.548515   1.000000
    326        -27.548497   1.000000
    327        -27.548457   1.000000
    328        -27.548451   1.000000
    329        -27.543230   1.000000
    330        -27.543225   1.000000
    331        -27.543210   1.000000
    332        -27.543209   1.000000
    333        -27.543184   1.000000
    334        -27.543184   1.000000
    335        -27.543170   1.000000
    336        -27.543164   1.000000
    337        -27.535405   1.000000
    338        -27.535401   1.000000
    339        -27.535399   1.000000
    340        -27.535397   1.000000
    341        -27.535287   1.000000
    342        -27.535281   1.000000
    343        -27.535268   1.000000
    344        -27.535260   1.000000
    345        -27.535059   1.000000
    346        -27.535056   1.000000
    347        -27.535048   1.000000
    348        -27.535046   1.000000
    349        -27.534979   1.000000
    350        -27.534970   1.000000
    351        -27.534965   1.000000
    352        -27.534956   1.000000
    353        -27.495505   1.000000
    354        -27.495493   1.000000
    355        -27.495474   1.000000
    356        -27.495460   1.000000
    357        -27.495440   1.000000
    358        -27.495424   1.000000
    359        -27.495409   1.000000
    360        -27.495388   1.000000
    361        -27.462364   1.000000
    362        -27.462346   1.000000
    363        -27.462322   1.000000
    364        -27.462300   1.000000
    365        -27.436761   1.000000
    366        -27.436753   1.000000
    367        -27.436676   1.000000
    368        -27.436669   1.000000
    369        -27.436666   1.000000
    370        -27.436665   1.000000
    371        -27.436594   1.000000
    372        -27.436593   1.000000
    373        -27.436583   1.000000
    374        -27.436578   1.000000
    375        -27.436513   1.000000
    376        -27.436502   1.000000
    377        -27.436497   1.000000
    378        -27.436488   1.000000
    379        -27.436424   1.000000
    380        -27.436418   1.000000
    381        -27.432532   1.000000
    382        -27.432528   1.000000
    383        -27.432484   1.000000
    384        -27.432472   1.000000
    385        -27.432366   1.000000
    386        -27.432364   1.000000
    387        -27.432314   1.000000
    388        -27.432305   1.000000
    389        -27.409172   1.000000
    390        -27.409162   1.000000
    391        -27.409046   1.000000
    392        -27.409038   1.000000
    393        -27.408938   1.000000
    394        -27.408920   1.000000
    395        -27.408809   1.000000
    396        -27.408797   1.000000
    397        -27.381012   1.000000
    398        -27.381005   1.000000
    399        -27.380988   1.000000
    400        -27.380985   1.000000
    401        -27.380928   1.000000
    402        -27.380927   1.000000
    403        -27.380909   1.000000
    404        -27.380899   1.000000
    405        -27.380860   1.000000
    406        -27.380858   1.000000
    407        -27.380840   1.000000
    408        -27.380831   1.000000
    409        -27.380780   1.000000
    410        -27.380775   1.000000
    411        -27.380757   1.000000
    412        -27.380749   1.000000
    413        -27.377321   1.000000
    414        -27.377314   1.000000
    415        -27.377289   1.000000
    416        -27.377280   1.000000
    417        -27.377203   1.000000
    418        -27.377197   1.000000
    419        -27.377157   1.000000
    420        -27.377150   1.000000
    421        -27.357086   1.000000
    422        -27.357068   1.000000
    423        -27.357046   1.000000
    424        -27.357027   1.000000
    425        -27.345809   1.000000
    426        -27.345791   1.000000
    427        -27.345766   1.000000
    428        -27.345749   1.000000
    429        -27.345708   1.000000
    430        -27.345687   1.000000
    431        -27.345665   1.000000
    432        -27.345644   1.000000
    433        -27.324398   1.000000
    434        -27.324390   1.000000
    435        -27.324350   1.000000
    436        -27.324337   1.000000
    437        -27.324314   1.000000
    438        -27.324298   1.000000
    439        -27.324257   1.000000
    440        -27.324250   1.000000
    441        -27.322603   1.000000
    442        -27.322594   1.000000
    443        -27.322581   1.000000
    444        -27.322573   1.000000
    445        -27.322547   1.000000
    446        -27.322536   1.000000
    447        -27.322524   1.000000
    448        -27.322513   1.000000
    449        -27.317630   1.000000
    450        -27.317612   1.000000
    451        -27.317589   1.000000
    452        -27.317571   1.000000
    453        -27.311260   1.000000
    454        -27.311243   1.000000
    455        -27.311219   1.000000
    456        -27.311201   1.000000
    457        -27.311158   1.000000
    458        -27.311138   1.000000
    459        -27.311115   1.000000
    460        -27.311095   1.000000
    461        -27.270112   1.000000
    462        -27.270103   1.000000
    463        -27.270092   1.000000
    464        -27.270082   1.000000
    465        -27.269981   1.000000
    466        -27.269979   1.000000
    467        -27.269961   1.000000
    468        -27.269957   1.000000
    469        -27.269761   1.000000
    470        -27.269747   1.000000
    471        -27.269738   1.000000
    472        -27.269726   1.000000
    473        -27.269671   1.000000
    474        -27.269668   1.000000
    475        -27.269648   1.000000
    476        -27.269646   1.000000
    477        -27.265376   1.000000
    478        -27.265372   1.000000
    479        -27.265365   1.000000
    480        -27.265363   1.000000
    481        -27.265271   1.000000
    482        -27.265263   1.000000
    483        -27.265260   1.000000
    484        -27.265254   1.000000
    485        -27.265170   1.000000
    486        -27.265161   1.000000
    487        -27.265157   1.000000
    488        -27.265149   1.000000
    489        -27.265060   1.000000
    490        -27.265056   1.000000
    491        -27.265047   1.000000
    492        -27.265043   1.000000
    493        -27.260434   1.000000
    494        -27.260298   1.000000
    495        -27.260055   1.000000
    496        -27.259963   1.000000
    497        -27.250539   1.000000
    498        -27.250532   1.000000
    499        -27.250485   1.000000
    500        -27.250478   1.000000
    501        -27.250373   1.000000
    502        -27.250359   1.000000
    503        -27.250317   1.000000
    504        -27.250304   1.000000
    505        -27.222628   1.000000
    506        -27.222609   1.000000
    507        -27.222586   1.000000
    508        -27.222567   1.000000
    509        -27.218109   1.000000
    510        -27.218090   1.000000
    511        -27.218067   1.000000
    512        -27.218048   1.000000
    513          3.796274   1.000000
    514          3.796422   1.000000
    515          3.796682   1.000000
    516          3.796779   1.000000
    517          4.905671   1.000000
    518          4.905816   1.000000
    519          4.905821   1.000000
    520          4.905965   1.000000
    521          4.906084   1.000000
    522          4.906175   1.000000
    523          4.906210   1.000000
    524          4.906310   1.000000
    525          5.820960   1.000000
    526          5.820981   1.000000
    527          5.821092   1.000000
    528          5.821102   1.000000
    529          5.821194   1.000000
    530          5.821224   1.000000
    531          5.821326   1.000000
    532          5.821349   1.000000
    533          6.457307   1.000000
    534          6.457323   1.000000
    535          6.457420   1.000000
    536          6.457436   1.000000
    537          6.457445   1.000000
    538          6.457451   1.000000
    539          6.457548   1.000000
    540          6.457554   1.000000
    541          6.457557   1.000000
    542          6.457574   1.000000
    543          6.457660   1.000000
    544          6.457680   1.000000
    545          6.457689   1.000000
    546          6.457706   1.000000
    547          6.457787   1.000000
    548          6.457803   1.000000
    549          6.477155   1.000000
    550          6.477168   1.000000
    551          6.477187   1.000000
    552          6.477205   1.000000
    553          6.960236   1.000000
    554          6.960239   1.000000
    555          6.960250   1.000000
    556          6.960254   1.000000
    557          6.960370   1.000000
    558          6.960380   1.000000
    559          6.960390   1.000000
    560          6.960392   1.000000
    561          6.960618   1.000000
    562          6.960620   1.000000
    563          6.960635   1.000000
    564          6.960638   1.000000
    565          6.960714   1.000000
    566          6.960716   1.000000
    567          6.960723   1.000000
    568          6.960732   1.000000
    569          7.008937   1.000000
    570          7.008957   1.000000
    571          7.008983   1.000000
    572          7.009004   1.000000
    573          7.079389   1.000000
    574          7.079530   1.000000
    575          7.079781   1.000000
    576          7.079876   1.000000
    577          7.092225   1.000000
    578          7.092226   1.000000
    579          7.092354   1.000000
    580          7.092356   1.000000
    581          7.092587   1.000000
    582          7.092587   1.000000
    583          7.092675   1.000000
    584          7.092677   1.000000
    585          7.126550   1.000000
    586          7.126690   1.000000
    587          7.126938   1.000000
    588          7.127032   1.000000
    589          7.522009   1.000000
    590          7.522021   1.000000
    591          7.522036   1.000000
    592          7.522057   1.000000
    593          7.522138   1.000000
    594          7.522154   1.000000
    595          7.522169   1.000000
    596          7.522187   1.000000
    597          7.550902   1.000000
    598          7.550909   1.000000
    599          7.551019   1.000000
    600          7.551023   1.000000
    601          7.551124   1.000000
    602          7.551134   1.000000
    603          7.551240   1.000000
    604          7.551248   1.000000
    605          7.629284   1.000000
    606          7.629288   1.000000
    607          7.629356   1.000000
    608          7.629364   1.000000
    609          7.629409   1.000000
    610          7.629417   1.000000
    611          7.629473   1.000000
    612          7.629488   1.000000
    613          7.629525   1.000000
    614          7.629533   1.000000
    615          7.629591   1.000000
    616          7.629604   1.000000
    617          7.629652   1.000000
    618          7.629661   1.000000
    619          7.629716   1.000000
    620          7.629725   1.000000
    621          7.660674   1.000000
    622          7.660782   1.000000
    623          7.660815   1.000000
    624          7.660922   1.000000
    625          7.661074   1.000000
    626          7.661162   1.000000
    627          7.661169   1.000000
    628          7.661263   1.000000
    629          7.668894   1.000000
    630          7.669028   1.000000
    631          7.669030   1.000000
    632          7.669164   1.000000
    633          7.669279   1.000000
    634          7.669367   1.000000
    635          7.669395   1.000000
    636          7.669490   1.000000
    637          7.829170   1.000000
    638          7.829185   1.000000
    639          7.829204   1.000000
    640          7.829221   1.000000
    641          7.829267   1.000000
    642          7.829287   1.000000
    643          7.829303   1.000000
    644          7.829324   1.000000
    645          8.163266   1.000000
    646          8.163280   1.000000
    647          8.163285   1.000000
    648          8.163286   1.000000
    649          8.163310   1.000000
    650          8.163326   1.000000
    651          8.163347   1.000000
    652          8.163348   1.000000
    653          8.289526   1.000000
    654          8.289545   1.000000
    655          8.289645   1.000000
    656          8.289655   1.000000
    657          8.289747   1.000000
    658          8.289772   1.000000
    659          8.289866   1.000000
    660          8.289885   1.000000
    661          8.613251   1.000000
    662          8.613253   1.000000
    663          8.613269   1.000000
    664          8.613271   1.000000
    665          8.613295   1.000000
    666          8.613295   1.000000
    667          8.613321   1.000000
    668          8.613322   1.000000
    669          8.626635   1.000000
    670          8.626654   1.000000
    671          8.626679   1.000000
    672          8.626696   1.000000
    673          8.626716   1.000000
    674          8.626737   1.000000
    675          8.626760   1.000000
    676          8.626781   1.000000
    677          8.691884   1.000000
    678          8.691898   1.000000
    679          8.691916   1.000000
    680          8.691926   1.000000
    681          8.691929   1.000000
    682          8.691942   1.000000
    683          8.691960   1.000000
    684          8.691973   1.000000
    685          8.735370   1.000000
    686          8.735384   1.000000
    687          8.735468   1.000000
    688          8.735481   1.000000
    689          8.735490   1.000000
    690          8.735504   1.000000
    691          8.735544   1.000000
    692          8.735567   1.000000
    693          8.735582   1.000000
    694          8.735596   1.000000
    695          8.735648   1.000000
    696          8.735659   1.000000
    697          8.735662   1.000000
    698          8.735683   1.000000
    699          8.735755   1.000000
    700          8.735773   1.000000
    701          8.739441   1.000000
    702          8.739447   1.000000
    703          8.739461   1.000000
    704          8.739465   1.000000
    705          8.739567   1.000000
    706          8.739576   1.000000
    707          8.739596   1.000000
    708          8.739599   1.000000
    709          8.739801   1.000000
    710          8.739807   1.000000
    711          8.739829   1.000000
    712          8.739832   1.000000
    713          8.739898   1.000000
    714          8.739900   1.000000
    715          8.739913   1.000000
    716          8.739920   1.000000
    717          8.853043   1.000000
    718          8.853063   1.000000
    719          8.853088   1.000000
    720          8.853108   1.000000
    721          8.898401   1.000000
    722          8.898406   1.000000
    723          8.898490   1.000000
    724          8.898507   1.000000
    725          8.898677   1.000000
    726          8.898678   1.000000
    727          8.898745   1.000000
    728          8.898758   1.000000
    729          9.035834   1.000001
    730          9.035836   1.000001
    731          9.035943   1.000001
    732          9.035949   1.000001
    733          9.036146   1.000001
    734          9.036150   1.000001
    735          9.036226   1.000001
    736          9.036229   1.000001
    737          9.056790   1.000002
    738          9.056792   1.000002
    739          9.056848   1.000002
    740          9.056851   1.000002
    741          9.056869   1.000002
    742          9.056883   1.000002
    743          9.056931   1.000002
    744          9.056936   1.000002
    745          9.056941   1.000002
    746          9.056955   1.000002
    747          9.057004   1.000002
    748          9.057007   1.000002
    749          9.057029   1.000002
    750          9.057036   1.000002
    751          9.057088   1.000002
    752          9.057091   1.000002
    753          9.116192   1.000012
    754          9.116205   1.000012
    755          9.116219   1.000012
    756          9.116228   1.000012
    757          9.116247   1.000012
    758          9.116260   1.000012
    759          9.116273   1.000012
    760          9.116285   1.000012
    761          9.155704   1.000040
    762          9.155725   1.000040
    763          9.155751   1.000040
    764          9.155772   1.000040
    765          9.309824   1.001962
    766          9.309839   1.001963
    767          9.309855   1.001963
    768          9.309865   1.001964
    769          9.309899   1.001965
    770          9.309915   1.001966
    771          9.309930   1.001966
    772          9.309941   1.001967
    773          9.432008   1.015725
    774          9.432017   1.015727
    775          9.432025   1.015729
    776          9.432033   1.015730
    777          9.432074   1.015739
    778          9.432083   1.015741
    779          9.432092   1.015742
    780          9.432102   1.015744
    781          9.432137   1.015751
    782          9.432140   1.015752
    783          9.432155   1.015755
    784          9.432159   1.015756
    785          9.432202   1.015765
    786          9.432209   1.015766
    787          9.432221   1.015768
    788          9.432230   1.015770
    789          9.511773   1.032865
    790          9.511781   1.032866
    791          9.511795   1.032869
    792          9.511798   1.032869
    793          9.511826   1.032873
    794          9.511840   1.032876
    795          9.511850   1.032877
    796          9.511854   1.032878
    797          9.511875   1.032881
    798          9.511889   1.032884
    799          9.511898   1.032885
    800          9.511905   1.032886
    801          9.511936   1.032891
    802          9.511938   1.032892
    803          9.511953   1.032894
    804          9.511962   1.032895
    805          9.640652   0.967951
    806          9.640682   0.967903
    807          9.640701   0.967871
    808          9.640730   0.967824
    809          9.640811   0.967692
    810          9.640834   0.967655
    811          9.640862   0.967608
    812          9.640886   0.967569
    813          9.679131   0.886925
    814          9.679142   0.886896
    815          9.679189   0.886777
    816          9.679199   0.886748
    817          9.679213   0.886712
    818          9.679223   0.886687
    819          9.679258   0.886597
    820          9.679293   0.886506
    821          9.730751   0.722088
    822          9.730756   0.722072
    823          9.730769   0.722023
    824          9.730771   0.722016
    825          9.730791   0.721941
    826          9.730792   0.721938
    827          9.730805   0.721887
    828          9.730809   0.721871
    829          9.797837   0.447651
    830          9.797851   0.447591
    831          9.797897   0.447398
    832          9.797912   0.447334
    833          9.797941   0.447213
    834          9.797959   0.447136
    835          9.798005   0.446943
    836          9.798017   0.446891
    837          9.812130   0.388167
    838          9.812143   0.388115
    839          9.812152   0.388078
    840          9.812155   0.388064
    841          9.903420   0.084567
    842          9.903425   0.084555
    843          9.903441   0.084519
    844          9.903461   0.084472
    845          9.903514   0.084351
    846          9.903515   0.084347
    847          9.903543   0.084284
    848          9.903557   0.084253
    849          9.946764   0.008277
    850          9.946782   0.008254
    851          9.946804   0.008226
    852          9.946825   0.008200
    853         10.118077  -0.020178
    854         10.118201  -0.020150
    855         10.118422  -0.020100
    856         10.118506  -0.020081
    857         10.203130  -0.005945
    858         10.203135  -0.005945
    859         10.203154  -0.005943
    860         10.203157  -0.005942
    861         10.203210  -0.005937
    862         10.203219  -0.005936
    863         10.203241  -0.005934
    864         10.203257  -0.005932
    865         10.203379  -0.005919
    866         10.203381  -0.005919
    867         10.203415  -0.005916
    868         10.203416  -0.005916
    869         10.203450  -0.005912
    870         10.203465  -0.005911
    871         10.203477  -0.005909
    872         10.203482  -0.005909
    873         10.305349  -0.000734
    874         10.305363  -0.000734
    875         10.305377  -0.000733
    876         10.305383  -0.000733
    877         10.647374  -0.000000
    878         10.647394  -0.000000
    879         10.647420  -0.000000
    880         10.647441  -0.000000
    881         10.654175  -0.000000
    882         10.654185  -0.000000
    883         10.654240  -0.000000
    884         10.654250  -0.000000
    885         10.654289  -0.000000
    886         10.654302  -0.000000
    887         10.654356  -0.000000
    888         10.654364  -0.000000
    889         10.667903  -0.000000
    890         10.667908  -0.000000
    891         10.667918  -0.000000
    892         10.667923  -0.000000
    893         10.667963  -0.000000
    894         10.667970  -0.000000
    895         10.667992  -0.000000
    896         10.667999  -0.000000
    897         11.059953  -0.000000
    898         11.059956  -0.000000
    899         11.059970  -0.000000
    900         11.059976  -0.000000
    901         11.059983  -0.000000
    902         11.059988  -0.000000
    903         11.060002  -0.000000
    904         11.060005  -0.000000
    905         11.185915  -0.000000
    906         11.185918  -0.000000
    907         11.185944  -0.000000
    908         11.185946  -0.000000
    909         11.186021  -0.000000
    910         11.186026  -0.000000
    911         11.186069  -0.000000
    912         11.186069  -0.000000
    913         11.249105  -0.000000
    914         11.249107  -0.000000
    915         11.249189  -0.000000
    916         11.249197  -0.000000
    917         11.249265  -0.000000
    918         11.249272  -0.000000
    919         11.249353  -0.000000
    920         11.249357  -0.000000
    921         11.560068  -0.000000
    922         11.560088  -0.000000
    923         11.560121  -0.000000
    924         11.560140  -0.000000
    925         11.560237  -0.000000
    926         11.560247  -0.000000
    927         11.560289  -0.000000
    928         11.560302  -0.000000
    929         11.687269  -0.000000
    930         11.687283  -0.000000
    931         11.687303  -0.000000
    932         11.687319  -0.000000
    933         11.687471  -0.000000
    934         11.687473  -0.000000
    935         11.687481  -0.000000
    936         11.687485  -0.000000
    937         11.687554  -0.000000
    938         11.687556  -0.000000
    939         11.687563  -0.000000
    940         11.687569  -0.000000
    941         11.687633  -0.000000
    942         11.687636  -0.000000
    943         11.687643  -0.000000
    944         11.687648  -0.000000
    945         11.687718  -0.000000
    946         11.687721  -0.000000
    947         11.687730  -0.000000
    948         11.687733  -0.000000
    949         11.714181  -0.000000
    950         11.714251  -0.000000
    951         11.714296  -0.000000
    952         11.714365  -0.000000
    953         11.714482  -0.000000
    954         11.714490  -0.000000
    955         11.714512  -0.000000
    956         11.714532  -0.000000
    957         11.714547  -0.000000
    958         11.714569  -0.000000
    959         11.714570  -0.000000
    960         11.714589  -0.000000
    961         11.714596  -0.000000
    962         11.714628  -0.000000
    963         11.714635  -0.000000
    964         11.714657  -0.000000
    965         11.833726  -0.000000
    966         11.833727  -0.000000
    967         11.833782  -0.000000
    968         11.833785  -0.000000
    969         11.833829  -0.000000
    970         11.833834  -0.000000
    971         11.833882  -0.000000
    972         11.833889  -0.000000
    973         11.833925  -0.000000
    974         11.833931  -0.000000
    975         11.833980  -0.000000
    976         11.833986  -0.000000
    977         11.834031  -0.000000
    978         11.834035  -0.000000
    979         11.834084  -0.000000
    980         11.834087  -0.000000
    981         11.970226  -0.000000
    982         11.970351  -0.000000
    983         11.970573  -0.000000
    984         11.970657  -0.000000
    985         12.127506  -0.000000
    986         12.127527  -0.000000
    987         12.127549  -0.000000
    988         12.127614  -0.000000
    989         12.127636  -0.000000
    990         12.127661  -0.000000
    991         12.127700  -0.000000
    992         12.127809  -0.000000
    993         12.127883  -0.000000
    994         12.127892  -0.000000
    995         12.127928  -0.000000
    996         12.127939  -0.000000
    997         12.131389  -0.000000
    998         12.134180  -0.000000
    999         12.140678  -0.000000
   1000         12.147952  -0.000000
 
  0.5000000E+00  0.5000000E+00  0.5000000E+00  0.1250000E+00
      1        -53.869744   1.000000
      2        -53.869701   1.000000
      3        -53.869648   1.000000
      4        -53.869504   1.000000
      5        -53.869393   1.000000
      6        -53.869336   1.000000
      7        -53.869265   1.000000
      8        -53.869111   1.000000
      9        -53.780008   1.000000
     10        -53.779989   1.000000
     11        -53.779958   1.000000
     12        -53.779936   1.000000
     13        -53.779882   1.000000
     14        -53.779855   1.000000
     15        -53.779844   1.000000
     16        -53.779837   1.000000
     17        -53.779808   1.000000
     18        -53.779784   1.000000
     19        -53.779756   1.000000
     20        -53.779748   1.000000
     21        -53.779731   1.000000
     22        -53.779719   1.000000
     23        -53.779636   1.000000
     24        -53.779627   1.000000
     25        -53.779584   1.000000
     26        -53.779575   1.000000
     27        -53.779566   1.000000
     28        -53.779545   1.000000
     29        -53.779488   1.000000
     30        -53.779464   1.000000
     31        -53.779438   1.000000
     32        -53.779410   1.000000
     33        -53.735515   1.000000
     34        -53.735502   1.000000
     35        -53.735454   1.000000
     36        -53.735439   1.000000
     37        -53.735414   1.000000
     38        -53.735395   1.000000
     39        -53.735387   1.000000
     40        -53.735349   1.000000
     41        -53.735333   1.000000
     42        -53.735316   1.000000
     43        -53.735290   1.000000
     44        -53.735279   1.000000
     45        -53.735270   1.000000
     46        -53.735264   1.000000
     47        -53.735231   1.000000
     48        -53.735214   1.000000
     49        -53.735208   1.000000
     50        -53.735189   1.000000
     51        -53.735168   1.000000
     52        -53.735153   1.000000
     53        -53.735116   1.000000
     54        -53.735100   1.000000
     55        -53.735047   1.000000
     56        -53.735045   1.000000
     57        -53.709930   1.000000
     58        -53.709920   1.000000
     59        -53.709866   1.000000
     60        -53.709860   1.000000
     61        -53.709823   1.000000
     62        -53.709807   1.000000
     63        -53.709746   1.000000
     64        -53.709745   1.000000
     65        -53.691396   1.000000
     66        -53.691387   1.000000
     67        -53.691330   1.000000
     68        -53.691326   1.000000
     69        -53.691288   1.000000
     70        -53.691274   1.000000
     71        -53.691213   1.000000
     72        -53.691203   1.000000
     73        -53.689093   1.000000
     74        -53.689080   1.000000
     75        -53.689030   1.000000
     76        -53.689018   1.000000
     77        -53.689004   1.000000
     78        -53.688982   1.000000
     79        -53.688975   1.000000
     80        -53.688936   1.000000
     81        -53.688920   1.000000
     82        -53.688903   1.000000
     83        -53.688877   1.000000
     84        -53.688866   1.000000
     85        -53.688858   1.000000
     86        -53.688852   1.000000
     87        -53.688813   1.000000
     88        -53.688800   1.000000
     89        -53.688791   1.000000
     90        -53.688775   1.000000
     91        -53.688752   1.000000
     92        -53.688728   1.000000
     93        -53.688691   1.000000
     94        -53.688678   1.000000
     95        -53.688625   1.000000
     96        -53.688618   1.000000
     97        -53.668308   1.000000
     98        -53.668290   1.000000
     99        -53.668259   1.000000
    100        -53.668237   1.000000
    101        -53.668183   1.000000
    102        -53.668156   1.000000
    103        -53.668145   1.000000
    104        -53.668139   1.000000
    105        -53.668110   1.000000
    106        -53.668088   1.000000
    107        -53.668060   1.000000
    108        -53.668052   1.000000
    109        -53.668035   1.000000
    110        -53.668023   1.000000
    111        -53.667938   1.000000
    112        -53.667929   1.000000
    113        -53.667886   1.000000
    114        -53.667876   1.000000
    115        -53.667867   1.000000
    116        -53.667847   1.000000
    117        -53.667791   1.000000
    118        -53.667767   1.000000
    119        -53.667738   1.000000
    120        -53.667712   1.000000
    121        -53.600969   1.000000
    122        -53.600925   1.000000
    123        -53.600874   1.000000
    124        -53.600729   1.000000
    125        -53.600621   1.000000
    126        -53.600564   1.000000
    127        -53.600493   1.000000
    128        -53.600339   1.000000
    129        -28.058781   1.000000
    130        -28.058767   1.000000
    131        -28.058712   1.000000
    132        -28.058700   1.000000
    133        -28.058679   1.000000
    134        -28.058664   1.000000
    135        -28.058649   1.000000
    136        -28.058634   1.000000
    137        -28.058612   1.000000
    138        -28.058591   1.000000
    139        -28.058562   1.000000
    140        -28.058549   1.000000
    141        -28.058545   1.000000
    142        -28.058540   1.000000
    143        -28.058509   1.000000
    144        -28.058492   1.000000
    145        -28.058481   1.000000
    146        -28.058458   1.000000
    147        -28.058445   1.000000
    148        -28.058438   1.000000
    149        -28.058400   1.000000
    150        -28.058398   1.000000
    151        -28.058335   1.000000
    152        -28.058331   1.000000
    153        -27.992399   1.000000
    154        -27.992387   1.000000
    155        -27.992337   1.000000
    156        -27.992326   1.000000
    157        -27.992301   1.000000
    158        -27.992291   1.000000
    159        -27.992263   1.000000
    160        -27.992254   1.000000
    161        -27.992238   1.000000
    162        -27.992217   1.000000
    163        -27.992189   1.000000
    164        -27.992178   1.000000
    165        -27.992168   1.000000
    166        -27.992165   1.000000
    167        -27.992136   1.000000
    168        -27.992123   1.000000
    169        -27.992113   1.000000
    170        -27.992089   1.000000
    171        -27.992074   1.000000
    172        -27.992070   1.000000
    173        -27.992029   1.000000
    174        -27.992024   1.000000
    175        -27.991970   1.000000
    176        -27.991966   1.000000
    177        -27.930158   1.000000
    178        -27.930156   1.000000
    179        -27.930139   1.000000
    180        -27.930128   1.000000
    181        -27.930119   1.000000
    182        -27.930117   1.000000
    183        -27.930100   1.000000
    184        -27.930095   1.000000
    185        -27.920587   1.000000
    186        -27.920577   1.000000
    187        -27.920567   1.000000
    188        -27.920548   1.000000
    189        -27.920505   1.000000
    190        -27.920484   1.000000
    191        -27.920476   1.000000
    192        -27.920474   1.000000
    193        -27.920470   1.000000
    194        -27.920464   1.000000
    195        -27.920421   1.000000
    196        -27.920411   1.000000
    197        -27.920408   1.000000
    198        -27.920396   1.000000
    199        -27.920341   1.000000
    200        -27.920329   1.000000
    201        -27.920315   1.000000
    202        -27.920310   1.000000
    203        -27.920295   1.000000
    204        -27.920292   1.000000
    205        -27.920245   1.000000
    206        -27.920236   1.000000
    207        -27.920219   1.000000
    208        -27.920206   1.000000
    209        -27.860696   1.000000
    210        -27.860682   1.000000
    211        -27.860651   1.000000
    212        -27.860636   1.000000
    213        -27.860600   1.000000
    214        -27.860552   1.000000
    215        -27.860531   1.000000
    216        -27.860476   1.000000
    217        -27.860453   1.000000
    218        -27.860419   1.000000
    219        -27.860376   1.000000
    220        -27.860311   1.000000
    221        -27.860308   1.000000
    222        -27.860294   1.000000
    223        -27.860227   1.000000
    224        -27.860224   1.000000
    225        -27.818154   1.000000
    226        -27.818146   1.000000
    227        -27.818135   1.000000
    228        -27.818125   1.000000
    229        -27.818120   1.000000
    230        -27.818118   1.000000
    231        -27.818091   1.000000
    232        -27.818084   1.000000
    233        -27.818079   1.000000
    234        -27.818072   1.000000
    235        -27.818033   1.000000
    236        -27.818028   1.000000
    237        -27.818021   1.000000
    238        -27.818017   1.000000
    239        -27.818007   1.000000
    240        -27.818007   1.000000
    241        -27.739059   1.000000
    242        -27.739051   1.000000
    243        -27.739029   1.000000
    244        -27.739005   1.000000
    245        -27.738985   1.000000
    246        -27.738956   1.000000
    247        -27.738949   1.000000
    248        -27.738935   1.000000
    249        -27.738925   1.000000
    250        -27.738913   1.000000
    251        -27.738894   1.000000
    252        -27.738890   1.000000
    253        -27.738861   1.000000
    254        -27.738854   1.000000
    255        -27.738821   1.000000
    256        -27.738815   1.000000
    257        -27.738804   1.000000
    258        -27.738778   1.000000
    259        -27.738771   1.000000
    260        -27.738754   1.000000
    261        -27.738728   1.000000
    262        -27.738705   1.000000
    263        -27.738695   1.000000
    264        -27.738673   1.000000
    265        -27.677800   1.000000
    266        -27.677745   1.000000
    267        -27.677723   1.000000
    268        -27.677699   1.000000
    269        -27.677659   1.000000
    270        -27.677612   1.000000
    271        -27.677599   1.000000
    272        -27.677580   1.000000
    273        -27.672563   1.000000
    274        -27.672557   1.000000
    275        -27.672548   1.000000
    276        -27.672541   1.000000
    277        -27.672538   1.000000
    278        -27.672534   1.000000
    279        -27.672530   1.000000
    280        -27.672523   1.000000
    281        -27.672518   1.000000
    282        -27.672512   1.000000
    283        -27.672500   1.000000
    284        -27.672489   1.000000
    285        -27.672483   1.000000
    286        -27.672477   1.000000
    287        -27.672464   1.000000
    288        -27.672454   1.000000
    289        -27.672449   1.000000
    290        -27.672445   1.000000
    291        -27.672441   1.000000
    292        -27.672435   1.000000
    293        -27.672425   1.000000
    294        -27.672423   1.000000
    295        -27.672417   1.000000
    296        -27.672414   1.000000
    297        -27.605535   1.000000
    298        -27.605519   1.000000
    299        -27.605481   1.000000
    300        -27.605470   1.000000
    301        -27.605458   1.000000
    302        -27.605440   1.000000
    303        -27.605433   1.000000
    304        -27.605422   1.000000
    305        -27.605402   1.000000
    306        -27.605387   1.000000
    307        -27.605364   1.000000
    308        -27.605360   1.000000
    309        -27.605351   1.000000
    310        -27.605336   1.000000
    311        -27.605324   1.000000
    312        -27.605313   1.000000
    313        -27.605300   1.000000
    314        -27.605278   1.000000
    315        -27.605275   1.000000
    316        -27.605264   1.000000
    317        -27.605245   1.000000
    318        -27.605234   1.000000
    319        -27.605188   1.000000
    320        -27.605185   1.000000
    321        -27.484198   1.000000
    322        -27.484192   1.000000
    323        -27.484179   1.000000
    324        -27.484171   1.000000
    325        -27.484165   1.000000
    326        -27.484163   1.000000
    327        -27.484135   1.000000
    328        -27.484130   1.000000
    329        -27.484123   1.000000
    330        -27.484118   1.000000
    331        -27.484077   1.000000
    332        -27.484073   1.000000
    333        -27.484065   1.000000
    334        -27.484062   1.000000
    335        -27.484055   1.000000
    336        -27.484055   1.000000
    337        -27.475899   1.000000
    338        -27.475881   1.000000
    339        -27.475833   1.000000
    340        -27.475820   1.000000
    341        -27.475813   1.000000
    342        -27.475792   1.000000
    343        -27.475787   1.000000
    344        -27.475772   1.000000
    345        -27.475746   1.000000
    346        -27.475727   1.000000
    347        -27.475704   1.000000
    348        -27.475696   1.000000
    349        -27.475688   1.000000
    350        -27.475672   1.000000
    351        -27.475656   1.000000
    352        -27.475641   1.000000
    353        -27.475623   1.000000
    354        -27.475601   1.000000
    355        -27.475597   1.000000
    356        -27.475587   1.000000
    357        -27.475563   1.000000
    358        -27.475551   1.000000
    359        -27.475494   1.000000
    360        -27.475491   1.000000
    361        -27.473499   1.000000
    362        -27.473489   1.000000
    363        -27.473468   1.000000
    364        -27.473453   1.000000
    365        -27.473446   1.000000
    366        -27.473431   1.000000
    367        -27.473416   1.000000
    368        -27.473403   1.000000
    369        -27.473388   1.000000
    370        -27.473382   1.000000
    371        -27.473376   1.000000
    372        -27.473366   1.000000
    373        -27.473357   1.000000
    374        -27.473339   1.000000
    375        -27.473333   1.000000
    376        -27.473319   1.000000
    377        -27.473309   1.000000
    378        -27.473305   1.000000
    379        -27.473303   1.000000
    380        -27.473281   1.000000
    381        -27.473268   1.000000
    382        -27.473246   1.000000
    383        -27.473237   1.000000
    384        -27.473220   1.000000
    385        -27.433592   1.000000
    386        -27.433537   1.000000
    387        -27.433516   1.000000
    388        -27.433493   1.000000
    389        -27.433455   1.000000
    390        -27.433408   1.000000
    391        -27.433396   1.000000
    392        -27.433377   1.000000
    393        -27.416561   1.000000
    394        -27.416555   1.000000
    395        -27.416545   1.000000
    396        -27.416539   1.000000
    397        -27.416536   1.000000
    398        -27.416532   1.000000
    399        -27.416528   1.000000
    400        -27.416520   1.000000
    401        -27.416517   1.000000
    402        -27.416511   1.000000
    403        -27.416497   1.000000
    404        -27.416488   1.000000
    405        -27.416480   1.000000
    406        -27.416475   1.000000
    407        -27.416461   1.000000
    408        -27.416451   1.000000
    409        -27.416448   1.000000
    410        -27.416443   1.000000
    411        -27.416438   1.000000
    412        -27.416433   1.000000
    413        -27.416422   1.000000
    414        -27.416421   1.000000
    415        -27.416415   1.000000
    416        -27.416412   1.000000
    417        -27.367976   1.000000
    418        -27.367975   1.000000
    419        -27.367956   1.000000
    420        -27.367949   1.000000
    421        -27.367938   1.000000
    422        -27.367936   1.000000
    423        -27.367918   1.000000
    424        -27.367915   1.000000
    425        -27.311886   1.000000
    426        -27.311878   1.000000
    427        -27.311841   1.000000
    428        -27.311830   1.000000
    429        -27.311805   1.000000
    430        -27.311795   1.000000
    431        -27.311766   1.000000
    432        -27.311758   1.000000
    433        -27.311751   1.000000
    434        -27.311730   1.000000
    435        -27.311708   1.000000
    436        -27.311699   1.000000
    437        -27.311688   1.000000
    438        -27.311682   1.000000
    439        -27.311661   1.000000
    440        -27.311653   1.000000
    441        -27.311639   1.000000
    442        -27.311617   1.000000
    443        -27.311610   1.000000
    444        -27.311598   1.000000
    445        -27.311560   1.000000
    446        -27.311553   1.000000
    447        -27.311514   1.000000
    448        -27.311509   1.000000
    449        -27.298986   1.000000
    450        -27.298971   1.000000
    451        -27.298966   1.000000
    452        -27.298954   1.000000
    453        -27.298928   1.000000
    454        -27.298922   1.000000
    455        -27.298918   1.000000
    456        -27.298912   1.000000
    457        -27.298900   1.000000
    458        -27.298899   1.000000
    459        -27.298867   1.000000
    460        -27.298865   1.000000
    461        -27.298862   1.000000
    462        -27.298853   1.000000
    463        -27.298834   1.000000
    464        -27.298827   1.000000
    465        -27.298819   1.000000
    466        -27.298815   1.000000
    467        -27.298813   1.000000
    468        -27.298805   1.000000
    469        -27.298781   1.000000
    470        -27.298772   1.000000
    471        -27.298767   1.000000
    472        -27.298757   1.000000
    473        -27.254783   1.000000
    474        -27.254769   1.000000
    475        -27.254714   1.000000
    476        -27.254702   1.000000
    477        -27.254682   1.000000
    478        -27.254667   1.000000
    479        -27.254653   1.000000
    480        -27.254637   1.000000
    481        -27.254615   1.000000
    482        -27.254595   1.000000
    483        -27.254566   1.000000
    484        -27.254554   1.000000
    485        -27.254549   1.000000
    486        -27.254546   1.000000
    487        -27.254513   1.000000
    488        -27.254497   1.000000
    489        -27.254487   1.000000
    490        -27.254464   1.000000
    491        -27.254451   1.000000
    492        -27.254443   1.000000
    493        -27.254409   1.000000
    494        -27.254406   1.000000
    495        -27.254344   1.000000
    496        -27.254340   1.000000
    497        -27.242339   1.000000
    498        -27.242325   1.000000
    499        -27.242294   1.000000
    500        -27.242278   1.000000
    501        -27.242244   1.000000
    502        -27.242196   1.000000
    503        -27.242176   1.000000
    504        -27.242120   1.000000
    505        -27.242099   1.000000
    506        -27.242064   1.000000
    507        -27.242021   1.000000
    508        -27.241958   1.000000
    509        -27.241955   1.000000
    510        -27.241940   1.000000
    511        -27.241874   1.000000
    512        -27.241870   1.000000
    513          4.090888   1.000000
    514          4.090925   1.000000
    515          4.090989   1.000000
    516          4.091143   1.000000
    517          4.091259   1.000000
    518          4.091319   1.000000
    519          4.091396   1.000000
    520          4.091564   1.000000
    521          6.024364   1.000000
    522          6.024385   1.000000
    523          6.024421   1.000000
    524          6.024443   1.000000
    525          6.024493   1.000000
    526          6.024524   1.000000
    527          6.024535   1.000000
    528          6.024544   1.000000
    529          6.024578   1.000000
    530          6.024600   1.000000
    531          6.024623   1.000000
    532          6.024631   1.000000
    533          6.024651   1.000000
    534          6.024662   1.000000
    535          6.024742   1.000000
    536          6.024758   1.000000
    537          6.024797   1.000000
    538          6.024807   1.000000
    539          6.024818   1.000000
    540          6.024845   1.000000
    541          6.024898   1.000000
    542          6.024924   1.000000
    543          6.024947   1.000000
    544          6.024987   1.000000
    545          6.761180   1.000000
    546          6.761196   1.000000
    547          6.761236   1.000000
    548          6.761246   1.000000
    549          6.761294   1.000000
    550          6.761305   1.000000
    551          6.761311   1.000000
    552          6.761333   1.000000
    553          6.761344   1.000000
    554          6.761361   1.000000
    555          6.761384   1.000000
    556          6.761399   1.000000
    557          6.761426   1.000000
    558          6.761433   1.000000
    559          6.761461   1.000000
    560          6.761475   1.000000
    561          6.761480   1.000000
    562          6.761493   1.000000
    563          6.761513   1.000000
    564          6.761515   1.000000
    565          6.761571   1.000000
    566          6.761583   1.000000
    567          6.761625   1.000000
    568          6.761631   1.000000
    569          7.254636   1.000000
    570          7.254653   1.000000
    571          7.254713   1.000000
    572          7.254730   1.000000
    573          7.254737   1.000000
    574          7.254757   1.000000
    575          7.254760   1.000000
    576          7.254778   1.000000
    577          7.254812   1.000000
    578          7.254831   1.000000
    579          7.254856   1.000000
    580          7.254867   1.000000
    581          7.254876   1.000000
    582          7.254883   1.000000
    583          7.254906   1.000000
    584          7.254929   1.000000
    585          7.254945   1.000000
    586          7.254967   1.000000
    587          7.254970   1.000000
    588          7.254980   1.000000
    589          7.255008   1.000000
    590          7.255015   1.000000
    591          7.255082   1.000000
    592          7.255088   1.000000
    593          7.267198   1.000000
    594          7.267203   1.000000
    595          7.267237   1.000000
    596          7.267244   1.000000
    597          7.267295   1.000000
    598          7.267301   1.000000
    599          7.267441   1.000000
    600          7.267450   1.000000
    601          7.267554   1.000000
    602          7.267561   1.000000
    603          7.267612   1.000000
    604          7.267619   1.000000
    605          7.267684   1.000000
    606          7.267692   1.000000
    607          7.267846   1.000000
    608          7.267849   1.000000
    609          7.725881   1.000000
    610          7.725887   1.000000
    611          7.725903   1.000000
    612          7.725907   1.000000
    613          7.725991   1.000000
    614          7.725996   1.000000
    615          7.726019   1.000000
    616          7.726026   1.000000
    617          7.726028   1.000000
    618          7.726033   1.000000
    619          7.726094   1.000000
    620          7.726100   1.000000
    621          7.726111   1.000000
    622          7.726115   1.000000
    623          7.726221   1.000000
    624          7.726223   1.000000
    625          7.726260   1.000000
    626          7.726263   1.000000
    627          7.726280   1.000000
    628          7.726282   1.000000
    629          7.726350   1.000000
    630          7.726354   1.000000
    631          7.726395   1.000000
    632          7.726403   1.000000
    633          8.085105   1.000000
    634          8.085106   1.000000
    635          8.085127   1.000000
    636          8.085129   1.000000
    637          8.085142   1.000000
    638          8.085143   1.000000
    639          8.085161   1.000000
    640          8.085163   1.000000
    641          8.260637   1.000000
    642          8.260663   1.000000
    643          8.260675   1.000000
    644          8.260689   1.000000
    645          8.260754   1.000000
    646          8.260769   1.000000
    647          8.260778   1.000000
    648          8.260789   1.000000
    649          8.260806   1.000000
    650          8.260817   1.000000
    651          8.260856   1.000000
    652          8.260869   1.000000
    653          8.260875   1.000000
    654          8.260884   1.000000
    655          8.260972   1.000000
    656          8.260978   1.000000
    657          8.261008   1.000000
    658          8.261019   1.000000
    659          8.261036   1.000000
    660          8.261040   1.000000
    661          8.261100   1.000000
    662          8.261118   1.000000
    663          8.261137   1.000000
    664          8.261163   1.000000
    665          8.423291   1.000000
    666          8.423293   1.000000
    667          8.423309   1.000000
    668          8.423328   1.000000
    669          8.423331   1.000000
    670          8.423338   1.000000
    671          8.423348   1.000000
    672          8.423361   1.000000
    673          8.533704   1.000000
    674          8.533710   1.000000
    675          8.533725   1.000000
    676          8.533730   1.000000
    677          8.533735   1.000000
    678          8.533737   1.000000
    679          8.533767   1.000000
    680          8.533770   1.000000
    681          8.533779   1.000000
    682          8.533786   1.000000
    683          8.533822   1.000000
    684          8.533831   1.000000
    685          8.533839   1.000000
    686          8.533842   1.000000
    687          8.533845   1.000000
    688          8.533849   1.000000
    689          8.779305   1.000000
    690          8.779319   1.000000
    691          8.779376   1.000000
    692          8.779388   1.000000
    693          8.779397   1.000000
    694          8.779416   1.000000
    695          8.779428   1.000000
    696          8.779444   1.000000
    697          8.779469   1.000000
    698          8.779489   1.000000
    699          8.779518   1.000000
    700          8.779522   1.000000
    701          8.779528   1.000000
    702          8.779534   1.000000
    703          8.779559   1.000000
    704          8.779578   1.000000
    705          8.779591   1.000000
    706          8.779613   1.000000
    707          8.779628   1.000000
    708          8.779634   1.000000
    709          8.779660   1.000000
    710          8.779663   1.000000
    711          8.779728   1.000000
    712          8.779732   1.000000
    713          8.896697   1.000000
    714          8.896701   1.000000
    715          8.896717   1.000000
    716          8.896719   1.000000
    717          8.896725   1.000000
    718          8.896728   1.000000
    719          8.896748   1.000000
    720          8.896755   1.000000
    721          8.896767   1.000000
    722          8.896769   1.000000
    723          8.896802   1.000000
    724          8.896806   1.000000
    725          8.896812   1.000000
    726          8.896817   1.000000
    727          8.896823   1.000000
    728          8.896824   1.000000
    729          8.971581   1.000000
    730          8.971594   1.000000
    731          8.971649   1.000000
    732          8.971659   1.000000
    733          8.971665   1.000000
    734          8.971678   1.000000
    735          8.971698   1.000000
    736          8.971709   1.000000
    737          8.971733   1.000000
    738          8.971753   1.000000
    739          8.971775   1.000000
    740          8.971779   1.000000
    741          8.971784   1.000000
    742          8.971798   1.000000
    743          8.971813   1.000000
    744          8.971831   1.000000
    745          8.971843   1.000000
    746          8.971864   1.000000
    747          8.971878   1.000000
    748          8.971884   1.000000
    749          8.971906   1.000000
    750          8.971910   1.000000
    751          8.971970   1.000000
    752          8.971974   1.000000
    753          9.384215   1.007838
    754          9.384227   1.007839
    755          9.384234   1.007840
    756          9.384253   1.007843
    757          9.384274   1.007845
    758          9.384281   1.007846
    759          9.384287   1.007847
    760          9.384300   1.007849
    761          9.384309   1.007850
    762          9.384313   1.007850
    763          9.384337   1.007853
    764          9.384341   1.007854
    765          9.384355   1.007856
    766          9.384362   1.007856
    767          9.384382   1.007859
    768          9.384385   1.007859
    769          9.384394   1.007861
    770          9.384397   1.007861
    771          9.384405   1.007862
    772          9.384418   1.007864
    773          9.384433   1.007866
    774          9.384455   1.007868
    775          9.384460   1.007869
    776          9.384467   1.007870
    777          9.665065   0.920851
    778          9.665075   0.920829
    779          9.665079   0.920820
    780          9.665099   0.920775
    781          9.665115   0.920740
    782          9.665132   0.920702
    783          9.665136   0.920693
    784          9.665143   0.920676
    785          9.665151   0.920659
    786          9.665156   0.920649
    787          9.665173   0.920610
    788          9.665177   0.920601
    789          9.665188   0.920577
    790          9.665197   0.920556
    791          9.665207   0.920535
    792          9.665220   0.920505
    793          9.665224   0.920497
    794          9.665230   0.920483
    795          9.665243   0.920453
    796          9.665250   0.920438
    797          9.665264   0.920407
    798          9.665274   0.920383
    799          9.665283   0.920363
    800          9.665297   0.920332
    801          9.672861   0.902664
    802          9.672874   0.902632
    803          9.672887   0.902601
    804          9.672902   0.902566
    805          9.672958   0.902430
    806          9.672965   0.902413
    807          9.672981   0.902374
    808          9.672983   0.902367
    809          9.672992   0.902346
    810          9.672999   0.902328
    811          9.673009   0.902304
    812          9.673034   0.902244
    813          9.673068   0.902161
    814          9.673081   0.902131
    815          9.673094   0.902097
    816          9.673103   0.902077
    817          9.673112   0.902054
    818          9.673118   0.902040
    819          9.673128   0.902015
    820          9.673140   0.901986
    821          9.673199   0.901842
    822          9.673203   0.901833
    823          9.673223   0.901784
    824          9.673238   0.901747
    825          9.871646   0.170093
    826          9.871662   0.170044
    827          9.871684   0.169977
    828          9.871700   0.169928
    829          9.871722   0.169861
    830          9.871762   0.169737
    831          9.871777   0.169691
    832          9.871846   0.169479
    833          9.871869   0.169409
    834          9.871917   0.169262
    835          9.871959   0.169131
    836          9.871989   0.169039
    837          9.872009   0.168978
    838          9.872023   0.168937
    839          9.872071   0.168787
    840          9.872080   0.168760
    841          9.873216   0.165289
    842          9.873226   0.165258
    843          9.873254   0.165173
    844          9.873267   0.165135
    845          9.873294   0.165054
    846          9.873300   0.165033
    847          9.873306   0.165015
    848          9.873314   0.164993
    849          9.873327   0.164951
    850          9.873338   0.164917
    851          9.873353   0.164874
    852          9.873367   0.164829
    853          9.873382   0.164784
    854          9.873390   0.164760
    855          9.873401   0.164727
    856          9.873416   0.164682
    857          9.873429   0.164642
    858          9.873436   0.164621
    859          9.873438   0.164615
    860          9.873446   0.164591
    861          9.873481   0.164483
    862          9.873483   0.164479
    863          9.873516   0.164379
    864          9.873526   0.164347
    865         10.141269  -0.015246
    866         10.141274  -0.015245
    867         10.141290  -0.015242
    868         10.141297  -0.015240
    869         10.141307  -0.015238
    870         10.141315  -0.015237
    871         10.141323  -0.015235
    872         10.141331  -0.015233
    873         10.141342  -0.015231
    874         10.141343  -0.015231
    875         10.141353  -0.015229
    876         10.141355  -0.015229
    877         10.141369  -0.015226
    878         10.141376  -0.015225
    879         10.141388  -0.015222
    880         10.141393  -0.015221
    881         10.141395  -0.015221
    882         10.141409  -0.015218
    883         10.141411  -0.015218
    884         10.141422  -0.015215
    885         10.141433  -0.015213
    886         10.141443  -0.015211
    887         10.141449  -0.015210
    888         10.141456  -0.015209
    889         10.987613  -0.000000
    890         10.987669  -0.000000
    891         10.987688  -0.000000
    892         10.987711  -0.000000
    893         10.987746  -0.000000
    894         10.987787  -0.000000
    895         10.987805  -0.000000
    896         10.987815  -0.000000
    897         11.296826  -0.000000
    898         11.296838  -0.000000
    899         11.296842  -0.000000
    900         11.296856  -0.000000
    901         11.296905  -0.000000
    902         11.296918  -0.000000
    903         11.296920  -0.000000
    904         11.296925  -0.000000
    905         11.296930  -0.000000
    906         11.296933  -0.000000
    907         11.296979  -0.000000
    908         11.296986  -0.000000
    909         11.296991  -0.000000
    910         11.296999  -0.000000
    911         11.297055  -0.000000
    912         11.297059  -0.000000
    913         11.297078  -0.000000
    914         11.297079  -0.000000
    915         11.297084  -0.000000
    916         11.297086  -0.000000
    917         11.297138  -0.000000
    918         11.297147  -0.000000
    919         11.297161  -0.000000
    920         11.297167  -0.000000
    921         11.551309  -0.000000
    922         11.551317  -0.000000
    923         11.551330  -0.000000
    924         11.551332  -0.000000
    925         11.551343  -0.000000
    926         11.551348  -0.000000
    927         11.551355  -0.000000
    928         11.551364  -0.000000
    929         11.551366  -0.000000
    930         11.551375  -0.000000
    931         11.551380  -0.000000
    932         11.551382  -0.000000
    933         11.551397  -0.000000
    934         11.551405  -0.000000
    935         11.551410  -0.000000
    936         11.551420  -0.000000
    937         11.551428  -0.000000
    938         11.551429  -0.000000
    939         11.551435  -0.000000
    940         11.551443  -0.000000
    941         11.551449  -0.000000
    942         11.551449  -0.000000
    943         11.551460  -0.000000
    944         11.551463  -0.000000
    945         11.581890  -0.000000
    946         11.581929  -0.000000
    947         11.581942  -0.000000
    948         11.581957  -0.000000
    949         11.581980  -0.000000
    950         11.582008  -0.000000
    951         11.582023  -0.000000
    952         11.582027  -0.000000
    953         11.881717  -0.000000
    954         11.881731  -0.000000
    955         11.881772  -0.000000
    956         11.881783  -0.000000
    957         11.881814  -0.000000
    958         11.881824  -0.000000
    959         11.881831  -0.000000
    960         11.881849  -0.000000
    961         11.881865  -0.000000
    962         11.881880  -0.000000
    963         11.881903  -0.000000
    964         11.881918  -0.000000
    965         11.881932  -0.000000
    966         11.881937  -0.000000
    967         11.881963  -0.000000
    968         11.881977  -0.000000
    969         11.881985  -0.000000
    970         11.881998  -0.000000
    971         11.882015  -0.000000
    972         11.882015  -0.000000
    973         11.882059  -0.000000
    974         11.882066  -0.000000
    975         11.882114  -0.000000
    976         11.882115  -0.000000
    977         12.093319  -0.000000
    978         12.093327  -0.000000
    979         12.093365  -0.000000
    980         12.093383  -0.000000
    981         12.093409  -0.000000
    982         12.093455  -0.000000
    983         12.093574  -0.000000
    984         12.093599  -0.000000
    985         12.093644  -0.000000
    986         12.093688  -0.000000
    987         12.093713  -0.000000
    988         12.093745  -0.000000
    989         12.093767  -0.000000
    990         12.093814  -0.000000
    991         12.093912  -0.000000
    992         12.093958  -0.000000
    993         12.176587  -0.000000
    994         12.176986  -0.000000
    995         12.177364  -0.000000
    996         12.177556  -0.000000
    997         12.178040  -0.000000
    998         12.179216  -0.000000
    999         12.179489  -0.000000
   1000         12.180472  -0.000000
