 V                                      
    1.000000000000000     
    11.9598056569758970   -0.0000000454965523    0.0000000877565176
    -0.0000000554904240   11.9598063888363892   -0.0000000960218744
     0.0000000929724736   -0.0000000815566902   11.9598053721340385
   V 
   128
Direct
  0.3750001279663177  0.1250002252457073  0.6250000378223231
  0.1250000630185629  0.3749999454856808  0.8750001097314739
  0.8750000350900605  0.8749997778285982  0.3749998312093127
  0.0000001495475978  0.0000001475550757  0.2500000747975893
  0.7499997457167021  0.7499999136330511  0.2499998652601976
  0.0000000473366036  0.0000001952159821  0.0000000264545266
  0.7499999439169601  0.7499998498167070  0.7499998278823138
  0.6249999568559744  0.3749997463440913  0.6250000177509297
  0.1249998342975877  0.6249999054259012  0.1250001827392864
  0.0000001656287741  0.4999998854049720  0.2499999088048840
  0.1249999072279463  0.3750002453817897  0.1249999792287681
  0.5000002564525186 -0.0000000415017284  0.7500000001164899
  0.5000001407548532  0.5000000187919201  0.2499998743086681
  0.5000002036806318  0.5000000286979207  0.5000000453506420
  0.1249998252137772  0.6249999383010860  0.3749996251017222
  0.8750001749599624  0.6249998464421130  0.8750002598616794
  0.3749999698492724  0.8749999122808820  0.3749999706912823
  0.2499998958888374  0.2499999663278202  0.2499999619577385
  0.3749999139783288  0.1250001617861521  0.1250000330282101
  0.6249999561769758  0.1250001995751530  0.3750002625425128
  0.6250001279834280  0.6249996548433667  0.8750000828547068
  0.2499997888126204  0.4999999334590967  0.0000002883882887
  0.1250000000215567  0.8750001052039735  0.6249999514606387
  0.7500000016888227  0.0000001380890703  0.7499999427944556
  0.1250001004395180  0.1250000523002208  0.3749999104339313
  0.5000002750747844  0.0000000620414743  0.0000003164854726
  0.2499997078160593  0.0000000131209906  0.7499997976630608
  0.2499998033614429  0.7499999519034459  0.7499997162569486
  0.7499997487935036  0.0000000715810315  0.2499997921549594
  0.8749999590951202  0.3749998808985314  0.8750000333802423
  0.6250001182953170  0.6249997390960043  0.1250002157223355
  0.0000001367660388  0.4999998893279543  0.5000002791286624
  0.5000003325466221  0.2499999117141175  0.0000003092318375
  0.7499999669645001  0.7499998332556211  0.5000002232453733
  0.3750000065276480  0.8750002571453177  0.6249997596296890
  0.2499995881700432  0.2500000664742377  0.4999999854625126
  0.1249998704988848  0.8750000531129211  0.8750001206365419
  0.8750000182782268  0.1250002444851072  0.8749999595438829
  0.0000001009909215  0.7499998766447453  0.5000002051783533
  0.8749999802316503  0.3750002275451924  0.3749999004703475
  0.8749998957121804  0.1250000710993961  0.3749999958787396
  0.6250000126773702  0.8750001792888265  0.6249997579037581
  0.3749999603024549  0.3749998999188962  0.8749998855116696
  0.0000002092456930  0.0000001357097924  0.5000001478936656
  0.7500000886824388  0.2500001023004575  0.7499999791302739
  0.0000000099334924  0.7499998144454280  0.7499996959199947
  0.7499999291581865  0.4999999742608408  0.5000002532684827
  0.5000001271103659  0.7499999230236574  0.2499998015712463
  0.0000002028642653  0.2500000860418768  0.2500000126695700
  0.1249999862350626  0.1250002098462401  0.8749999498557521
  0.2499999726133489  0.7499998941778265  0.0000001933615672
  0.1249998874755561  0.6249997864129840  0.8750003585888954
  0.0000002193585661  0.2500000803710617  0.5000002750181096
  0.1249999412671697  0.1250001386380858  0.1249999356574323
  0.6250000127011465  0.3749998408799704  0.8749998198624375
  0.2499999910301569  0.0000001910529507  0.0000001870462458
  0.1250002407033843  0.1250001712579908  0.6250002025574781
  0.5000001073329723  0.0000001134232282  0.2499997422629494
  0.3749998215555743  0.6249995995931633  0.8750001426155701
  0.6249999626730781  0.8749999137948894  0.3750001472579657
  0.5000001094598268  0.7499998910960974  0.5000000497263873
  0.5000003762457665  0.2500001300853704  0.7499999446294340
  0.6250000869067445  0.8749998977458046  0.1250001441078990
  0.1250000216758122  0.8749997623290812  0.3749997493823639
  0.8750001305853472  0.3750002517942871  0.1250000097636113
  0.8749999747600110  0.8750000014072914  0.6249999475746851
  0.8749998579146328  0.3749998879556529  0.6250000633796365
  0.8749997819068034  0.1250002675311088  0.6250001220156919
  0.1250000530296899  0.3749999541771772  0.6250000524673799
  0.6250001068464834  0.3750001187299522  0.1250000576813587
  0.6249998517690143  0.1250003380975274  0.6250000120228484
  0.8750003095149274  0.8749997516074897  0.1250001080489843
  0.3750000562444851  0.1250001278767096  0.3750002259032147
  0.6250000365557508  0.1250002386690197  0.1249999697059480
  0.1250000024159287  0.6249997823438954  0.6249998326317785
  0.0000001500740343  0.7499998559497525  0.2500000618127490
  0.2499995203279116  0.2500000938199084  0.7499997524298252
  0.5000001031084371  0.2499999608475738  0.2499997910688581
  0.0000000023456923  0.4999998583643939  0.7499997348540174
  0.3749997728156768  0.8749998350328131  0.1250002317710458
  0.3749998560678586  0.3750001415945040  0.1250000041686371
  0.2499998422658901  0.2499999669084088  0.0000003042070680
  0.8750002082410784  0.6249999136686364  0.3749996704520667
  0.8750002699023306  0.6249998729586227  0.1250002497392393
  0.3750001244628488  0.3749998164262374  0.6250000208441012
  0.7500000249335127  0.0000000218371645  0.5000001629232611
  0.2499999761843825  0.7499998759636484  0.2500000247639224
  0.5000000066590160 -0.0000000541521875  0.4999999259876398
  0.5000002988630701  0.7499999789655719  0.0000002546422278
  0.6249999258699682  0.6249997392041111  0.6249997965338100
  0.7500000273745393  0.4999999429676724  0.7499998550896305
 -0.0000000063622441  0.2500001127436913  0.7499996960661963
  0.2499998317746006  0.7499999320023771  0.5000000728006151
  0.5000002463651667  0.7499999074768606  0.7499998588022996
  0.3749999490477295  0.1250002694761561  0.8749997165580422
  0.7499998338969823  0.4999999234328297  0.2499998711547110
  0.7499998076189278  0.2500000738221899  0.2499997712645333
  0.7500000579461223  0.2500002056798900  0.5000002102706885
  0.7499998824281686  0.4999998928466544  0.0000000250107980
  0.3749999162022554  0.6249999191058726  0.3749999086482060
  0.1249998230416191  0.8749997119251135  0.1250001740023102
  0.8750000005329671  0.6249998427232052  0.6249998245664246
  0.7499996718264237  0.0000001888382114  0.0000001052461654
  0.6250000879709784  0.8750002110655276  0.8749999622468477
  0.6250000510922130  0.6249998866466203  0.3749999190514270
  0.1250000132243290  0.3750002522636059  0.3749998627114901
  0.2499997595054013  0.0000000544499963  0.4999999534274869
  0.8750001008032915  0.1250001285402700  0.1249999181255659
  0.3749998995533596  0.8750002160759924  0.8750000372267432
  0.0000000288932050  0.0000002273727338  0.7499997407090382
  0.5000001363780988  0.2500001499992073  0.4999999343520523
  0.0000000222998499  0.7499997584113657  0.0000000331359693
  0.7499996903022180  0.7499998493628417  0.0000000993737845
  0.2499996140417785  0.4999999612782000  0.7499996385325673
  0.2499999911187134  0.0000002007234920  0.2500000656690219
  0.5000003505534324  0.5000000041453740  0.7499997996995984
  0.5000003508836731  0.5000000467954592  0.0000002734123064
  0.8750001475497973  0.8750000377995986  0.8750001274907973
  0.0000000031549576  0.2500001318068665  0.0000000218307448
  0.3750000822149443  0.3750000175551307  0.3750000720375626
  0.3750000839408297  0.6249997015225665  0.6249997743634296
  0.3749997751956582  0.6249998621925968  0.1250001930545342
 -0.0000000164517629  0.4999998981165227  0.0000000611873437
  0.6249999294383475  0.3749999871179128  0.3750001065803092
  0.7499998294671361  0.2500000605400604  0.0000000429247581
  0.2499998804600897  0.4999999579559883  0.2499999522216738
  0.6250000403112929  0.1250003142583966  0.8749997642753202
  0.2499997439045623  0.4999999263084670  0.5000001130447208
 
  0.00000000E+00  0.00000000E+00  0.00000000E+00
  0.00000000E+00  0.00000000E+00  0.00000000E+00
  0.00000000E+00  0.00000000E+00  0.00000000E+00
  0.00000000E+00  0.00000000E+00  0.00000000E+00
  0.00000000E+00  0.00000000E+00  0.00000000E+00
  0.00000000E+00  0.00000000E+00  0.00000000E+00
  0.00000000E+00  0.00000000E+00  0.00000000E+00
  0.00000000E+00  0.00000000E+00  0.00000000E+00
  0.00000000E+00  0.00000000E+00  0.00000000E+00
  0.00000000E+00  0.00000000E+00  0.00000000E+00
  0.00000000E+00  0.00000000E+00  0.00000000E+00
  0.00000000E+00  0.00000000E+00  0.00000000E+00
  0.00000000E+00  0.00000000E+00  0.00000000E+00
  0.00000000E+00  0.00000000E+00  0.00000000E+00
  0.00000000E+00  0.00000000E+00  0.00000000E+00
  0.00000000E+00  0.00000000E+00  0.00000000E+00
  0.00000000E+00  0.00000000E+00  0.00000000E+00
  0.00000000E+00  0.00000000E+00  0.00000000E+00
  0.00000000E+00  0.00000000E+00  0.00000000E+00
  0.00000000E+00  0.00000000E+00  0.00000000E+00
  0.00000000E+00  0.00000000E+00  0.00000000E+00
  0.00000000E+00  0.00000000E+00  0.00000000E+00
  0.00000000E+00  0.00000000E+00  0.00000000E+00
  0.00000000E+00  0.00000000E+00  0.00000000E+00
  0.00000000E+00  0.00000000E+00  0.00000000E+00
  0.00000000E+00  0.00000000E+00  0.00000000E+00
  0.00000000E+00  0.00000000E+00  0.00000000E+00
  0.00000000E+00  0.00000000E+00  0.00000000E+00
  0.00000000E+00  0.00000000E+00  0.00000000E+00
  0.00000000E+00  0.00000000E+00  0.00000000E+00
  0.00000000E+00  0.00000000E+00  0.00000000E+00
  0.00000000E+00  0.00000000E+00  0.00000000E+00
  0.00000000E+00  0.00000000E+00  0.00000000E+00
  0.00000000E+00  0.00000000E+00  0.00000000E+00
  0.00000000E+00  0.00000000E+00  0.00000000E+00
  0.00000000E+00  0.00000000E+00  0.00000000E+00
  0.00000000E+00  0.00000000E+00  0.00000000E+00
  0.00000000E+00  0.00000000E+00  0.00000000E+00
  0.00000000E+00  0.00000000E+00  0.00000000E+00
  0.00000000E+00  0.00000000E+00  0.00000000E+00
  0.00000000E+00  0.00000000E+00  0.00000000E+00
  0.00000000E+00  0.00000000E+00  0.00000000E+00
  0.00000000E+00  0.00000000E+00  0.00000000E+00
  0.00000000E+00  0.00000000E+00  0.00000000E+00
  0.00000000E+00  0.00000000E+00  0.00000000E+00
  0.00000000E+00  0.00000000E+00  0.00000000E+00
  0.00000000E+00  0.00000000E+00  0.00000000E+00
  0.00000000E+00  0.00000000E+00  0.00000000E+00
  0.00000000E+00  0.00000000E+00  0.00000000E+00
  0.00000000E+00  0.00000000E+00  0.00000000E+00
  0.00000000E+00  0.00000000E+00  0.00000000E+00
  0.00000000E+00  0.00000000E+00  0.00000000E+00
  0.00000000E+00  0.00000000E+00  0.00000000E+00
  0.00000000E+00  0.00000000E+00  0.00000000E+00
  0.00000000E+00  0.00000000E+00  0.00000000E+00
  0.00000000E+00  0.00000000E+00  0.00000000E+00
  0.00000000E+00  0.00000000E+00  0.00000000E+00
  0.00000000E+00  0.00000000E+00  0.00000000E+00
  0.00000000E+00  0.00000000E+00  0.00000000E+00
  0.00000000E+00  0.00000000E+00  0.00000000E+00
  0.00000000E+00  0.00000000E+00  0.00000000E+00
  0.00000000E+00  0.00000000E+00  0.00000000E+00
  0.00000000E+00  0.00000000E+00  0.00000000E+00
  0.00000000E+00  0.00000000E+00  0.00000000E+00
  0.00000000E+00  0.00000000E+00  0.00000000E+00
  0.00000000E+00  0.00000000E+00  0.00000000E+00
  0.00000000E+00  0.00000000E+00  0.00000000E+00
  0.00000000E+00  0.00000000E+00  0.00000000E+00
  0.00000000E+00  0.00000000E+00  0.00000000E+00
  0.00000000E+00  0.00000000E+00  0.00000000E+00
  0.00000000E+00  0.00000000E+00  0.00000000E+00
  0.00000000E+00  0.00000000E+00  0.00000000E+00
  0.00000000E+00  0.00000000E+00  0.00000000E+00
  0.00000000E+00  0.00000000E+00  0.00000000E+00
  0.00000000E+00  0.00000000E+00  0.00000000E+00
  0.00000000E+00  0.00000000E+00  0.00000000E+00
  0.00000000E+00  0.00000000E+00  0.00000000E+00
  0.00000000E+00  0.00000000E+00  0.00000000E+00
  0.00000000E+00  0.00000000E+00  0.00000000E+00
  0.00000000E+00  0.00000000E+00  0.00000000E+00
  0.00000000E+00  0.00000000E+00  0.00000000E+00
  0.00000000E+00  0.00000000E+00  0.00000000E+00
  0.00000000E+00  0.00000000E+00  0.00000000E+00
  0.00000000E+00  0.00000000E+00  0.00000000E+00
  0.00000000E+00  0.00000000E+00  0.00000000E+00
  0.00000000E+00  0.00000000E+00  0.00000000E+00
  0.00000000E+00  0.00000000E+00  0.00000000E+00
  0.00000000E+00  0.00000000E+00  0.00000000E+00
  0.00000000E+00  0.00000000E+00  0.00000000E+00
  0.00000000E+00  0.00000000E+00  0.00000000E+00
  0.00000000E+00  0.00000000E+00  0.00000000E+00
  0.00000000E+00  0.00000000E+00  0.00000000E+00
  0.00000000E+00  0.00000000E+00  0.00000000E+00
  0.00000000E+00  0.00000000E+00  0.00000000E+00
  0.00000000E+00  0.00000000E+00  0.00000000E+00
  0.00000000E+00  0.00000000E+00  0.00000000E+00
  0.00000000E+00  0.00000000E+00  0.00000000E+00
  0.00000000E+00  0.00000000E+00  0.00000000E+00
  0.00000000E+00  0.00000000E+00  0.00000000E+00
  0.00000000E+00  0.00000000E+00  0.00000000E+00
  0.00000000E+00  0.00000000E+00  0.00000000E+00
  0.00000000E+00  0.00000000E+00  0.00000000E+00
  0.00000000E+00  0.00000000E+00  0.00000000E+00
  0.00000000E+00  0.00000000E+00  0.00000000E+00
  0.00000000E+00  0.00000000E+00  0.00000000E+00
  0.00000000E+00  0.00000000E+00  0.00000000E+00
  0.00000000E+00  0.00000000E+00  0.00000000E+00
  0.00000000E+00  0.00000000E+00  0.00000000E+00
  0.00000000E+00  0.00000000E+00  0.00000000E+00
  0.00000000E+00  0.00000000E+00  0.00000000E+00
  0.00000000E+00  0.00000000E+00  0.00000000E+00
  0.00000000E+00  0.00000000E+00  0.00000000E+00
  0.00000000E+00  0.00000000E+00  0.00000000E+00
  0.00000000E+00  0.00000000E+00  0.00000000E+00
  0.00000000E+00  0.00000000E+00  0.00000000E+00
  0.00000000E+00  0.00000000E+00  0.00000000E+00
  0.00000000E+00  0.00000000E+00  0.00000000E+00
  0.00000000E+00  0.00000000E+00  0.00000000E+00
  0.00000000E+00  0.00000000E+00  0.00000000E+00
  0.00000000E+00  0.00000000E+00  0.00000000E+00
  0.00000000E+00  0.00000000E+00  0.00000000E+00
  0.00000000E+00  0.00000000E+00  0.00000000E+00
  0.00000000E+00  0.00000000E+00  0.00000000E+00
  0.00000000E+00  0.00000000E+00  0.00000000E+00
  0.00000000E+00  0.00000000E+00  0.00000000E+00
  0.00000000E+00  0.00000000E+00  0.00000000E+00
  0.00000000E+00  0.00000000E+00  0.00000000E+00
  0.00000000E+00  0.00000000E+00  0.00000000E+00
