 vasp.6.5.1 10Mar25 (build Aug 28 2025 04:51:22) complex                         
 executed on              LinuxNV date 2026.05.18  15:23:13
 running    4 mpi-ranks, with   16 threads/rank, on    1 nodes
 distrk:  each k-point on    4 cores,    1 groups
 distr:  one band on NCORE=   1 cores,    4 groups
 Offloading initialized ...    4 GPUs detected


--------------------------------------------------------------------------------------------------------


 INCAR:
   SYSTEM = bcc_NbZr_Zr128
   ISTART = 0
   ICHARG = 2
   ENCUT = 350.0
   PREC = Normal
   ISMEAR = 1
   SIGMA = 0.20
   EDIFF = 1E-06
   NELM = 120
   ALGO = Normal
   IBRION = 2
   NSW = 100
   ISIF = 3
   ISYM = 2
   LREAL = Auto
   LWAVE = .FALSE.
   LCHARG = .FALSE.

 POTCAR:    PAW_PBE V_sv 02Aug2007                
 POTCAR:    PAW_PBE V_sv 02Aug2007                
   SHA256 =  5c2e894a17530853db616eb76e59147e643e0698a6c55875a3dffd96a7885e93 V_sv/POTCAR           
   COPYR  = (c) Copyright 02Aug2007 Georg Kresse                                                    
   COPYR  = This file is part of the software VASP. Any use, copying, and all other rights are regul
   COPYR  = If you do not have a valid VASP license, you may not use, copy or distribute this file. 
   VRHFIN =V: p6 d4 s1                                                                              
   LEXCH  = PE                                                                                      
   EATOM  =  1952.1149 eV,  143.4764 Ry                                                             
                                                                                                    
   TITEL  = PAW_PBE V_sv 02Aug2007                                                                  
   LULTRA =        F    use ultrasoft PP ?                                                          
   IUNSCR =        1    unscreen: 0-lin 1-nonlin 2-no                                               
   RPACOR =    2.000    partial core radius                                                         
   POMASS =   50.941; ZVAL   =   13.000    mass and valenz                                          
   RCORE  =    2.300    outmost cutoff radius                                                       
   RWIGS  =    2.300; RWIGS  =    1.217    wigner-seitz radius (au A)                               
   ENMAX  =  263.673; ENMIN  =  197.755 eV                                                          
   ICORE  =        3    local potential                                                             
   LCOR   =        T    correct aug charges                                                         
   LPAW   =        T    paw PP                                                                      
   EAUG   =  526.568                                                                                
   RMAX   =    2.359    core radius for proj-oper                                                   
   RAUG   =    1.300    factor for augmentation sphere                                              
   RDEP   =    2.430    radius for radial grids                                                     
   RDEPT  =    1.870    core radius for aug-charge                                                  
                                                                                                    
   Atomic configuration                                                                             
    8 entries                                                                                       
     n  l   j            E        occ.                                                              
     1  0  0.50     -5360.7193   2.0000                                                             
     2  0  0.50      -598.4546   2.0000                                                             
     2  1  1.50      -499.0155   6.0000                                                             
     3  0  0.50       -66.5711   2.0000                                                             
     4  0  0.50        -3.8743   1.0000                                                             
     3  1  1.50       -40.5282   6.0000                                                             
     3  2  2.50        -2.4291   4.0000                                                             
     4  3  2.50        -1.3606   0.0000                                                             
   Description                                                                                      
     l       E           TYP  RCUT    TYP  RCUT                                                     
     0    -66.5711413     23  1.800                                                                 
     0     -3.8742736     23  2.300                                                                 
     1    -40.5282350     23  2.000                                                                 
     1      5.4423304     23  2.000                                                                 
     2     -2.4290848     23  2.300                                                                 
     2     -1.0472431     23  2.300                                                                 
     3     -1.3605826     23  2.300                                                                 
  local pseudopotential read in
  partial core-charges read in
  partial kinetic energy density read in
  atomic valenz-charges read in
  non local Contribution for L=            0  read in
    real space projection operators read in
  non local Contribution for L=            0  read in
    real space projection operators read in
  non local Contribution for L=            1  read in
    real space projection operators read in
  non local Contribution for L=            1  read in
    real space projection operators read in
  non local Contribution for L=            2  read in
    real space projection operators read in
  non local Contribution for L=            2  read in
    real space projection operators read in
    PAW grid and wavefunctions read in
 
   number of l-projection  operators is LMAX  =            6
   number of lm-projection operators is LMMAX =           18
 
 Optimization of the real space projectors (new method)

 maximal supplied QI-value         = 16.25
 optimisation between [QCUT,QGAM] = [  9.43, 19.01] = [ 24.88,101.24] Ry 
 Optimized for a Real-space Cutoff    1.52 Angstroem

   l    n(q)    QCUT    max X(q) W(low)/X(q) W(high)/X(q)  e(spline) 
   0      9     9.426     2.784    0.18E-04    0.27E-04    0.45E-07
   0      9     9.426    21.205    0.44E-04    0.11E-04    0.29E-07
   1      8     9.426     3.152    0.13E-03    0.15E-03    0.62E-07
   1      8     9.426     5.587    0.50E-03    0.51E-03    0.24E-06
   2      8     9.426    55.619    0.30E-03    0.30E-03    0.20E-06
   2      8     9.426    52.293    0.29E-03    0.30E-03    0.19E-06
  PAW_PBE V_sv 02Aug2007                :
 energy of atom  1       EATOM=-1952.1149
 kinetic energy error for atom=    0.0604 (will be added to EATOM!!)
 
 
 POSCAR:  V
  positions in direct lattice
  velocities in cartesian coordinates


 exchange-correlation table for PE
   RHO(1)=    0.500       N(1)  =     2000
   RHO(2)=  100.500       N(2)  =     4000
 


--------------------------------------------------------------------------------------------------------


 ion  position               nearest neighbor table
   1  0.375  0.125  0.625- 111 2.59  62 2.59  77 2.59  88 2.59  12 2.59  27 2.59  36 2.59 107 2.59

   2  0.125  0.375  0.875-  77 2.59 119 2.59  22 2.59  82 2.59 123 2.59 114 2.59  92 2.59  79 2.59

   3  0.875  0.875  0.375-  76 2.59   5 2.59   4 2.59  39 2.59  34 2.59  86 2.59  29 2.59  44 2.59

   4  0.000  0.000  0.250-  25 2.59  54 2.59  64 2.59 101 2.59  41 2.59 108 2.59  72 2.59   3 2.59

   5  0.750  0.750  0.250-  63 2.59  31 2.59 105 2.59  60 2.59   3 2.59  72 2.59  84 2.59  83 2.59

   6  0.000  0.000  0.000-  54 2.59 108 2.59  37 2.59 118 2.59  50 2.59  38 2.59  72 2.59 101 2.59

   7  0.750  0.750  0.750-  66 2.59 102 2.59  90 2.59  21 2.59  42 2.59 104 2.59  16 2.59 118 2.59

   8  0.625  0.375  0.625-  62 2.59  98 2.59 111 2.59 116 2.59  45 2.59  47 2.59  14 2.59  91 2.59

   9  0.125  0.625  0.125-  10 2.59  76 2.59 126 2.59  22 2.59 112 2.59  87 2.59 123 2.59  51 2.59

  10  0.000  0.500  0.250-  11 2.59   9 2.59  15 2.59 106 2.59  84 2.59  65 2.59  83 2.59  40 2.59

  11  0.125  0.375  0.125-  22 2.59  10 2.59 123 2.59 126 2.59  82 2.59  49 2.59 119 2.59  18 2.59

  12  0.500  1.000  0.750- 104 2.59  42 2.59 127 2.59  71 2.59 109 2.59  35 2.59  95 2.59   1 2.59

  13  0.500  0.500  0.250-  31 2.59  70 2.59 105 2.59 122 2.59  81 2.59 124 2.59 100 2.59 120 2.59

  14  0.500  0.500  0.500-  90 2.59 121 2.59 124 2.59 105 2.59   8 2.59 120 2.59  85 2.59 100 2.59

  15  0.125  0.625  0.375-  76 2.59  10 2.59  87 2.59 126 2.59  39 2.59  32 2.59 128 2.59  93 2.59

  16  0.875  0.625  0.875- 112 2.59 123 2.59  99 2.59 113 2.59  79 2.59  46 2.59  91 2.59   7 2.59

  17  0.375  0.875  0.375-  87 2.59  88 2.59 115 2.59  93 2.59  61 2.59  48 2.59 107 2.59  58 2.59

  18  0.250  0.250  0.250-  25 2.59  19 2.59  54 2.59 106 2.59  81 2.59  11 2.59  73 2.59 120 2.59

  19  0.375  0.125  0.125-  82 2.59  56 2.59  78 2.59  18 2.59  33 2.59 115 2.59  58 2.59  26 2.59

  20  0.625  0.125  0.375- 111 2.59  88 2.59  98 2.59  78 2.59  86 2.59  97 2.59  29 2.59  58 2.59

  21  0.625  0.625  0.875-  99 2.59 117 2.59 116 2.59 113 2.59  91 2.59   7 2.59  89 2.59  94 2.59

  22  0.250  0.500  0.000-  11 2.59  81 2.59  52 2.59   9 2.59 122 2.59  59 2.59   2 2.59  43 2.59

  23  0.125  0.875  0.625-  27 2.59  44 2.59 107 2.59  28 2.59  39 2.59 110 2.59  93 2.59  46 2.59

  24  0.750  0.000  0.750-  68 2.59 104 2.59 127 2.59  66 2.59  42 2.59  38 2.59  71 2.59 118 2.59

  25  0.125  0.125  0.375-  36 2.59 115 2.59  18 2.59   4 2.59 107 2.59  49 2.59  44 2.59  53 2.59

  26  0.500  0.000  0.000-  74 2.59  63 2.59 104 2.59  19 2.59 109 2.59 127 2.59  80 2.59  95 2.59

  27  0.250  0.000  0.750-  57 2.59  23 2.59  50 2.59  35 2.59  37 2.59 109 2.59   1 2.59  95 2.59

  28  0.250  0.750  0.750-  23 2.59  75 2.59  37 2.59  35 2.59 121 2.59 109 2.59  52 2.59  59 2.59

  29  0.750  0.000  0.250-  63 2.59  74 2.59 108 2.59  60 2.59  41 2.59  20 2.59  72 2.59   3 2.59

  30  0.875  0.375  0.875-  45 2.59 119 2.59 125 2.59 123 2.59  99 2.59  92 2.59  91 2.59  79 2.59

  31  0.625  0.625  0.125-  96 2.59  13 2.59 117 2.59   5 2.59  48 2.59 113 2.59  99 2.59  89 2.59

  32  0.000  0.500  0.500-  75 2.59  69 2.59 102 2.59 106 2.59  67 2.59  40 2.59  15 2.59  83 2.59

  33  0.500  0.250  0.000-  74 2.59  70 2.59 127 2.59  19 2.59  55 2.59  81 2.59  95 2.59  43 2.59

  34  0.750  0.750  0.500- 102 2.59  90 2.59  42 2.59  66 2.59  60 2.59 105 2.59   3 2.59  83 2.59

  35  0.375  0.875  0.625-  88 2.59 107 2.59  27 2.59  61 2.59  93 2.59  12 2.59  28 2.59  94 2.59

  36  0.250  0.250  0.500-  57 2.59  69 2.59  25 2.59 106 2.59  73 2.59  85 2.59 120 2.59   1 2.59

  37  0.125  0.875  0.875-   6 2.59 112 2.59  27 2.59  56 2.59  51 2.59 110 2.59  28 2.59  46 2.59

  38  0.875  0.125  0.875-  45 2.59 119 2.59 125 2.59  92 2.59  24 2.59   6 2.59 110 2.59 103 2.59

  39  0.000  0.750  0.500-  75 2.59 102 2.59  23 2.59  66 2.59  15 2.59  64 2.59   3 2.59  83 2.59

  40  0.875  0.375  0.375-  10 2.59  96 2.59  47 2.59  32 2.59  49 2.59  98 2.59  97 2.59  53 2.59

  41  0.875  0.125  0.375-  86 2.59   4 2.59  98 2.59  49 2.59  97 2.59  29 2.59  44 2.59  53 2.59

  42  0.625  0.875  0.625-  86 2.59  88 2.59  12 2.59  34 2.59  61 2.59  24 2.59  94 2.59   7 2.59

  43  0.375  0.375  0.875-  62 2.59  77 2.59  82 2.59 116 2.59  22 2.59 114 2.59  33 2.59 117 2.59

  44  0.000  0.000  0.500-  23 2.59  25 2.59  57 2.59  66 2.59  41 2.59  68 2.59  64 2.59   3 2.59

  45  0.750  0.250  0.750-  68 2.59  67 2.59 127 2.59  55 2.59  30 2.59   8 2.59  38 2.59  71 2.59

  46  0.000  0.750  0.750- 102 2.59  75 2.59  66 2.59  23 2.59  16 2.59 118 2.59  37 2.59  52 2.59

  47  0.750  0.500  0.500-  90 2.59 102 2.59  67 2.59   8 2.59 105 2.59 124 2.59  40 2.59  83 2.59

  48  0.500  0.750  0.250-  63 2.59  31 2.59  80 2.59 122 2.59 105 2.59  60 2.59  17 2.59 100 2.59

  49  0.000  0.250  0.250-  54 2.59 106 2.59  25 2.59  11 2.59 108 2.59  65 2.59  40 2.59  41 2.59

  50  0.125  0.125  0.875-  77 2.59  82 2.59 119 2.59   6 2.59  27 2.59 110 2.59  92 2.59  56 2.59

  51  0.250  0.750  0.000-  80 2.59 122 2.59 101 2.59  52 2.59   9 2.59  59 2.59  37 2.59 109 2.59

  52  0.125  0.625  0.875- 123 2.59 112 2.59  22 2.59  51 2.59 114 2.59  79 2.59  46 2.59  28 2.59

  53  0.000  0.250  0.500-  69 2.59  57 2.59  67 2.59  68 2.59  25 2.59 106 2.59  41 2.59  40 2.59

  54  0.125  0.125  0.125-  82 2.59  56 2.59   6 2.59  49 2.59  18 2.59 119 2.59   4 2.59 115 2.59

  55  0.625  0.375  0.875-  62 2.59  45 2.59 125 2.59 116 2.59  91 2.59  33 2.59  99 2.59 117 2.59

  56  0.250  0.000  0.000-  19 2.59  54 2.59 109 2.59  80 2.59  50 2.59  37 2.59  95 2.59 101 2.59

  57  0.125  0.125  0.625-  77 2.59  27 2.59  36 2.59  92 2.59 110 2.59  53 2.59 107 2.59  44 2.59

  58  0.500  0.000  0.250-  63 2.59  74 2.59  19 2.59  80 2.59  20 2.59  60 2.59  73 2.59  17 2.59

  59  0.375  0.625  0.875-  22 2.59  51 2.59 117 2.59 114 2.59 116 2.59  28 2.59  89 2.59  94 2.59

  60  0.625  0.875  0.375-  88 2.59  61 2.59   5 2.59  34 2.59  48 2.59  86 2.59  29 2.59  58 2.59

  61  0.500  0.750  0.500-  90 2.59  60 2.59  42 2.59 121 2.59 105 2.59  35 2.59  17 2.59 100 2.59

  62  0.500  0.250  0.750-   8 2.59  71 2.59  55 2.59 127 2.59  85 2.59  95 2.59   1 2.59  43 2.59

  63  0.625  0.875  0.125-   5 2.59  29 2.59  48 2.59  89 2.59 113 2.59  58 2.59  26 2.59 103 2.59

  64  0.125  0.875  0.375-  76 2.59  87 2.59   4 2.59  93 2.59 115 2.59 107 2.59  39 2.59  44 2.59

  65  0.875  0.375  0.125- 123 2.59  10 2.59  96 2.59  99 2.59 119 2.59  49 2.59  97 2.59 125 2.59

  66  0.875  0.875  0.625-  86 2.59  34 2.59  46 2.59  39 2.59   7 2.59 110 2.59  24 2.59  44 2.59

  67  0.875  0.375  0.625-  98 2.59  45 2.59  92 2.59  91 2.59  79 2.59  47 2.59  53 2.59  32 2.59

  68  0.875  0.125  0.625-  45 2.59  98 2.59  92 2.59  24 2.59 110 2.59  86 2.59  53 2.59  44 2.59

  69  0.125  0.375  0.625-  77 2.59 114 2.59  53 2.59  36 2.59  92 2.59 128 2.59  32 2.59  79 2.59

  70  0.625  0.375  0.125-  96 2.59  97 2.59 117 2.59  99 2.59  13 2.59  33 2.59 125 2.59  78 2.59

  71  0.625  0.125  0.625-  62 2.59 111 2.59  98 2.59  12 2.59  45 2.59  24 2.59  88 2.59  86 2.59

  72  0.875  0.875  0.125-  76 2.59 112 2.59   5 2.59   4 2.59   6 2.59 113 2.59  29 2.59 103 2.59

  73  0.375  0.125  0.375- 111 2.59  88 2.59 107 2.59 115 2.59  36 2.59  18 2.59  78 2.59  58 2.59

  74  0.625  0.125  0.125-  33 2.59  97 2.59  78 2.59 125 2.59 103 2.59  26 2.59  29 2.59  58 2.59

  75  0.125  0.625  0.625- 114 2.59  32 2.59 128 2.59  39 2.59  93 2.59  79 2.59  28 2.59  46 2.59

  76  0.000  0.750  0.250-  15 2.59 101 2.59  64 2.59  83 2.59   9 2.59  84 2.59  72 2.59   3 2.59

  77  0.250  0.250  0.750-  57 2.59  69 2.59  50 2.59   2 2.59  85 2.59   1 2.59  95 2.59  43 2.59

  78  0.500  0.250  0.250-  74 2.59  19 2.59  70 2.59  20 2.59 124 2.59  81 2.59  73 2.59 120 2.59

  79  0.000  0.500  0.750-  69 2.59  67 2.59  75 2.59 102 2.59  30 2.59  16 2.59   2 2.59  52 2.59

  80  0.375  0.875  0.125-  87 2.59  51 2.59  48 2.59 115 2.59  58 2.59  56 2.59  89 2.59  26 2.59

  81  0.375  0.375  0.125-  22 2.59 126 2.59  82 2.59  13 2.59  18 2.59 117 2.59  78 2.59  33 2.59

  82  0.250  0.250  0.000-  54 2.59  19 2.59  11 2.59  81 2.59   2 2.59  50 2.59  95 2.59  43 2.59

  83  0.875  0.625  0.375-  76 2.59  10 2.59  96 2.59   5 2.59  39 2.59  32 2.59  34 2.59  47 2.59

  84  0.875  0.625  0.125-  10 2.59  76 2.59 112 2.59 123 2.59  96 2.59   5 2.59  99 2.59 113 2.59

  85  0.375  0.375  0.625- 111 2.59  62 2.59  77 2.59 116 2.59  14 2.59 114 2.59  36 2.59 128 2.59

  86  0.750  0.000  0.500-  42 2.59  66 2.59  68 2.59  41 2.59  20 2.59  60 2.59  71 2.59   3 2.59

  87  0.250  0.750  0.250-  80 2.59  64 2.59 122 2.59  15 2.59 100 2.59 101 2.59   9 2.59  17 2.59

  88  0.500  1.000  0.500-  35 2.59  42 2.59  60 2.59  73 2.59  20 2.59  17 2.59   1 2.59  71 2.59

  89  0.500  0.750  0.000-  63 2.59  31 2.59 104 2.59  21 2.59  80 2.59 122 2.59 109 2.59  59 2.59

  90  0.625  0.625  0.625-  14 2.59  47 2.59 116 2.59  34 2.59  61 2.59  94 2.59  91 2.59   7 2.59

  91  0.750  0.500  0.750-  67 2.59  21 2.59 102 2.59  90 2.59  55 2.59   8 2.59  30 2.59  16 2.59

  92  1.000  0.250  0.750-  69 2.59  67 2.59  68 2.59  57 2.59  38 2.59  30 2.59  50 2.59   2 2.59

  93  0.250  0.750  0.500-  75 2.59  23 2.59  64 2.59  35 2.59 121 2.59  17 2.59 100 2.59  15 2.59

  94  0.500  0.750  0.750-  90 2.59  42 2.59 104 2.59  21 2.59 121 2.59  35 2.59 109 2.59  59 2.59

  95  0.375  0.125  0.875-  62 2.59  77 2.59  12 2.59  82 2.59  27 2.59  56 2.59  33 2.59  26 2.59

  96  0.750  0.500  0.250-  31 2.59  70 2.59 105 2.59  65 2.59  40 2.59  84 2.59 124 2.59  83 2.59

  97  0.750  0.250  0.250-  74 2.59  70 2.59 108 2.59 124 2.59  20 2.59  65 2.59  41 2.59  40 2.59

  98  0.750  0.250  0.500-  67 2.59   8 2.59  68 2.59  71 2.59 124 2.59  20 2.59  41 2.59  40 2.59

  99  0.750  0.500  0.000-  21 2.59  70 2.59  31 2.59  65 2.59  16 2.59  30 2.59  55 2.59  84 2.59

 100  0.375  0.625  0.375-  87 2.59 126 2.59  13 2.59  93 2.59  61 2.59  14 2.59  48 2.59 128 2.59

 101  0.125  0.875  0.125-  76 2.59  87 2.59 112 2.59  51 2.59   4 2.59   6 2.59 115 2.59  56 2.59

 102  0.875  0.625  0.625-  47 2.59  34 2.59  32 2.59  39 2.59  46 2.59  79 2.59  91 2.59   7 2.59

 103  0.750  0.000  0.000-  74 2.59 104 2.59  63 2.59 127 2.59 108 2.59  38 2.59 118 2.59  72 2.59

 104  0.625  0.875  0.875-  12 2.59 103 2.59  24 2.59  26 2.59 113 2.59  94 2.59  89 2.59   7 2.59

 105  0.625  0.625  0.375-   5 2.59  96 2.59  13 2.59  14 2.59  61 2.59  48 2.59  47 2.59  34 2.59

 106  0.125  0.375  0.375-  10 2.59 126 2.59 128 2.59  49 2.59  36 2.59  32 2.59  18 2.59  53 2.59

 107  0.250  0.000  0.500-  25 2.59  23 2.59  35 2.59  57 2.59  73 2.59  64 2.59  17 2.59   1 2.59

 108  0.875  0.125  0.125-   6 2.59 119 2.59 125 2.59  97 2.59  49 2.59 103 2.59   4 2.59  29 2.59

 109  0.375  0.875  0.875-  56 2.59  12 2.59  27 2.59  51 2.59  26 2.59  28 2.59  94 2.59  89 2.59

 110  0.000  0.000  0.750-  57 2.59  23 2.59  68 2.59  66 2.59  50 2.59  38 2.59  37 2.59 118 2.59

 111  0.500  0.250  0.500-  20 2.59 124 2.59   8 2.59  71 2.59  85 2.59 120 2.59  73 2.59   1 2.59

 112  0.000  0.750  0.000-  52 2.59  16 2.59  72 2.59   9 2.59  84 2.59 101 2.59  37 2.59 118 2.59

 113  0.750  0.750  0.000-  63 2.59  21 2.59  31 2.59 104 2.59  16 2.59  72 2.59 118 2.59  84 2.59

 114  0.250  0.500  0.750-  69 2.59  75 2.59   2 2.59 121 2.59  52 2.59  85 2.59  59 2.59  43 2.59

 115  0.250  0.000  0.250-  25 2.59  19 2.59  80 2.59  64 2.59  54 2.59  73 2.59  17 2.59 101 2.59

 116  0.500  0.500  0.750-  90 2.59   8 2.59  21 2.59  55 2.59 121 2.59  85 2.59  59 2.59  43 2.59

 117  0.500  0.500  0.000-  31 2.59  70 2.59  21 2.59  81 2.59  59 2.59 122 2.59  55 2.59  43 2.59

 118  0.875  0.875  0.875-   6 2.59 112 2.59  24 2.59 110 2.59  46 2.59 103 2.59 113 2.59   7 2.59

 119  0.000  0.250  0.000-   2 2.59  30 2.59 108 2.59  54 2.59  38 2.59  11 2.59  50 2.59  65 2.59

 120  0.375  0.375  0.375- 111 2.59  14 2.59  13 2.59 126 2.59 128 2.59  18 2.59  78 2.59  36 2.59

 121  0.375  0.625  0.625-  14 2.59 128 2.59  61 2.59 116 2.59 114 2.59  93 2.59  94 2.59  28 2.59

 122  0.375  0.625  0.125- 126 2.59  87 2.59  22 2.59  51 2.59  13 2.59  48 2.59 117 2.59  89 2.59

 123  1.000  0.500  0.000-  65 2.59  52 2.59  11 2.59  16 2.59  84 2.59   9 2.59   2 2.59  30 2.59

 124  0.625  0.375  0.375- 111 2.59  14 2.59  98 2.59  13 2.59  96 2.59  97 2.59  47 2.59  78 2.59

 125  0.750  0.250  0.000-  74 2.59  70 2.59 127 2.59  55 2.59  30 2.59 108 2.59  38 2.59  65 2.59

 126  0.250  0.500  0.250- 106 2.59 122 2.59  11 2.59  15 2.59  81 2.59   9 2.59 100 2.59 120 2.59

 127  0.625  0.125  0.875-  62 2.59  45 2.59 125 2.59  33 2.59  12 2.59  24 2.59 103 2.59  26 2.59

 128  0.250  0.500  0.500-  75 2.59  69 2.59 106 2.59 121 2.59 120 2.59 100 2.59  85 2.59  15 2.59

 
  LATTYP: Found a simple cubic cell.
 ALAT       =    11.9598056570
  
  Lattice vectors:
  
 A1 = (  11.9598056570,  -0.0000000455,   0.0000000878)
 A2 = (  -0.0000000555,  11.9598063888,  -0.0000000960)
 A3 = (   0.0000000930,  -0.0000000816,  11.9598053721)


Analysis of symmetry for initial positions (statically):
=====================================================================
 Subroutine PRICEL returns following result:
 
  LATTYP: Found a body centered cubic cell.
 ALAT       =     2.9899504404
  
  Lattice vectors:
  
 A1 = (   1.4949731976,   1.4949751265,  -1.4949773366)
 A2 = (  -1.4949732114,   1.4949757124,   1.4949773126)
 A3 = (   1.4949744571,  -1.4949757328,   1.4949746086)
 
 128 primitive cells build up your supercell.
 

 Routine SETGRP: Setting up the symmetry group for a 
 simple cubic supercell.


 Subroutine GETGRP returns: Found 48 space group operations
 (whereof 48 operations were pure point group operations)
 out of a pool of 48 trial point group operations.


The static configuration has the point symmetry O_h .


Analysis of symmetry for dynamics (positions and initial velocities):
=====================================================================
 Subroutine PRICEL returns following result:
 
  LATTYP: Found a body centered cubic cell.
 ALAT       =     2.9899504404
  
  Lattice vectors:
  
 A1 = (   1.4949731976,   1.4949751265,  -1.4949773366)
 A2 = (  -1.4949732114,   1.4949757124,   1.4949773126)
 A3 = (   1.4949744571,  -1.4949757328,   1.4949746086)
 
 128 primitive cells build up your supercell.
 

 Routine SETGRP: Setting up the symmetry group for a 
 simple cubic supercell.


 Subroutine GETGRP returns: Found 48 space group operations
 (whereof 48 operations were pure point group operations)
 out of a pool of 48 trial point group operations.


The dynamic configuration has the point symmetry O_h .


 Subroutine INISYM returns: Found 48 space group operations
 (whereof 48 operations are pure point group operations),
 and found   128 'primitive' translations


----------------------------------------------------------------------------------------

                                     Primitive cell                                     

  volume of cell :      13.3648

  direct lattice vectors                    reciprocal lattice vectors
     1.494973198  1.494975126 -1.494977337     0.334454084  0.334453661 -0.000000137
    -1.494973211  1.494975712  1.494977313     0.000000373  0.334453662  0.334453541
     1.494974457 -1.494975733  1.494974609     0.334454321  0.000000004  0.334453399

  length of vectors
     2.589373037  2.589373370  2.589372540     0.472989202  0.472988819  0.472989185

  position of ions in fractional coordinates (direct lattice)
     0.000002702  0.000002374  0.000002423

  ion indices of the primitive-cell ions
   primitive index   ion index
                 1           1

----------------------------------------------------------------------------------------

 
 
 KPOINTS: Automatic mesh                          

Automatic generation of k-mesh.
 Grid dimensions read from file:
 generate k-points for:    2    2    2

 Generating k-lattice:

  Cartesian coordinates                     Fractional coordinates (reciprocal lattice)
     0.041806699  0.000000000 -0.000000000     0.500000000 -0.000000000 -0.000000000
     0.000000000  0.041806697  0.000000000     0.000000000  0.500000000 -0.000000000
    -0.000000000  0.000000000  0.041806700    -0.000000000 -0.000000000  0.500000000

  Length of vectors
     0.041806699  0.041806697  0.041806700

  Shift w.r.t. Gamma in fractional coordinates (k-lattice)
     0.000000000  0.000000000  0.000000000

 
 Subroutine IBZKPT returns following result:
 ===========================================
 
 Found      4 irreducible k-points:
 
 Following reciprocal coordinates:
            Coordinates               Weight
  0.000000  0.000000  0.000000      1.000000
  0.500000  0.000000  0.000000      3.000000
  0.500000  0.500000  0.000000      3.000000
  0.500000  0.500000  0.500000      1.000000
 
 Following cartesian coordinates:
            Coordinates               Weight
  0.000000  0.000000  0.000000      1.000000
  0.041807  0.000000 -0.000000      3.000000
  0.041807  0.041807 -0.000000      3.000000
  0.041807  0.041807  0.041807      1.000000
 


--------------------------------------------------------------------------------------------------------




 Dimension of arrays:
   k-points           NKPTS =      4   k-points in BZ     NKDIM =      4   number of bands    NBANDS=   1000
   number of dos      NEDOS =    301   number of ions     NIONS =    128
   non local maximal  LDIM  =      6   non local SUM 2l+1 LMDIM =     18
   total plane-waves  NPLWV = 175616
   max r-space proj   IRMAX =   1560   max aug-charges    IRDMAX=   3699
   dimension x,y,z NGX =    56 NGY =   56 NGZ =   56
   dimension x,y,z NGXF=   112 NGYF=  112 NGZF=  112
   support grid    NGXF=   112 NGYF=  112 NGZF=  112
   ions per type =             128
   NGX,Y,Z   is equivalent  to a cutoff of   7.78,  7.78,  7.78 a.u.
   NGXF,Y,Z  is equivalent  to a cutoff of  15.57, 15.57, 15.57 a.u.

 SYSTEM =  bcc_NbZr_Zr128                          
 POSCAR =   V                                      

 Startparameter for this run:
   NWRITE =      2    write-flag & timer
   PREC   = normal    normal or accurate (medium, high low for compatibility)
   ISTART =      0    job   : 0-new  1-cont  2-samecut
   ICHARG =      2    charge: 1-file 2-atom 10-const
   ISPIN  =      1    spin polarized calculation?
   LNONCOLLINEAR =      F non collinear calculations
   LSORBIT =      F    spin-orbit coupling
   INIWAV =      1    electr: 0-lowe 1-rand  2-diag
   LASPH  =      F    aspherical Exc in radial PAW
 Electronic Relaxation 1
   ENCUT  =  350.0 eV  25.72 Ry    5.07 a.u.  18.24 18.24 18.24*2*pi/ulx,y,z
   ENINI  =  350.0     initial cutoff
   ENAUG  =  526.6 eV  augmentation charge cutoff
   NELM   =    120;   NELMIN=  2; NELMDL= -5     # of ELM steps 
   EDIFF  = 0.1E-05   stopping-criterion for ELM
   LREAL  =      T    real-space projection
   NLSPLINE    = F    spline interpolate recip. space projectors
   LCOMPAT=      F    compatible to vasp.4.4
   GGA_COMPAT  = T    GGA compatible to vasp.4.4-vasp.4.6
   LMAXPAW     = -100 max onsite density
   LMAXMIX     =    2 max onsite mixed and CHGCAR
   VOSKOWN=      0    Vosko Wilk Nusair interpolation
   ROPT   =   -0.00050
 Ionic relaxation
   EDIFFG = 0.1E-04   stopping-criterion for IOM
   NSW    =    100    number of steps for IOM
   NBLOCK =      1;   KBLOCK =    100    inner block; outer block 
   IBRION =      2    ionic relax: 0-MD 1-quasi-New 2-CG
   NFREE  =      1    steps in history (QN), initial steepest desc. (CG)
   ISIF   =      3    stress and relaxation
   IWAVPR =     11    prediction:  0-non 1-charg 2-wave 3-comb
   ISYM   =      2    0-nonsym 1-usesym 2-fastsym
   LCORR  =      T    Harris-Foulkes like correction to forces

   POTIM  = 0.5000    time-step for ionic-motion
   TEIN   =    0.0    initial temperature
   TEBEG  =    0.0;   TEEND  =   0.0 temperature during run
   SMASS  =  -3.00    Nose mass-parameter (am)
   estimated Nose-frequenzy (Omega)   =  0.10E-29 period in steps = 0.13E+47 mass=  -0.327E-26a.u.
   SCALEE = 1.0000    scale energy and forces
   NPACO  =    256;   APACO  = 10.0  distance and # of slots for P.C.
   PSTRESS=    0.0 pullay stress

  Mass of Ions in am
   POMASS =  50.94
  Ionic Valenz
   ZVAL   =  13.00
  Atomic Wigner-Seitz radii
   RWIGS  =  -1.00
  virtual crystal weights 
   VCA    =   1.00
   NELECT =    1664.0000    total number of electrons
   NUPDOWN=      -1.0000    fix difference up-down

 DOS related values:
   EMIN   =  10.00;   EMAX   =-10.00  energy-range for DOS
   EFERMI =   0.00;   METHOD = LEGACY      
   ISMEAR =     1;   SIGMA  =   0.20  broadening in eV -4-tet -1-fermi 0-gaus
   EFERMI_NEDOS =   21; number of points for ismear=-14 and -15

 Electronic relaxation 2 (details)
   IALGO  =     38    algorithm
   LDIAG  =      T    sub-space diagonalisation (order eigenvalues)
   LSUBROT=      F    optimize rotation matrix (better conditioning)
   LROBUST=      F    robust break criterion during scf (extrapolated energy error)
   ISEARCH=      0    line search for conjugate gradient (0, 1=use gradient)
   TURBO    =      0    0=normal 1=particle mesh
   IRESTART =      0    0=no restart 2=restart with 2 vectors
   NREBOOT  =      0    no. of reboots
   NMIN     =      0    reboot dimension
   EREF     =   0.00    reference energy to select bands
   IMIX   =      4    mixing-type and parameters
     AMIX     =   0.40;   BMIX     =  1.00
     AMIX_MAG =   1.60;   BMIX_MAG =  1.00
     AMIN     =   0.10
     WC   =   100.;   INIMIX=   1;  MIXPRE=   1;  MAXMIX= -45

 Intra band minimization:
   WEIMIN = 0.0010     energy-eigenvalue tresh-hold
   EBREAK =  0.25E-09  absolut break condition
   DEPER  =   0.30     relativ break condition  

   TIME   =   0.40     timestep for ELM

  volume/ion in A,a.u.               =      13.36        90.19
  Fermi-wavevector in a.u.,A,eV,Ry     =   1.622066  3.065260 35.798256  2.631098
  Thomas-Fermi vector in A             =   2.715740
 
 Write flags
   LWAVE        =      F    write WAVECAR
   LDOWNSAMPLE  =      F    k-point downsampling of WAVECAR
   LCHARG       =      F    write CHGCAR
   LVTOT        =      F    write LOCPOT, total local potential
   LVHAR        =      F    write LOCPOT, Hartree potential only
   WRT_POTENTIAL= false  ! write potential to hdf5 file
   LELF         =      F    write electronic localiz. function (ELF)
   LORBIT       =      0    0 simple, 1 ext, 2 COOP (PROOUT), +10 PAW based schemes


 Python interface
   PLUGINS active      =      F    recompile with -DPLUGINS to activate
 
 Dipole corrections
   LMONO      =      F    monopole corrections only (constant potential shift)
   LDIPOL     =      F    correct potential (dipole corrections)
   IDIPOL     =      0    1-x, 2-y, 3-z, 4-all directions 
   EPSILON    =  1.0000000 bulk dielectric constant
   LVACPOTAV  =      F  vacuum potentials using an averaging scheme for the charge density
   VACPOTFLAT =  0.1000000 required flatness to determine vacuum potential
 
Coulomb truncation method
  LTRUNCATE          =      F  Coulomb kernel truncation to be used

 
 Exchange correlation treatment:
   GGA     = PE    functional components
   XC_C    = 1    coefficients multiplying the functional components
   LIBXC   =     F    Libxc                    
   VOSKOWN =     0    Vosko Wilk Nusair interpolation
   LHFCALC =     F    Hartree Fock is set to
   LHFONE  =     F    Hartree Fock one center treatment
   AEXX    =    0.0000 exact exchange contribution

 Parameters of functionals:
   PE:
     No parameter
 
 Van der Waals corrections
   IVDW    =     0    specifies the selected vdW correction

 Linear response parameters
   LEPSILON=     F    determine dielectric tensor
   LRPA    =     F    only Hartree local field effects (RPA)
   LNABLA  =     F    use nabla operator in PAW spheres
   LVEL    =     F    velocity operator in full k-point grid
   CSHIFT  =0.1000    complex shift for real part using Kramers Kronig
   OMEGAMAX=  -1.0    maximum frequency
   DEG_THRESHOLD= 0.2000000E-02 threshold for treating states as degnerate
   RTIME   =   -0.100 relaxation time in fs
  (WPLASMAI=    0.000 imaginary part of plasma frequency in eV, 0.658/RTIME)
   DFIELD  = 0.0000000 0.0000000 0.0000000 field for delta impulse in time
 
  Optional k-point grid parameters
   LKPOINTS_OPT  =     F    use optional k-point grid
   KPOINTS_OPT_MODE=     1    mode for optional k-point grid
 
 Orbital magnetization related:
   ORBITALMAG=     F  switch on orbital magnetization
   LCHIMAG   =     F  perturbation theory with respect to B field
   DQ        =  0.001000  dq finite difference perturbation B field
   LLRAUG    =     F  two centre corrections for induced B field
   LBONE     =     F  B-component reconstruction in AE one-centre
   LVGVCALC  =     T  calculate vGv susceptibility
   LVGVAPPL  =     F  apply vGv susceptibility instead of pGv for G=0

 Random number generation:
   RANDOM_GENERATOR = DEFAULT
   PCG_SEED         = not used


--------------------------------------------------------------------------------------------------------


 conjugate gradient relaxation of ions
 charge density and potential will be updated during run
 non-spin polarized calculation
 Variant of blocked Davidson
 Davidson routine will perform the subspace rotation
 perform sub-space diagonalisation
    after iterative eigenvector-optimisation
 modified Broyden-mixing scheme, WC =      100.0
 initial mixing is a Kerker type mixing with AMIX =  0.4000 and BMIX =      1.0000
 Hartree-type preconditioning will be used
 using additional bands           168
 real space projection scheme for non local part
 use partial core corrections
 calculate Harris-corrections to forces 
   (improved forces if not selfconsistent)
 use gradient corrections 
 use of overlap-Matrix (Vanderbilt PP)
 Methfessel and Paxton  Order N= 1 SIGMA  =   0.20


--------------------------------------------------------------------------------------------------------


  energy-cutoff  :      350.00
  volume of cell :     1710.69
      direct lattice vectors                 reciprocal lattice vectors
    11.959805657 -0.000000045  0.000000088     0.083613399  0.000000000 -0.000000001
    -0.000000055 11.959806389 -0.000000096     0.000000000  0.083613394  0.000000001
     0.000000093 -0.000000082 11.959805372    -0.000000001  0.000000001  0.083613401

  length of vectors
    11.959805657 11.959806389 11.959805372     0.083613399  0.083613394  0.083613401


 
 k-points in units of 2pi/SCALE and weight: Automatic mesh                          
   0.00000000  0.00000000  0.00000000       0.125
   0.04180670  0.00000000 -0.00000000       0.375
   0.04180670  0.04180670 -0.00000000       0.375
   0.04180670  0.04180670  0.04180670       0.125
 
 k-points in reciprocal lattice and weights: Automatic mesh                          
   0.00000000  0.00000000  0.00000000       0.125
   0.50000000  0.00000000  0.00000000       0.375
   0.50000000  0.50000000  0.00000000       0.375
   0.50000000  0.50000000  0.50000000       0.125
 
 position of ions in fractional coordinates (direct lattice) 
   0.37500013  0.12500023  0.62500004
   0.12500006  0.37499995  0.87500011
   0.87500004  0.87499978  0.37499983
   0.00000015  0.00000015  0.25000007
   0.74999975  0.74999991  0.24999987
   0.00000005  0.00000020  0.00000003
   0.74999994  0.74999985  0.74999983
   0.62499996  0.37499975  0.62500002
   0.12499983  0.62499991  0.12500018
   0.00000017  0.49999989  0.24999991
   0.12499991  0.37500025  0.12499998
   0.50000026  0.99999996  0.75000000
   0.50000014  0.50000002  0.24999987
   0.50000020  0.50000003  0.50000005
   0.12499983  0.62499994  0.37499963
   0.87500017  0.62499985  0.87500026
   0.37499997  0.87499991  0.37499997
   0.24999990  0.24999997  0.24999996
   0.37499991  0.12500016  0.12500003
   0.62499996  0.12500020  0.37500026
   0.62500013  0.62499965  0.87500008
   0.24999979  0.49999993  0.00000029
   0.12500000  0.87500011  0.62499995
   0.75000000  0.00000014  0.74999994
   0.12500010  0.12500005  0.37499991
   0.50000028  0.00000006  0.00000032
   0.24999971  0.00000001  0.74999980
   0.24999980  0.74999995  0.74999972
   0.74999975  0.00000007  0.24999979
   0.87499996  0.37499988  0.87500003
   0.62500012  0.62499974  0.12500022
   0.00000014  0.49999989  0.50000028
   0.50000033  0.24999991  0.00000031
   0.74999997  0.74999983  0.50000022
   0.37500001  0.87500026  0.62499976
   0.24999959  0.25000007  0.49999999
   0.12499987  0.87500005  0.87500012
   0.87500002  0.12500024  0.87499996
   0.00000010  0.74999988  0.50000021
   0.87499998  0.37500023  0.37499990
   0.87499990  0.12500007  0.37500000
   0.62500001  0.87500018  0.62499976
   0.37499996  0.37499990  0.87499989
   0.00000021  0.00000014  0.50000015
   0.75000009  0.25000010  0.74999998
   0.00000001  0.74999981  0.74999970
   0.74999993  0.49999997  0.50000025
   0.50000013  0.74999992  0.24999980
   0.00000020  0.25000009  0.25000001
   0.12499999  0.12500021  0.87499995
   0.24999997  0.74999989  0.00000019
   0.12499989  0.62499979  0.87500036
   0.00000022  0.25000008  0.50000028
   0.12499994  0.12500014  0.12499994
   0.62500001  0.37499984  0.87499982
   0.24999999  0.00000019  0.00000019
   0.12500024  0.12500017  0.62500020
   0.50000011  0.00000011  0.24999974
   0.37499982  0.62499960  0.87500014
   0.62499996  0.87499991  0.37500015
   0.50000011  0.74999989  0.50000005
   0.50000038  0.25000013  0.74999994
   0.62500009  0.87499990  0.12500014
   0.12500002  0.87499976  0.37499975
   0.87500013  0.37500025  0.12500001
   0.87499997  0.87500000  0.62499995
   0.87499986  0.37499989  0.62500006
   0.87499978  0.12500027  0.62500012
   0.12500005  0.37499995  0.62500005
   0.62500011  0.37500012  0.12500006
   0.62499985  0.12500034  0.62500001
   0.87500031  0.87499975  0.12500011
   0.37500006  0.12500013  0.37500023
   0.62500004  0.12500024  0.12499997
   0.12500000  0.62499978  0.62499983
   0.00000015  0.74999986  0.25000006
   0.24999952  0.25000009  0.74999975
   0.50000010  0.24999996  0.24999979
   0.00000000  0.49999986  0.74999973
   0.37499977  0.87499984  0.12500023
   0.37499986  0.37500014  0.12500000
   0.24999984  0.24999997  0.00000030
   0.87500021  0.62499991  0.37499967
   0.87500027  0.62499987  0.12500025
   0.37500012  0.37499982  0.62500002
   0.75000002  0.00000002  0.50000016
   0.24999998  0.74999988  0.25000002
   0.50000001  0.99999995  0.49999993
   0.50000030  0.74999998  0.00000025
   0.62499993  0.62499974  0.62499980
   0.75000003  0.49999994  0.74999986
   0.99999999  0.25000011  0.74999970
   0.24999983  0.74999993  0.50000007
   0.50000025  0.74999991  0.74999986
   0.37499995  0.12500027  0.87499972
   0.74999983  0.49999992  0.24999987
   0.74999981  0.25000007  0.24999977
   0.75000006  0.25000021  0.50000021
   0.74999988  0.49999989  0.00000003
   0.37499992  0.62499992  0.37499991
   0.12499982  0.87499971  0.12500017
   0.87500000  0.62499984  0.62499982
   0.74999967  0.00000019  0.00000011
   0.62500009  0.87500021  0.87499996
   0.62500005  0.62499989  0.37499992
   0.12500001  0.37500025  0.37499986
   0.24999976  0.00000005  0.49999995
   0.87500010  0.12500013  0.12499992
   0.37499990  0.87500022  0.87500004
   0.00000003  0.00000023  0.74999974
   0.50000014  0.25000015  0.49999993
   0.00000002  0.74999976  0.00000003
   0.74999969  0.74999985  0.00000010
   0.24999961  0.49999996  0.74999964
   0.24999999  0.00000020  0.25000007
   0.50000035  0.50000000  0.74999980
   0.50000035  0.50000005  0.00000027
   0.87500015  0.87500004  0.87500013
   0.00000000  0.25000013  0.00000002
   0.37500008  0.37500002  0.37500007
   0.37500008  0.62499970  0.62499977
   0.37499978  0.62499986  0.12500019
   0.99999998  0.49999990  0.00000006
   0.62499993  0.37499999  0.37500011
   0.74999983  0.25000006  0.00000004
   0.24999988  0.49999996  0.24999995
   0.62500004  0.12500031  0.87499976
   0.24999974  0.49999993  0.50000011
 
 position of ions in cartesian coordinates  (Angst):
   4.48492870  1.49497842  7.47487883
   1.49497652  4.48492667 10.46483099
  10.46483036 10.46482786  4.48492499
   0.00000181  0.00000174  2.98995224
   8.96985118  8.96985370  2.98994973
   0.00000057  0.00000233  0.00000032
   8.96985360  8.96985290  8.96985196
   7.47487806  4.48492428  7.47487859
   1.49497370  7.47487785  1.49497781
   0.00000198  5.97990180  2.98995020
   1.49497459  4.48493031  1.49497540
   5.97990591 11.95980581  8.96985398
   5.97990451  5.97990338  2.98994984
   5.97990528  5.97990347  5.97990322
   1.49497362  7.47487822  4.48492248
  10.46483209  7.47487705 10.46483283
   4.48492675 10.46482949  4.48492661
   2.98995018  2.98995116  2.98995089
   4.48492610  1.49497771  1.49497609
   7.47487804  1.49497813  4.48493020
   7.47488011  7.47487477 10.46483069
   2.98994886  5.97990239  0.00000342
   1.49497572 10.46483179  7.47487770
   8.96985433  0.00000156  8.96985341
   1.49497694  1.49497639  4.48492594
   5.97990612  0.00000072  0.00000383
   2.98994799  0.00000008  8.96985163
   2.98994909  8.96985414  8.96985059
   8.96985126  0.00000080  2.98994892
  10.46482952  4.48492586 10.46483014
   7.47487993  7.47487583  1.49497825
   0.00000165  5.97990183  5.97990598
   5.97990679  2.98995052  0.00000372
   8.96985385  8.96985272  5.97990535
   4.48492721 10.46483360  7.47487543
   2.98994652  2.98995234  5.97990251
   1.49497419 10.46483115 10.46483107
  10.46483024  1.49497861 10.46482928
   0.00000121  8.96985328  5.97990507
  10.46482973  4.48493005  4.48492586
  10.46482873  1.49497658  4.48492703
   7.47487870 10.46483266  7.47487543
   4.48492671  4.48492611 10.46482833
   0.00000255  0.00000158  5.97990445
   8.96985536  2.98995273  8.96985382
   0.00000015  8.96985251  8.96985032
   8.96985341  5.97990281  5.97990573
   5.97990433  8.96985383  2.98994894
   0.00000244  2.98995261  2.98995147
   1.49497562  1.49497823 10.46482910
   2.98995105  8.96985351  0.00000226
   1.49497441  7.47487636 10.46483394
   0.00000266  2.98995252  5.97990595
   1.49497501  1.49497744  1.49497490
   7.47487875  4.48492539 10.46482757
   2.98995131  0.00000227  0.00000226
   1.49497864  1.49497779  7.47488078
   5.97990414  0.00000131  2.98994830
   4.48492503  7.47487412 10.46483138
   7.47487808 10.46482950  4.48492875
   5.97990414  8.96985343  5.97990325
   5.97990738  2.98995307  8.96985339
   7.47487954 10.46482933  1.49497737
   1.49497595 10.46482771  4.48492394
  10.46483150  4.48493036  1.49497583
  10.46482966 10.46483052  7.47487772
  10.46482829  4.48492597  7.47487916
  10.46482739  1.49497891  7.47487988
   1.49497638  4.48492679  7.47487896
   7.47487980  4.48492878  1.49497638
   7.47487681  1.49497976  7.47487854
  10.46483361 10.46482757  1.49497696
   4.48492782  1.49497728  4.48492974
   7.47487898  1.49497861  1.49497535
   1.49497576  7.47487633  7.47487631
   0.00000178  8.96985305  2.98995201
   2.98994573  2.98995265  8.96985107
   5.97990407  2.98995109  2.98994886
   0.00000007  5.97990144  8.96985081
   4.48492437 10.46482859  1.49497839
   4.48492539  4.48492906  1.49497572
   2.98994951  2.98995119  0.00000364
  10.46483244  7.47487789  4.48492309
  10.46483315  7.47487742  1.49497868
   4.48492865  4.48492513  7.47487860
   8.96985459  0.00000019  5.97990470
   2.98995111  8.96985328  2.98995159
   5.97990290 11.95980568  5.97990175
   5.97990636  8.96985452  0.00000302
   7.47487767  7.47487579  7.47487592
   8.96985461  5.97990242  8.96985231
  11.95980564  2.98995284  8.96985046
   2.98994941  8.96985393  5.97990351
   5.97990580  8.96985360  8.96985231
   4.48492659  1.49497893 10.46482633
   8.96985225  5.97990222  2.98994982
   8.96985195  2.98995243  2.98994865
   8.96985497  2.98995398  5.97990524
   8.96985281  5.97990188  0.00000032
   4.48492612  7.47487798  4.48492589
   1.49497355 10.46482713  1.49497768
  10.46482998  7.47487702  7.47487628
   8.96985032  0.00000222  0.00000132
   7.47487962 10.46483301 10.46482922
   7.47487915  7.47487758  4.48492604
   1.49497588  4.48493038  4.48492535
   2.98994858  0.00000060  5.97990215
  10.46483116  1.49497729  1.49497476
   4.48492595 10.46483309 10.46483009
   0.00000042  0.00000266  8.96985093
   5.97990449  2.98995333  5.97990192
   0.00000023  8.96985190  0.00000032
   8.96985050  8.96985296  0.00000118
   2.98994684  5.97990266  8.96984968
   2.98995133  0.00000237  2.98995215
   5.97990706  5.97990316  8.96985163
   5.97990700  5.97990373  0.00000327
  10.46483175 10.46483093 10.46483122
   0.00000002  2.98995317  0.00000024
   4.48492812  4.48492756  4.48492787
   4.48492815  7.47487536  7.47487563
   4.48492441  7.47487732  1.49497795
  11.95980543  5.97990193  0.00000077
   7.47487771  4.48492718  4.48492831
   8.96985219  2.98995229  0.00000056
   2.98994998  5.97990266  2.98995075
   7.47487909  1.49497946 10.46482692
   2.98994837  5.97990226  5.97990401
 


--------------------------------------------------------------------------------------------------------


 k-point     1 :   0.0000 0.0000 0.0000  plane waves:   25413
 k-point     2 :   0.5000 0.0000 0.0000  plane waves:   25452
 k-point     3 :   0.5000 0.5000 0.0000  plane waves:   25500
 k-point     4 :   0.5000 0.5000 0.5000  plane waves:   25576

 maximum and minimum number of plane-waves per node :     25576    25413

 maximum number of plane-waves:     25576
 maximum index in each direction: 
   IXMAX=   18   IYMAX=   18   IZMAX=   18
   IXMIN=  -18   IYMIN=  -18   IZMIN=  -18


 serial   3D FFT for wavefunctions
 parallel 3D FFT for charge:
    minimum data exchange during FFTs selected (reduces bandwidth)


 total amount of memory used by VASP MPI-rank0   546878. kBytes
=======================================================================

   base                                    :      30000. kBytes
   nonlr-proj                              :      31964. kBytes
   fftplans                                :      12710. kBytes
   grid                                    :      24134. kBytes
   one-center                              :       1990. kBytes
   wavefun                                 :     446080. kBytes
 
     INWAV:  cpu time      0.0001: real time      0.0006
 Broyden mixing: mesh for mixing (old mesh)
   NGX = 37   NGY = 37   NGZ = 37
  (NGX  =112   NGY  =112   NGZ  =112)
  gives a total of  50653 points

 initial charge density was supplied:
 charge density of overlapping atoms calculated
 number of electron    1664.0000000 magnetization 
 keeping initial charge density in first step


--------------------------------------------------------------------------------------------------------


 Maximum index for non-local projection operator          1419
 Maximum index for augmentation-charges           857 (set IRDMAX)


--------------------------------------------------------------------------------------------------------


 First call to EWALD:  gamma=   0.148
 Maximum number of real-space cells   3x   3x   3
 Maximum number of reciprocal cells   3x   3x   3

    FEWALD:  cpu time      0.1621: real time      0.1621


--------------------------------------- Ionic step        1  -------------------------------------------




--------------------------------------- Iteration      1(   1)  ---------------------------------------


    POTLOK:  cpu time      0.0729: real time      0.0682
    SETDIJ:  cpu time      0.1607: real time      0.0135
     EDDAV:  cpu time      3.8235: real time      4.9941
       DOS:  cpu time      0.0018: real time      0.0042
    --------------------------------------------
      LOOP:  cpu time      4.0592: real time      5.0809

 eigenvalue-minimisations  :  8152
 total energy-change (2. order) : 0.2455317E+05  (-0.7979264E+05)
 number of electron    1664.0000000 magnetization 
 augmentation part     1664.0000000 magnetization 

 Free energy of the ion-electron system (eV)
  ---------------------------------------------------
  alpha Z        PSCENC =     11701.71006411
  Ewald energy   TEWEN  =   -189569.57575594
  -Hartree energ DENC   =    -54565.97708058
  -exchange      EXHF   =         0.00000000
  -V(xc)+E(xc)   XCENC  =      9176.40002743
  PAW double counting   =    197890.18856006  -199861.50478768
  entropy T*S    EENTRO =        -0.02013379
  eigenvalues    EBANDS =       -81.03409052
  atomic energy  EATOM  =    249862.97952924
  Solvation  Ediel_sol  =         0.00000000
  ---------------------------------------------------
  free energy    TOTEN  =     24553.16633236 eV

  energy without entropy =    24553.18646614  energy(sigma->0) =    24553.17304362


--------------------------------------------------------------------------------------------------------




--------------------------------------- Iteration      1(   2)  ---------------------------------------


     EDDAV:  cpu time      3.1096: real time      3.0897
       DOS:  cpu time      0.0012: real time      0.0012
    --------------------------------------------
      LOOP:  cpu time      3.1108: real time      3.0902

 eigenvalue-minimisations  :  8000
 total energy-change (2. order) :-0.2421657E+05  (-0.2368142E+05)
 number of electron    1664.0000000 magnetization 
 augmentation part     1664.0000000 magnetization 

 Free energy of the ion-electron system (eV)
  ---------------------------------------------------
  alpha Z        PSCENC =     11701.71006411
  Ewald energy   TEWEN  =   -189569.57575594
  -Hartree energ DENC   =    -54565.97708058
  -exchange      EXHF   =         0.00000000
  -V(xc)+E(xc)   XCENC  =      9176.40002743
  PAW double counting   =    197890.18856006  -199861.50478768
  entropy T*S    EENTRO =         0.03778802
  eigenvalues    EBANDS =    -24297.66028249
  atomic energy  EATOM  =    249862.97952924
  Solvation  Ediel_sol  =         0.00000000
  ---------------------------------------------------
  free energy    TOTEN  =       336.59806220 eV

  energy without entropy =      336.56027418  energy(sigma->0) =      336.58546619


--------------------------------------------------------------------------------------------------------




--------------------------------------- Iteration      1(   3)  ---------------------------------------


     EDDAV:  cpu time      3.8992: real time      3.8772
       DOS:  cpu time      0.0013: real time      0.0013
    --------------------------------------------
      LOOP:  cpu time      3.9005: real time      3.8784

 eigenvalue-minimisations  : 10568
 total energy-change (2. order) :-0.1578308E+04  (-0.1495996E+04)
 number of electron    1664.0000000 magnetization 
 augmentation part     1664.0000000 magnetization 

 Free energy of the ion-electron system (eV)
  ---------------------------------------------------
  alpha Z        PSCENC =     11701.71006411
  Ewald energy   TEWEN  =   -189569.57575594
  -Hartree energ DENC   =    -54565.97708058
  -exchange      EXHF   =         0.00000000
  -V(xc)+E(xc)   XCENC  =      9176.40002743
  PAW double counting   =    197890.18856006  -199861.50478768
  entropy T*S    EENTRO =         0.25970158
  eigenvalues    EBANDS =    -25876.18990441
  atomic energy  EATOM  =    249862.97952924
  Solvation  Ediel_sol  =         0.00000000
  ---------------------------------------------------
  free energy    TOTEN  =     -1241.70964617 eV

  energy without entropy =    -1241.96934775  energy(sigma->0) =    -1241.79621336


--------------------------------------------------------------------------------------------------------




--------------------------------------- Iteration      1(   4)  ---------------------------------------


     EDDAV:  cpu time      3.7193: real time      3.6983
       DOS:  cpu time      0.0012: real time      0.0012
    --------------------------------------------
      LOOP:  cpu time      3.7205: real time      3.6995

 eigenvalue-minimisations  :  9992
 total energy-change (2. order) :-0.8384368E+02  (-0.8023729E+02)
 number of electron    1664.0000000 magnetization 
 augmentation part     1664.0000000 magnetization 

 Free energy of the ion-electron system (eV)
  ---------------------------------------------------
  alpha Z        PSCENC =     11701.71006411
  Ewald energy   TEWEN  =   -189569.57575594
  -Hartree energ DENC   =    -54565.97708058
  -exchange      EXHF   =         0.00000000
  -V(xc)+E(xc)   XCENC  =      9176.40002743
  PAW double counting   =    197890.18856006  -199861.50478768
  entropy T*S    EENTRO =         0.69884394
  eigenvalues    EBANDS =    -25960.47272824
  atomic energy  EATOM  =    249862.97952924
  Solvation  Ediel_sol  =         0.00000000
  ---------------------------------------------------
  free energy    TOTEN  =     -1325.55332764 eV

  energy without entropy =    -1326.25217158  energy(sigma->0) =    -1325.78627562


--------------------------------------------------------------------------------------------------------




--------------------------------------- Iteration      1(   5)  ---------------------------------------


     EDDAV:  cpu time      3.6342: real time      3.6202
       DOS:  cpu time      0.0013: real time      0.0013
    CHARGE:  cpu time      0.4253: real time      0.2723
    MIXING:  cpu time      0.0601: real time      0.0053
    --------------------------------------------
      LOOP:  cpu time      4.1208: real time      3.8989

 eigenvalue-minimisations  :  9704
 total energy-change (2. order) :-0.1960096E+01  (-0.1944466E+01)
 number of electron    1664.0020492 magnetization 
 augmentation part      548.0881451 magnetization 

 Broyden mixing:
  rms(total) = 0.20806E+02    rms(broyden)= 0.20805E+02
  rms(prec ) = 0.21666E+02
  weight for this iteration     100.00

 Free energy of the ion-electron system (eV)
  ---------------------------------------------------
  alpha Z        PSCENC =     11701.71006411
  Ewald energy   TEWEN  =   -189569.57575594
  -Hartree energ DENC   =    -54565.97708058
  -exchange      EXHF   =         0.00000000
  -V(xc)+E(xc)   XCENC  =      9176.40002743
  PAW double counting   =    197890.18856006  -199861.50478768
  entropy T*S    EENTRO =         0.70374536
  eigenvalues    EBANDS =    -25962.43772521
  atomic energy  EATOM  =    249862.97952924
  Solvation  Ediel_sol  =         0.00000000
  ---------------------------------------------------
  free energy    TOTEN  =     -1327.51342319 eV

  energy without entropy =    -1328.21716855  energy(sigma->0) =    -1327.74800497


--------------------------------------------------------------------------------------------------------




--------------------------------------- Iteration      1(   6)  ---------------------------------------


    POTLOK:  cpu time      0.0362: real time      0.0138
    SETDIJ:  cpu time      0.1016: real time      0.0064
     EDDAV:  cpu time      3.2175: real time      3.1644
       DOS:  cpu time      0.0013: real time      0.0013
    CHARGE:  cpu time      0.4062: real time      0.2658
    MIXING:  cpu time      0.0399: real time      0.0030
    --------------------------------------------
      LOOP:  cpu time      3.8026: real time      3.4548

 eigenvalue-minimisations  :  8280
 total energy-change (2. order) : 0.1739719E+03  (-0.8623912E+02)
 number of electron    1664.0022132 magnetization 
 augmentation part      603.4847735 magnetization 

 Broyden mixing:
  rms(total) = 0.21071E+01    rms(broyden)= 0.21013E+01
  rms(prec ) = 0.22198E+01
  weight for this iteration     100.00

 eigenvalues of (default mixing * dielectric matrix)
  average eigenvalue GAMMA=   1.0749
  1.0749

 Free energy of the ion-electron system (eV)
  ---------------------------------------------------
  alpha Z        PSCENC =     11701.71006411
  Ewald energy   TEWEN  =   -189569.57575594
  -Hartree energ DENC   =    -50460.30933207
  -exchange      EXHF   =         0.00000000
  -V(xc)+E(xc)   XCENC  =      8973.02294931
  PAW double counting   =    228138.95956560  -230258.04031018
  entropy T*S    EENTRO =        -0.40863432
  eigenvalues    EBANDS =    -29541.87964035
  atomic energy  EATOM  =    249862.97952924
  Solvation  Ediel_sol  =         0.00000000
  ---------------------------------------------------
  free energy    TOTEN  =     -1153.54156459 eV

  energy without entropy =    -1153.13293026  energy(sigma->0) =    -1153.40535315


--------------------------------------------------------------------------------------------------------




--------------------------------------- Iteration      1(   7)  ---------------------------------------


    POTLOK:  cpu time      0.0423: real time      0.0203
    SETDIJ:  cpu time      0.0934: real time      0.0062
     EDDAV:  cpu time      3.5640: real time      3.5093
       DOS:  cpu time      0.0014: real time      0.0013
    CHARGE:  cpu time      0.3978: real time      0.2642
    MIXING:  cpu time      0.0389: real time      0.0029
    --------------------------------------------
      LOOP:  cpu time      4.1378: real time      3.8043

 eigenvalue-minimisations  :  9376
 total energy-change (2. order) : 0.1749719E+01  (-0.1214303E+01)
 number of electron    1664.0022190 magnetization 
 augmentation part      605.5414479 magnetization 

 Broyden mixing:
  rms(total) = 0.10557E+01    rms(broyden)= 0.10553E+01
  rms(prec ) = 0.11119E+01
  weight for this iteration     100.00

 eigenvalues of (default mixing * dielectric matrix)
  average eigenvalue GAMMA=   1.7894
  1.0259  2.5530

 Free energy of the ion-electron system (eV)
  ---------------------------------------------------
  alpha Z        PSCENC =     11701.71006411
  Ewald energy   TEWEN  =   -189569.57575594
  -Hartree energ DENC   =    -50195.54962647
  -exchange      EXHF   =         0.00000000
  -V(xc)+E(xc)   XCENC  =      8960.37979365
  PAW double counting   =    237372.73037967  -239613.06629987
  entropy T*S    EENTRO =        -0.42186598
  eigenvalues    EBANDS =    -29670.97806425
  atomic energy  EATOM  =    249862.97952924
  Solvation  Ediel_sol  =         0.00000000
  ---------------------------------------------------
  free energy    TOTEN  =     -1151.79184583 eV

  energy without entropy =    -1151.36997985  energy(sigma->0) =    -1151.65122384


--------------------------------------------------------------------------------------------------------




--------------------------------------- Iteration      1(   8)  ---------------------------------------


    POTLOK:  cpu time      0.0352: real time      0.0111
    SETDIJ:  cpu time      0.0904: real time      0.0061
     EDDAV:  cpu time      3.4553: real time      3.4011
       DOS:  cpu time      0.0014: real time      0.0014
    CHARGE:  cpu time      0.4045: real time      0.2654
    MIXING:  cpu time      0.0413: real time      0.0030
    --------------------------------------------
      LOOP:  cpu time      4.0282: real time      3.6880

 eigenvalue-minimisations  :  9048
 total energy-change (2. order) : 0.9539851E+00  (-0.1448611E+00)
 number of electron    1664.0022113 magnetization 
 augmentation part      604.4109122 magnetization 

 Broyden mixing:
  rms(total) = 0.15211E+00    rms(broyden)= 0.15187E+00
  rms(prec ) = 0.16014E+00
  weight for this iteration     100.00

 eigenvalues of (default mixing * dielectric matrix)
  average eigenvalue GAMMA=   1.4775
  2.4874  0.9725  0.9725

 Free energy of the ion-electron system (eV)
  ---------------------------------------------------
  alpha Z        PSCENC =     11701.71006411
  Ewald energy   TEWEN  =   -189569.57575594
  -Hartree energ DENC   =    -50066.60962580
  -exchange      EXHF   =         0.00000000
  -V(xc)+E(xc)   XCENC  =      8955.10123036
  PAW double counting   =    249462.22336641  -251849.35170644
  entropy T*S    EENTRO =        -0.42751124
  eigenvalues    EBANDS =    -29646.88745144
  atomic energy  EATOM  =    249862.97952924
  Solvation  Ediel_sol  =         0.00000000
  ---------------------------------------------------
  free energy    TOTEN  =     -1150.83786073 eV

  energy without entropy =    -1150.41034949  energy(sigma->0) =    -1150.69535699


--------------------------------------------------------------------------------------------------------




--------------------------------------- Iteration      1(   9)  ---------------------------------------


    POTLOK:  cpu time      0.0467: real time      0.0280
    SETDIJ:  cpu time      0.0889: real time      0.0056
     EDDAV:  cpu time      3.5166: real time      3.4619
       DOS:  cpu time      0.0014: real time      0.0014
    CHARGE:  cpu time      0.4037: real time      0.2647
    MIXING:  cpu time      0.0447: real time      0.0032
    --------------------------------------------
      LOOP:  cpu time      4.1020: real time      3.7648

 eigenvalue-minimisations  :  9224
 total energy-change (2. order) : 0.1745862E-01  (-0.1436722E-01)
 number of electron    1664.0022132 magnetization 
 augmentation part      605.0843699 magnetization 

 Broyden mixing:
  rms(total) = 0.31269E-01    rms(broyden)= 0.31075E-01
  rms(prec ) = 0.34153E-01
  weight for this iteration     100.00

 eigenvalues of (default mixing * dielectric matrix)
  average eigenvalue GAMMA=   1.7274
  2.5020  2.5020  0.9301  0.9757

 Free energy of the ion-electron system (eV)
  ---------------------------------------------------
  alpha Z        PSCENC =     11701.71006411
  Ewald energy   TEWEN  =   -189569.57575594
  -Hartree energ DENC   =    -50037.23980501
  -exchange      EXHF   =         0.00000000
  -V(xc)+E(xc)   XCENC  =      8953.63068527
  PAW double counting   =    249479.96225074  -251857.74252686
  entropy T*S    EENTRO =        -0.42169209
  eigenvalues    EBANDS =    -29684.12315159
  atomic energy  EATOM  =    249862.97952924
  Solvation  Ediel_sol  =         0.00000000
  ---------------------------------------------------
  free energy    TOTEN  =     -1150.82040212 eV

  energy without entropy =    -1150.39871003  energy(sigma->0) =    -1150.67983809


--------------------------------------------------------------------------------------------------------




--------------------------------------- Iteration      1(  10)  ---------------------------------------


    POTLOK:  cpu time      0.0380: real time      0.0112
    SETDIJ:  cpu time      0.0858: real time      0.0058
     EDDAV:  cpu time      3.7051: real time      3.6491
       DOS:  cpu time      0.0013: real time      0.0013
    CHARGE:  cpu time      0.3991: real time      0.2642
    MIXING:  cpu time      0.0478: real time      0.0036
    --------------------------------------------
      LOOP:  cpu time      4.2772: real time      3.9352

 eigenvalue-minimisations  :  9872
 total energy-change (2. order) :-0.6903495E-03  (-0.5275874E-03)
 number of electron    1664.0022133 magnetization 
 augmentation part      605.1206602 magnetization 

 Broyden mixing:
  rms(total) = 0.13451E-01    rms(broyden)= 0.13425E-01
  rms(prec ) = 0.14190E-01
  weight for this iteration     100.00

 eigenvalues of (default mixing * dielectric matrix)
  average eigenvalue GAMMA=   1.6077
  2.6211  2.4389  1.0268  1.0268  0.9252

 Free energy of the ion-electron system (eV)
  ---------------------------------------------------
  alpha Z        PSCENC =     11701.71006411
  Ewald energy   TEWEN  =   -189569.57575594
  -Hartree energ DENC   =    -50047.28894213
  -exchange      EXHF   =         0.00000000
  -V(xc)+E(xc)   XCENC  =      8954.14980451
  PAW double counting   =    249621.66744703  -251988.63947573
  entropy T*S    EENTRO =        -0.42177701
  eigenvalues    EBANDS =    -29685.40198656
  atomic energy  EATOM  =    249862.97952924
  Solvation  Ediel_sol  =         0.00000000
  ---------------------------------------------------
  free energy    TOTEN  =     -1150.82109247 eV

  energy without entropy =    -1150.39931546  energy(sigma->0) =    -1150.68050013


--------------------------------------------------------------------------------------------------------




--------------------------------------- Iteration      1(  11)  ---------------------------------------


    POTLOK:  cpu time      0.0379: real time      0.0114
    SETDIJ:  cpu time      0.0945: real time      0.0063
     EDDAV:  cpu time      3.4780: real time      3.4236
       DOS:  cpu time      0.0014: real time      0.0014
    CHARGE:  cpu time      0.3940: real time      0.2667
    MIXING:  cpu time      0.0520: real time      0.0037
    --------------------------------------------
      LOOP:  cpu time      4.0578: real time      3.7131

 eigenvalue-minimisations  :  9104
 total energy-change (2. order) : 0.1028834E-03  (-0.7700924E-04)
 number of electron    1664.0022132 magnetization 
 augmentation part      605.0682699 magnetization 

 Broyden mixing:
  rms(total) = 0.98973E-03    rms(broyden)= 0.98911E-03
  rms(prec ) = 0.10959E-02
  weight for this iteration     100.00

 eigenvalues of (default mixing * dielectric matrix)
  average eigenvalue GAMMA=   1.6041
  2.5750  2.4812  0.9707  0.9707  0.9621  1.6651

 Free energy of the ion-electron system (eV)
  ---------------------------------------------------
  alpha Z        PSCENC =     11701.71006411
  Ewald energy   TEWEN  =   -189569.57575594
  -Hartree energ DENC   =    -50050.67033271
  -exchange      EXHF   =         0.00000000
  -V(xc)+E(xc)   XCENC  =      8954.32090396
  PAW double counting   =    249608.56297835  -251975.41829177
  entropy T*S    EENTRO =        -0.42231296
  eigenvalues    EBANDS =    -29682.30777188
  atomic energy  EATOM  =    249862.97952924
  Solvation  Ediel_sol  =         0.00000000
  ---------------------------------------------------
  free energy    TOTEN  =     -1150.82098958 eV

  energy without entropy =    -1150.39867662  energy(sigma->0) =    -1150.68021860


--------------------------------------------------------------------------------------------------------




--------------------------------------- Iteration      1(  12)  ---------------------------------------


    POTLOK:  cpu time      0.0362: real time      0.0111
    SETDIJ:  cpu time      0.0858: real time      0.0058
     EDDAV:  cpu time      3.3535: real time      3.3001
       DOS:  cpu time      0.0013: real time      0.0013
    CHARGE:  cpu time      0.3926: real time      0.2660
    MIXING:  cpu time      0.0569: real time      0.0045
    --------------------------------------------
      LOOP:  cpu time      3.9264: real time      3.5889

 eigenvalue-minimisations  :  8616
 total energy-change (2. order) :-0.1349776E-04  (-0.1739707E-05)
 number of electron    1664.0022132 magnetization 
 augmentation part      605.0719504 magnetization 

 Broyden mixing:
  rms(total) = 0.30471E-03    rms(broyden)= 0.30351E-03
  rms(prec ) = 0.34114E-03
  weight for this iteration     100.00

 eigenvalues of (default mixing * dielectric matrix)
  average eigenvalue GAMMA=   1.6545
  2.7098  2.4882  2.4882  0.9865  0.9865  0.9240  0.9987

 Free energy of the ion-electron system (eV)
  ---------------------------------------------------
  alpha Z        PSCENC =     11701.71006411
  Ewald energy   TEWEN  =   -189569.57575594
  -Hartree energ DENC   =    -50050.44580636
  -exchange      EXHF   =         0.00000000
  -V(xc)+E(xc)   XCENC  =      8954.31093266
  PAW double counting   =    249594.64484507  -251961.54022148
  entropy T*S    EENTRO =        -0.42231235
  eigenvalues    EBANDS =    -29682.48227804
  atomic energy  EATOM  =    249862.97952924
  Solvation  Ediel_sol  =         0.00000000
  ---------------------------------------------------
  free energy    TOTEN  =     -1150.82100308 eV

  energy without entropy =    -1150.39869073  energy(sigma->0) =    -1150.68023230


--------------------------------------------------------------------------------------------------------




--------------------------------------- Iteration      1(  13)  ---------------------------------------


    POTLOK:  cpu time      0.0391: real time      0.0184
    SETDIJ:  cpu time      0.0869: real time      0.0059
     EDDAV:  cpu time      2.4705: real time      2.4232
       DOS:  cpu time      0.0014: real time      0.0014
    CHARGE:  cpu time      0.3913: real time      0.2650
    MIXING:  cpu time      0.0599: real time      0.0042
    --------------------------------------------
      LOOP:  cpu time      3.0490: real time      2.7181

 eigenvalue-minimisations  :  5480
 total energy-change (2. order) :-0.1320761E-04  (-0.6537952E-07)
 number of electron    1664.0022132 magnetization 
 augmentation part      605.0724019 magnetization 

 Broyden mixing:
  rms(total) = 0.69395E-04    rms(broyden)= 0.68809E-04
  rms(prec ) = 0.85211E-04
  weight for this iteration     100.00

 eigenvalues of (default mixing * dielectric matrix)
  average eigenvalue GAMMA=   1.6137
  2.6193  2.6193  2.4715  0.9551  0.9551  1.0423  1.0423  1.2046

 Free energy of the ion-electron system (eV)
  ---------------------------------------------------
  alpha Z        PSCENC =     11701.71006411
  Ewald energy   TEWEN  =   -189569.57575594
  -Hartree energ DENC   =    -50050.36318002
  -exchange      EXHF   =         0.00000000
  -V(xc)+E(xc)   XCENC  =      8954.30802218
  PAW double counting   =    249589.00278833  -251955.94558535
  entropy T*S    EENTRO =        -0.42232184
  eigenvalues    EBANDS =    -29682.51457700
  atomic energy  EATOM  =    249862.97952924
  Solvation  Ediel_sol  =         0.00000000
  ---------------------------------------------------
  free energy    TOTEN  =     -1150.82101629 eV

  energy without entropy =    -1150.39869445  energy(sigma->0) =    -1150.68024234


--------------------------------------------------------------------------------------------------------




--------------------------------------- Iteration      1(  14)  ---------------------------------------


    POTLOK:  cpu time      0.0355: real time      0.0118
    SETDIJ:  cpu time      0.0849: real time      0.0054
     EDDAV:  cpu time      2.3612: real time      2.3143
       DOS:  cpu time      0.0014: real time      0.0013
    CHARGE:  cpu time      0.3919: real time      0.2653
    MIXING:  cpu time      0.0616: real time      0.0044
    --------------------------------------------
      LOOP:  cpu time      2.9365: real time      2.6026

 eigenvalue-minimisations  :  5112
 total energy-change (2. order) :-0.1849447E-05  (-0.2020893E-07)
 number of electron    1664.0022132 magnetization 
 augmentation part      605.0726524 magnetization 

 Broyden mixing:
  rms(total) = 0.33756E-04    rms(broyden)= 0.33588E-04
  rms(prec ) = 0.39895E-04
  weight for this iteration     100.00

 eigenvalues of (default mixing * dielectric matrix)
  average eigenvalue GAMMA=   1.6668
  2.7987  2.5650  2.4053  2.4053  1.0028  1.0028  0.9648  0.9648  0.8923

 Free energy of the ion-electron system (eV)
  ---------------------------------------------------
  alpha Z        PSCENC =     11701.71006411
  Ewald energy   TEWEN  =   -189569.57575594
  -Hartree energ DENC   =    -50050.32766781
  -exchange      EXHF   =         0.00000000
  -V(xc)+E(xc)   XCENC  =      8954.30627216
  PAW double counting   =    249588.98669056  -251955.94077266
  entropy T*S    EENTRO =        -0.42231738
  eigenvalues    EBANDS =    -29682.53706043
  atomic energy  EATOM  =    249862.97952924
  Solvation  Ediel_sol  =         0.00000000
  ---------------------------------------------------
  free energy    TOTEN  =     -1150.82101814 eV

  energy without entropy =    -1150.39870075  energy(sigma->0) =    -1150.68024568


--------------------------------------------------------------------------------------------------------




--------------------------------------- Iteration      1(  15)  ---------------------------------------


    POTLOK:  cpu time      0.0351: real time      0.0204
    SETDIJ:  cpu time      0.0857: real time      0.0054
     EDDAV:  cpu time      2.3488: real time      2.3020
       DOS:  cpu time      0.0013: real time      0.0013
    --------------------------------------------
      LOOP:  cpu time      2.4711: real time      2.3295

 eigenvalue-minimisations  :  5072
 total energy-change (2. order) :-0.6958289E-06  (-0.1404570E-07)
 number of electron    1664.0022132 magnetization 
 augmentation part      605.0726524 magnetization 

 Free energy of the ion-electron system (eV)
  ---------------------------------------------------
  alpha Z        PSCENC =     11701.71006411
  Ewald energy   TEWEN  =   -189569.57575594
  -Hartree energ DENC   =    -50050.30771330
  -exchange      EXHF   =         0.00000000
  -V(xc)+E(xc)   XCENC  =      8954.30534446
  PAW double counting   =    249589.16725055  -251956.12109993
  entropy T*S    EENTRO =        -0.42231383
  eigenvalues    EBANDS =    -29682.55632421
  atomic energy  EATOM  =    249862.97952924
  Solvation  Ediel_sol  =         0.00000000
  ---------------------------------------------------
  free energy    TOTEN  =     -1150.82101883 eV

  energy without entropy =    -1150.39870501  energy(sigma->0) =    -1150.68024756


--------------------------------------------------------------------------------------------------------




 average (electrostatic) potential at core
  the test charge radii are     0.9956
  (the norm of the test charge is              1.0000)
       1 -70.0287       2 -70.0290       3 -70.0284       4 -70.0286       5 -70.0288
       6 -70.0285       7 -70.0284       8 -70.0293       9 -70.0292      10 -70.0294
      11 -70.0293      12 -70.0284      13 -70.0290      14 -70.0290      15 -70.0291
      16 -70.0286      17 -70.0285      18 -70.0289      19 -70.0287      20 -70.0287
      21 -70.0286      22 -70.0289      23 -70.0286      24 -70.0286      25 -70.0288
      26 -70.0284      27 -70.0285      28 -70.0281      29 -70.0284      30 -70.0291
      31 -70.0291      32 -70.0291      33 -70.0288      34 -70.0287      35 -70.0283
      36 -70.0290      37 -70.0282      38 -70.0288      39 -70.0287      40 -70.0289
      41 -70.0284      42 -70.0286      43 -70.0285      44 -70.0285      45 -70.0293
      46 -70.0284      47 -70.0290      48 -70.0287      49 -70.0289      50 -70.0287
      51 -70.0284      52 -70.0286      53 -70.0289      54 -70.0288      55 -70.0291
      56 -70.0283      57 -70.0291      58 -70.0286      59 -70.0281      60 -70.0286
      61 -70.0286      62 -70.0290      63 -70.0287      64 -70.0287      65 -70.0291
      66 -70.0285      67 -70.0293      68 -70.0289      69 -70.0293      70 -70.0292
      71 -70.0290      72 -70.0285      73 -70.0287      74 -70.0290      75 -70.0289
      76 -70.0291      77 -70.0289      78 -70.0289      79 -70.0290      80 -70.0285
      81 -70.0289      82 -70.0288      83 -70.0289      84 -70.0290      85 -70.0289
      86 -70.0285      87 -70.0290      88 -70.0286      89 -70.0283      90 -70.0289
      91 -70.0290      92 -70.0292      93 -70.0286      94 -70.0281      95 -70.0283
      96 -70.0291      97 -70.0288      98 -70.0290      99 -70.0290     100 -70.0288
     101 -70.0287     102 -70.0289     103 -70.0285     104 -70.0283     105 -70.0289
     106 -70.0291     107 -70.0287     108 -70.0286     109 -70.0279     110 -70.0286
     111 -70.0290     112 -70.0287     113 -70.0285     114 -70.0287     115 -70.0287
     116 -70.0287     117 -70.0287     118 -70.0282     119 -70.0290     120 -70.0288
     121 -70.0285     122 -70.0288     123 -70.0292     124 -70.0290     125 -70.0290
     126 -70.0292     127 -70.0288     128 -70.0290
 
 
 
 E-fermi :   9.8098     XC(G=0): -12.9494     alpha+bet :-18.8353

 val. band max:        9.8011459043   @ k =   0.5000   0.0000   0.0000
 cond. band min:       9.8216357687   @ k =   0.5000   0.5000   0.0000
 fundamental gap:      0.0204898645
 Fermi energy:         9.8098413411

 k-point     1 :       0.0000    0.0000    0.0000
  band No.  band energies     occupation 
      1     -53.8854      2.00000
      2     -53.8279      2.00000
      3     -53.8278      2.00000
      4     -53.8278      2.00000
      5     -53.8277      2.00000
      6     -53.8277      2.00000
      7     -53.8276      2.00000
      8     -53.7839      2.00000
      9     -53.7838      2.00000
     10     -53.7838      2.00000
     11     -53.7838      2.00000
     12     -53.7838      2.00000
     13     -53.7838      2.00000
     14     -53.7837      2.00000
     15     -53.7837      2.00000
     16     -53.7837      2.00000
     17     -53.7837      2.00000
     18     -53.7836      2.00000
     19     -53.7835      2.00000
     20     -53.7504      2.00000
     21     -53.7504      2.00000
     22     -53.7503      2.00000
     23     -53.7503      2.00000
     24     -53.7503      2.00000
     25     -53.7502      2.00000
     26     -53.7502      2.00000
     27     -53.7501      2.00000
     28     -53.6985      2.00000
     29     -53.6985      2.00000
     30     -53.6985      2.00000
     31     -53.6985      2.00000
     32     -53.6984      2.00000
     33     -53.6984      2.00000
     34     -53.6895      2.00000
     35     -53.6895      2.00000
     36     -53.6895      2.00000
     37     -53.6895      2.00000
     38     -53.6895      2.00000
     39     -53.6895      2.00000
     40     -53.6895      2.00000
     41     -53.6894      2.00000
     42     -53.6894      2.00000
     43     -53.6894      2.00000
     44     -53.6894      2.00000
     45     -53.6894      2.00000
     46     -53.6894      2.00000
     47     -53.6894      2.00000
     48     -53.6894      2.00000
     49     -53.6894      2.00000
     50     -53.6893      2.00000
     51     -53.6893      2.00000
     52     -53.6893      2.00000
     53     -53.6893      2.00000
     54     -53.6893      2.00000
     55     -53.6893      2.00000
     56     -53.6892      2.00000
     57     -53.6892      2.00000
     58     -53.6815      2.00000
     59     -53.6814      2.00000
     60     -53.6814      2.00000
     61     -53.6814      2.00000
     62     -53.6814      2.00000
     63     -53.6814      2.00000
     64     -53.6814      2.00000
     65     -53.6813      2.00000
     66     -53.6813      2.00000
     67     -53.6813      2.00000
     68     -53.6813      2.00000
     69     -53.6813      2.00000
     70     -53.6813      2.00000
     71     -53.6812      2.00000
     72     -53.6812      2.00000
     73     -53.6812      2.00000
     74     -53.6812      2.00000
     75     -53.6812      2.00000
     76     -53.6812      2.00000
     77     -53.6812      2.00000
     78     -53.6811      2.00000
     79     -53.6811      2.00000
     80     -53.6811      2.00000
     81     -53.6810      2.00000
     82     -53.6808      2.00000
     83     -53.6808      2.00000
     84     -53.6808      2.00000
     85     -53.6808      2.00000
     86     -53.6808      2.00000
     87     -53.6808      2.00000
     88     -53.6734      2.00000
     89     -53.6734      2.00000
     90     -53.6734      2.00000
     91     -53.6733      2.00000
     92     -53.6733      2.00000
     93     -53.6733      2.00000
     94     -53.6733      2.00000
     95     -53.6732      2.00000
     96     -53.6732      2.00000
     97     -53.6732      2.00000
     98     -53.6731      2.00000
     99     -53.6731      2.00000
    100     -53.6660      2.00000
    101     -53.6660      2.00000
    102     -53.6291      2.00000
    103     -53.6291      2.00000
    104     -53.6290      2.00000
    105     -53.6290      2.00000
    106     -53.6290      2.00000
    107     -53.6289      2.00000
    108     -53.6289      2.00000
    109     -53.6288      2.00000
    110     -53.6121      2.00000
    111     -53.6120      2.00000
    112     -53.6120      2.00000
    113     -53.6120      2.00000
    114     -53.6120      2.00000
    115     -53.6120      2.00000
    116     -53.6119      2.00000
    117     -53.6119      2.00000
    118     -53.6119      2.00000
    119     -53.6119      2.00000
    120     -53.6118      2.00000
    121     -53.6118      2.00000
    122     -53.5849      2.00000
    123     -53.5848      2.00000
    124     -53.5848      2.00000
    125     -53.5848      2.00000
    126     -53.5847      2.00000
    127     -53.5846      2.00000
    128     -53.5406      2.00000
    129     -28.1102      2.00000
    130     -28.1102      2.00000
    131     -28.1102      2.00000
    132     -28.1102      2.00000
    133     -28.1102      2.00000
    134     -28.1102      2.00000
    135     -27.9730      2.00000
    136     -27.9730      2.00000
    137     -27.9730      2.00000
    138     -27.9729      2.00000
    139     -27.9729      2.00000
    140     -27.9729      2.00000
    141     -27.9729      2.00000
    142     -27.9729      2.00000
    143     -27.9729      2.00000
    144     -27.9728      2.00000
    145     -27.9728      2.00000
    146     -27.9728      2.00000
    147     -27.9653      2.00000
    148     -27.9653      2.00000
    149     -27.9653      2.00000
    150     -27.9653      2.00000
    151     -27.9653      2.00000
    152     -27.9653      2.00000
    153     -27.9653      2.00000
    154     -27.9653      2.00000
    155     -27.9653      2.00000
    156     -27.9652      2.00000
    157     -27.9652      2.00000
    158     -27.9652      2.00000
    159     -27.9467      2.00000
    160     -27.9467      2.00000
    161     -27.9467      2.00000
    162     -27.9467      2.00000
    163     -27.9467      2.00000
    164     -27.9467      2.00000
    165     -27.9467      2.00000
    166     -27.9466      2.00000
    167     -27.9466      2.00000
    168     -27.9466      2.00000
    169     -27.9466      2.00000
    170     -27.9466      2.00000
    171     -27.9466      2.00000
    172     -27.9466      2.00000
    173     -27.9466      2.00000
    174     -27.9466      2.00000
    175     -27.9466      2.00000
    176     -27.9466      2.00000
    177     -27.9465      2.00000
    178     -27.9465      2.00000
    179     -27.9465      2.00000
    180     -27.9465      2.00000
    181     -27.9465      2.00000
    182     -27.9465      2.00000
    183     -27.9390      2.00000
    184     -27.9390      2.00000
    185     -27.9389      2.00000
    186     -27.9389      2.00000
    187     -27.9389      2.00000
    188     -27.9389      2.00000
    189     -27.9389      2.00000
    190     -27.9389      2.00000
    191     -27.9389      2.00000
    192     -27.9388      2.00000
    193     -27.9388      2.00000
    194     -27.9388      2.00000
    195     -27.9388      2.00000
    196     -27.9388      2.00000
    197     -27.9388      2.00000
    198     -27.9388      2.00000
    199     -27.9388      2.00000
    200     -27.9388      2.00000
    201     -27.9388      2.00000
    202     -27.9387      2.00000
    203     -27.9387      2.00000
    204     -27.9387      2.00000
    205     -27.9387      2.00000
    206     -27.9387      2.00000
    207     -27.8477      2.00000
    208     -27.8477      2.00000
    209     -27.8477      2.00000
    210     -27.8477      2.00000
    211     -27.8477      2.00000
    212     -27.8477      2.00000
    213     -27.8476      2.00000
    214     -27.8476      2.00000
    215     -27.8476      2.00000
    216     -27.8476      2.00000
    217     -27.8476      2.00000
    218     -27.8475      2.00000
    219     -27.8475      2.00000
    220     -27.8475      2.00000
    221     -27.8475      2.00000
    222     -27.8475      2.00000
    223     -27.8169      2.00000
    224     -27.8169      2.00000
    225     -27.8169      2.00000
    226     -27.8120      2.00000
    227     -27.8120      2.00000
    228     -27.8119      2.00000
    229     -27.8119      2.00000
    230     -27.8119      2.00000
    231     -27.8119      2.00000
    232     -27.7907      2.00000
    233     -27.7907      2.00000
    234     -27.7907      2.00000
    235     -27.7907      2.00000
    236     -27.7907      2.00000
    237     -27.7907      2.00000
    238     -27.7906      2.00000
    239     -27.7906      2.00000
    240     -27.7207      2.00000
    241     -27.7207      2.00000
    242     -27.7206      2.00000
    243     -27.7206      2.00000
    244     -27.7206      2.00000
    245     -27.7206      2.00000
    246     -27.7206      2.00000
    247     -27.7206      2.00000
    248     -27.7206      2.00000
    249     -27.7205      2.00000
    250     -27.7205      2.00000
    251     -27.7205      2.00000
    252     -27.6774      2.00000
    253     -27.6774      2.00000
    254     -27.6774      2.00000
    255     -27.6774      2.00000
    256     -27.6774      2.00000
    257     -27.6774      2.00000
    258     -27.6590      2.00000
    259     -27.6590      2.00000
    260     -27.6590      2.00000
    261     -27.6590      2.00000
    262     -27.6590      2.00000
    263     -27.6590      2.00000
    264     -27.6590      2.00000
    265     -27.6590      2.00000
    266     -27.6589      2.00000
    267     -27.6589      2.00000
    268     -27.6589      2.00000
    269     -27.6589      2.00000
    270     -27.6487      2.00000
    271     -27.6486      2.00000
    272     -27.6486      2.00000
    273     -27.6486      2.00000
    274     -27.6486      2.00000
    275     -27.6485      2.00000
    276     -27.6485      2.00000
    277     -27.6485      2.00000
    278     -27.6485      2.00000
    279     -27.6485      2.00000
    280     -27.6485      2.00000
    281     -27.6484      2.00000
    282     -27.6456      2.00000
    283     -27.6456      2.00000
    284     -27.6456      2.00000
    285     -27.6456      2.00000
    286     -27.6456      2.00000
    287     -27.6456      2.00000
    288     -27.5689      2.00000
    289     -27.5689      2.00000
    290     -27.5689      2.00000
    291     -27.5689      2.00000
    292     -27.5689      2.00000
    293     -27.5689      2.00000
    294     -27.5689      2.00000
    295     -27.5689      2.00000
    296     -27.5689      2.00000
    297     -27.5689      2.00000
    298     -27.5689      2.00000
    299     -27.5689      2.00000
    300     -27.5689      2.00000
    301     -27.5689      2.00000
    302     -27.5689      2.00000
    303     -27.5689      2.00000
    304     -27.5688      2.00000
    305     -27.5688      2.00000
    306     -27.5688      2.00000
    307     -27.5688      2.00000
    308     -27.5688      2.00000
    309     -27.5688      2.00000
    310     -27.5688      2.00000
    311     -27.5688      2.00000
    312     -27.5609      2.00000
    313     -27.5609      2.00000
    314     -27.5608      2.00000
    315     -27.5608      2.00000
    316     -27.5608      2.00000
    317     -27.5608      2.00000
    318     -27.5608      2.00000
    319     -27.5608      2.00000
    320     -27.5608      2.00000
    321     -27.5608      2.00000
    322     -27.5607      2.00000
    323     -27.5607      2.00000
    324     -27.5115      2.00000
    325     -27.5115      2.00000
    326     -27.5115      2.00000
    327     -27.5115      2.00000
    328     -27.5114      2.00000
    329     -27.5114      2.00000
    330     -27.5114      2.00000
    331     -27.5114      2.00000
    332     -27.5114      2.00000
    333     -27.5114      2.00000
    334     -27.5114      2.00000
    335     -27.5114      2.00000
    336     -27.4926      2.00000
    337     -27.4926      2.00000
    338     -27.4926      2.00000
    339     -27.4926      2.00000
    340     -27.4925      2.00000
    341     -27.4925      2.00000
    342     -27.4925      2.00000
    343     -27.4925      2.00000
    344     -27.4925      2.00000
    345     -27.4925      2.00000
    346     -27.4925      2.00000
    347     -27.4925      2.00000
    348     -27.4838      2.00000
    349     -27.4838      2.00000
    350     -27.4838      2.00000
    351     -27.4838      2.00000
    352     -27.4838      2.00000
    353     -27.4837      2.00000
    354     -27.4837      2.00000
    355     -27.4837      2.00000
    356     -27.4837      2.00000
    357     -27.4837      2.00000
    358     -27.4837      2.00000
    359     -27.4837      2.00000
    360     -27.4836      2.00000
    361     -27.4836      2.00000
    362     -27.4836      2.00000
    363     -27.4836      2.00000
    364     -27.4836      2.00000
    365     -27.4836      2.00000
    366     -27.4836      2.00000
    367     -27.4836      2.00000
    368     -27.4836      2.00000
    369     -27.4835      2.00000
    370     -27.4835      2.00000
    371     -27.4835      2.00000
    372     -27.4751      2.00000
    373     -27.4751      2.00000
    374     -27.4751      2.00000
    375     -27.4751      2.00000
    376     -27.4751      2.00000
    377     -27.4751      2.00000
    378     -27.3692      2.00000
    379     -27.3692      2.00000
    380     -27.3692      2.00000
    381     -27.3692      2.00000
    382     -27.3691      2.00000
    383     -27.3691      2.00000
    384     -27.3603      2.00000
    385     -27.3602      2.00000
    386     -27.3602      2.00000
    387     -27.3602      2.00000
    388     -27.3602      2.00000
    389     -27.3602      2.00000
    390     -27.3602      2.00000
    391     -27.3602      2.00000
    392     -27.3327      2.00000
    393     -27.3326      2.00000
    394     -27.3326      2.00000
    395     -27.3326      2.00000
    396     -27.3326      2.00000
    397     -27.3326      2.00000
    398     -27.3326      2.00000
    399     -27.3325      2.00000
    400     -27.3325      2.00000
    401     -27.3325      2.00000
    402     -27.3325      2.00000
    403     -27.3325      2.00000
    404     -27.3240      2.00000
    405     -27.3240      2.00000
    406     -27.3240      2.00000
    407     -27.3240      2.00000
    408     -27.3239      2.00000
    409     -27.3239      2.00000
    410     -27.3239      2.00000
    411     -27.3239      2.00000
    412     -27.3239      2.00000
    413     -27.3239      2.00000
    414     -27.3239      2.00000
    415     -27.3238      2.00000
    416     -27.2990      2.00000
    417     -27.2990      2.00000
    418     -27.2990      2.00000
    419     -27.2990      2.00000
    420     -27.2990      2.00000
    421     -27.2990      2.00000
    422     -27.2989      2.00000
    423     -27.2989      2.00000
    424     -27.2989      2.00000
    425     -27.2989      2.00000
    426     -27.2989      2.00000
    427     -27.2989      2.00000
    428     -27.2989      2.00000
    429     -27.2989      2.00000
    430     -27.2989      2.00000
    431     -27.2988      2.00000
    432     -27.2905      2.00000
    433     -27.2905      2.00000
    434     -27.2905      2.00000
    435     -27.2905      2.00000
    436     -27.2905      2.00000
    437     -27.2905      2.00000
    438     -27.2905      2.00000
    439     -27.2905      2.00000
    440     -27.2905      2.00000
    441     -27.2904      2.00000
    442     -27.2904      2.00000
    443     -27.2904      2.00000
    444     -27.2904      2.00000
    445     -27.2904      2.00000
    446     -27.2904      2.00000
    447     -27.2904      2.00000
    448     -27.2904      2.00000
    449     -27.2904      2.00000
    450     -27.2904      2.00000
    451     -27.2904      2.00000
    452     -27.2903      2.00000
    453     -27.2903      2.00000
    454     -27.2903      2.00000
    455     -27.2903      2.00000
    456     -27.2819      2.00000
    457     -27.2819      2.00000
    458     -27.2819      2.00000
    459     -27.2819      2.00000
    460     -27.2819      2.00000
    461     -27.2819      2.00000
    462     -27.2818      2.00000
    463     -27.2818      2.00000
    464     -27.2818      2.00000
    465     -27.2818      2.00000
    466     -27.2818      2.00000
    467     -27.2818      2.00000
    468     -27.2818      2.00000
    469     -27.2818      2.00000
    470     -27.2818      2.00000
    471     -27.2818      2.00000
    472     -27.2818      2.00000
    473     -27.2818      2.00000
    474     -27.2817      2.00000
    475     -27.2817      2.00000
    476     -27.2817      2.00000
    477     -27.2817      2.00000
    478     -27.2817      2.00000
    479     -27.2817      2.00000
    480     -27.2746      2.00000
    481     -27.2745      2.00000
    482     -27.2745      2.00000
    483     -27.2745      2.00000
    484     -27.2745      2.00000
    485     -27.2745      2.00000
    486     -27.2745      2.00000
    487     -27.2745      2.00000
    488     -27.2745      2.00000
    489     -27.2744      2.00000
    490     -27.2744      2.00000
    491     -27.2744      2.00000
    492     -27.1934      2.00000
    493     -27.1934      2.00000
    494     -27.1934      2.00000
    495     -27.1934      2.00000
    496     -27.1934      2.00000
    497     -27.1934      2.00000
    498     -27.1902      2.00000
    499     -27.1902      2.00000
    500     -27.1902      2.00000
    501     -27.1902      2.00000
    502     -27.1902      2.00000
    503     -27.1901      2.00000
    504     -27.1901      2.00000
    505     -27.1901      2.00000
    506     -27.1901      2.00000
    507     -27.1901      2.00000
    508     -27.1901      2.00000
    509     -27.1901      2.00000
    510     -27.1872      2.00000
    511     -27.1872      2.00000
    512     -27.1872      2.00000
    513       3.1981      2.00000
    514       4.4027      2.00000
    515       4.4028      2.00000
    516       4.4028      2.00000
    517       4.4028      2.00000
    518       4.4029      2.00000
    519       4.4030      2.00000
    520       5.3564      2.00000
    521       5.3565      2.00000
    522       5.3565      2.00000
    523       5.3565      2.00000
    524       5.3565      2.00000
    525       5.3565      2.00000
    526       5.3566      2.00000
    527       5.3566      2.00000
    528       5.3566      2.00000
    529       5.3567      2.00000
    530       5.3567      2.00000
    531       5.3568      2.00000
    532       6.3363      2.00000
    533       6.3363      2.00000
    534       6.3364      2.00000
    535       6.3364      2.00000
    536       6.3365      2.00000
    537       6.3365      2.00000
    538       6.3366      2.00000
    539       6.3366      2.00000
    540       6.6089      2.00000
    541       6.6089      2.00000
    542       6.6089      2.00000
    543       6.6089      2.00000
    544       6.6089      2.00000
    545       6.6089      2.00000
    546       6.7787      2.00000
    547       6.7787      2.00000
    548       6.8961      2.00000
    549       6.8961      2.00000
    550       6.8961      2.00000
    551       6.8961      2.00000
    552       6.8961      2.00000
    553       6.8961      2.00000
    554       6.9414      2.00000
    555       6.9414      2.00000
    556       6.9414      2.00000
    557       6.9414      2.00000
    558       6.9414      2.00000
    559       6.9414      2.00000
    560       6.9415      2.00000
    561       6.9415      2.00000
    562       6.9415      2.00000
    563       6.9415      2.00000
    564       6.9415      2.00000
    565       6.9415      2.00000
    566       6.9415      2.00000
    567       6.9415      2.00000
    568       6.9415      2.00000
    569       6.9415      2.00000
    570       6.9415      2.00000
    571       6.9415      2.00000
    572       6.9416      2.00000
    573       6.9416      2.00000
    574       6.9416      2.00000
    575       6.9416      2.00000
    576       6.9416      2.00000
    577       6.9417      2.00000
    578       7.3425      2.00000
    579       7.3425      2.00000
    580       7.3426      2.00000
    581       7.3426      2.00000
    582       7.3427      2.00000
    583       7.3427      2.00000
    584       7.4482      2.00000
    585       7.4482      2.00000
    586       7.4482      2.00000
    587       7.4483      2.00000
    588       7.4483      2.00000
    589       7.4484      2.00000
    590       7.5322      2.00000
    591       7.5323      2.00000
    592       7.5323      2.00000
    593       7.5323      2.00000
    594       7.5323      2.00000
    595       7.5323      2.00000
    596       7.5324      2.00000
    597       7.5324      2.00000
    598       7.5324      2.00000
    599       7.5324      2.00000
    600       7.5324      2.00000
    601       7.5325      2.00000
    602       7.5569      2.00000
    603       7.5569      2.00000
    604       7.5570      2.00000
    605       7.5570      2.00000
    606       7.5570      2.00000
    607       7.5570      2.00000
    608       7.5570      2.00000
    609       7.5571      2.00000
    610       7.5571      2.00000
    611       7.5571      2.00000
    612       7.5572      2.00000
    613       7.5572      2.00000
    614       7.6327      2.00000
    615       7.6327      2.00000
    616       7.6327      2.00000
    617       7.6327      2.00000
    618       7.6327      2.00000
    619       7.6327      2.00000
    620       7.6327      2.00000
    621       7.6327      2.00000
    622       7.6327      2.00000
    623       7.6328      2.00000
    624       7.6328      2.00000
    625       7.6328      2.00000
    626       7.6328      2.00000
    627       7.6328      2.00000
    628       7.6328      2.00000
    629       7.6328      2.00000
    630       7.6328      2.00000
    631       7.6328      2.00000
    632       7.6328      2.00000
    633       7.6328      2.00000
    634       7.6328      2.00000
    635       7.6329      2.00000
    636       7.6329      2.00000
    637       7.6329      2.00000
    638       8.2011      2.00000
    639       8.2012      2.00000
    640       8.2012      2.00000
    641       8.2012      2.00000
    642       8.2012      2.00000
    643       8.2013      2.00000
    644       8.2013      2.00000
    645       8.2013      2.00000
    646       8.2013      2.00000
    647       8.2014      2.00000
    648       8.2014      2.00000
    649       8.2014      2.00000
    650       8.3728      2.00000
    651       8.3728      2.00000
    652       8.3728      2.00000
    653       8.3728      2.00000
    654       8.3729      2.00000
    655       8.3729      2.00000
    656       8.3729      2.00000
    657       8.3729      2.00000
    658       8.3729      2.00000
    659       8.3729      2.00000
    660       8.3729      2.00000
    661       8.3729      2.00000
    662       8.3730      2.00000
    663       8.3730      2.00000
    664       8.3730      2.00000
    665       8.3730      2.00000
    666       8.5136      2.00000
    667       8.5136      2.00000
    668       8.5136      2.00000
    669       8.5137      2.00000
    670       8.5137      2.00000
    671       8.5137      2.00000
    672       8.5137      2.00000
    673       8.5137      2.00000
    674       8.5137      2.00000
    675       8.5138      2.00000
    676       8.5138      2.00000
    677       8.5138      2.00000
    678       8.6429      2.00000
    679       8.6430      2.00000
    680       8.6430      2.00000
    681       8.6430      2.00000
    682       8.6430      2.00000
    683       8.6430      2.00000
    684       8.6430      2.00000
    685       8.6430      2.00000
    686       8.6430      2.00000
    687       8.6430      2.00000
    688       8.6430      2.00000
    689       8.6430      2.00000
    690       8.6431      2.00000
    691       8.6431      2.00000
    692       8.6431      2.00000
    693       8.6431      2.00000
    694       8.6431      2.00000
    695       8.6431      2.00000
    696       8.6431      2.00000
    697       8.6431      2.00000
    698       8.6431      2.00000
    699       8.6431      2.00000
    700       8.6431      2.00000
    701       8.6432      2.00000
    702       8.6717      2.00000
    703       8.6717      2.00000
    704       8.6717      2.00000
    705       8.6717      2.00000
    706       8.6717      2.00000
    707       8.6717      2.00000
    708       8.6872      2.00000
    709       8.6872      2.00000
    710       8.6872      2.00000
    711       8.6872      2.00000
    712       8.6872      2.00000
    713       8.6872      2.00000
    714       8.9968      2.00000
    715       8.9968      2.00000
    716       8.9968      2.00000
    717       8.9968      2.00000
    718       8.9968      2.00000
    719       8.9968      2.00000
    720       8.9968      2.00000
    721       8.9968      2.00000
    722       9.0561      2.00000
    723       9.0561      2.00000
    724       9.0561      2.00000
    725       9.0561      2.00000
    726       9.0561      2.00000
    727       9.0562      2.00000
    728       9.0562      2.00000
    729       9.0562      2.00000
    730       9.0562      2.00000
    731       9.0562      2.00000
    732       9.0562      2.00000
    733       9.0562      2.00000
    734       9.0563      2.00000
    735       9.0563      2.00000
    736       9.0563      2.00000
    737       9.0563      2.00000
    738       9.2299      2.00032
    739       9.2299      2.00032
    740       9.2299      2.00032
    741       9.2299      2.00032
    742       9.2299      2.00032
    743       9.2299      2.00032
    744       9.3367      2.00413
    745       9.3367      2.00413
    746       9.3367      2.00413
    747       9.3367      2.00414
    748       9.3367      2.00414
    749       9.3368      2.00414
    750       9.3368      2.00414
    751       9.3368      2.00414
    752       9.3368      2.00414
    753       9.3368      2.00414
    754       9.3368      2.00414
    755       9.3368      2.00414
    756       9.3368      2.00414
    757       9.3368      2.00414
    758       9.3368      2.00414
    759       9.3368      2.00414
    760       9.3369      2.00414
    761       9.3369      2.00414
    762       9.3369      2.00415
    763       9.3369      2.00415
    764       9.3369      2.00415
    765       9.3369      2.00415
    766       9.3369      2.00415
    767       9.3369      2.00415
    768       9.3610      2.00673
    769       9.3611      2.00673
    770       9.3611      2.00673
    771       9.3611      2.00673
    772       9.3611      2.00673
    773       9.3611      2.00674
    774       9.3611      2.00674
    775       9.3611      2.00674
    776       9.3611      2.00674
    777       9.3612      2.00674
    778       9.3612      2.00674
    779       9.3612      2.00674
    780       9.3612      2.00674
    781       9.3612      2.00674
    782       9.3612      2.00675
    783       9.3612      2.00675
    784       9.3612      2.00675
    785       9.3612      2.00675
    786       9.3612      2.00675
    787       9.3613      2.00676
    788       9.3613      2.00676
    789       9.3613      2.00676
    790       9.3613      2.00676
    791       9.3613      2.00676
    792       9.3957      2.01264
    793       9.3957      2.01265
    794       9.3957      2.01265
    795       9.3958      2.01265
    796       9.3958      2.01265
    797       9.3958      2.01266
    798       9.3958      2.01266
    799       9.3958      2.01266
    800       9.3958      2.01266
    801       9.3958      2.01266
    802       9.3958      2.01267
    803       9.3958      2.01267
    804       9.4772      2.04035
    805       9.4772      2.04035
    806       9.4772      2.04035
    807       9.4772      2.04036
    808       9.4772      2.04036
    809       9.4772      2.04036
    810       9.4772      2.04037
    811       9.4772      2.04037
    812       9.4773      2.04038
    813       9.4773      2.04038
    814       9.4773      2.04038
    815       9.4773      2.04039
    816       9.4773      2.04039
    817       9.4773      2.04039
    818       9.4773      2.04039
    819       9.4773      2.04039
    820       9.4773      2.04040
    821       9.4773      2.04041
    822       9.4773      2.04041
    823       9.4773      2.04041
    824       9.4773      2.04042
    825       9.4773      2.04042
    826       9.4773      2.04042
    827       9.4774      2.04042
    828       9.7896      1.17009
    829       9.7896      1.17000
    830       9.7896      1.16993
    831       9.7897      1.16985
    832       9.7897      1.16984
    833       9.7897      1.16980
    834       9.7897      1.16974
    835       9.7897      1.16967
    836       9.7897      1.16965
    837       9.7897      1.16962
    838       9.7897      1.16961
    839       9.7897      1.16947
    840       9.9164      0.22490
    841       9.9164      0.22489
    842       9.9164      0.22478
    843       9.9164      0.22471
    844       9.9164      0.22462
    845       9.9165      0.22457
    846       9.9165      0.22455
    847       9.9165      0.22452
    848       9.9165      0.22442
    849       9.9165      0.22432
    850       9.9165      0.22426
    851       9.9165      0.22418
    852      10.2007     -0.01849
    853      10.2007     -0.01848
    854      10.2007     -0.01848
    855      10.2007     -0.01847
    856      10.2008     -0.01846
    857      10.2008     -0.01846
    858      10.2008     -0.01846
    859      10.2008     -0.01846
    860      10.2008     -0.01846
    861      10.2008     -0.01844
    862      10.2009     -0.01843
    863      10.2009     -0.01843
    864      10.2285     -0.01170
    865      10.2285     -0.01170
    866      10.2285     -0.01170
    867      10.5802     -0.00000
    868      10.5802     -0.00000
    869      10.5802     -0.00000
    870      10.5802     -0.00000
    871      10.5802     -0.00000
    872      10.5802     -0.00000
    873      10.5802     -0.00000
    874      10.5802     -0.00000
    875      10.5803     -0.00000
    876      10.5803     -0.00000
    877      10.5803     -0.00000
    878      10.5803     -0.00000
    879      10.6672     -0.00000
    880      10.6672     -0.00000
    881      10.6672     -0.00000
    882      10.6672     -0.00000
    883      10.6672     -0.00000
    884      10.6672     -0.00000
    885      10.6672     -0.00000
    886      10.6672     -0.00000
    887      10.6672     -0.00000
    888      10.6672     -0.00000
    889      10.6672     -0.00000
    890      10.6672     -0.00000
    891      10.6681     -0.00000
    892      10.6682     -0.00000
    893      10.6682     -0.00000
    894      10.6682     -0.00000
    895      10.6683     -0.00000
    896      10.6683     -0.00000
    897      11.2942     -0.00000
    898      11.2942     -0.00000
    899      11.2942     -0.00000
    900      11.2943     -0.00000
    901      11.2943     -0.00000
    902      11.2943     -0.00000
    903      11.4025     -0.00000
    904      11.4025     -0.00000
    905      11.4025     -0.00000
    906      11.4025     -0.00000
    907      11.4025     -0.00000
    908      11.4025     -0.00000
    909      11.4025     -0.00000
    910      11.4026     -0.00000
    911      11.4026     -0.00000
    912      11.4026     -0.00000
    913      11.4026     -0.00000
    914      11.4026     -0.00000
    915      11.4753     -0.00000
    916      11.4753     -0.00000
    917      11.4753     -0.00000
    918      11.4753     -0.00000
    919      11.4753     -0.00000
    920      11.4753     -0.00000
    921      11.6530     -0.00000
    922      11.6530     -0.00000
    923      11.6531     -0.00000
    924      11.6531     -0.00000
    925      11.6531     -0.00000
    926      11.6531     -0.00000
    927      11.6531     -0.00000
    928      11.6531     -0.00000
    929      11.6531     -0.00000
    930      11.6531     -0.00000
    931      11.6531     -0.00000
    932      11.6531     -0.00000
    933      11.6531     -0.00000
    934      11.6531     -0.00000
    935      11.6531     -0.00000
    936      11.6531     -0.00000
    937      11.6531     -0.00000
    938      11.6531     -0.00000
    939      11.6532     -0.00000
    940      11.6532     -0.00000
    941      11.6532     -0.00000
    942      11.6532     -0.00000
    943      11.6532     -0.00000
    944      11.6532     -0.00000
    945      11.7947     -0.00000
    946      11.7947     -0.00000
    947      11.7947     -0.00000
    948      11.7947     -0.00000
    949      11.7948     -0.00000
    950      11.7948     -0.00000
    951      11.8614     -0.00000
    952      11.8614     -0.00000
    953      11.8614     -0.00000
    954      11.8615     -0.00000
    955      11.8615     -0.00000
    956      11.8615     -0.00000
    957      11.8615     -0.00000
    958      11.8615     -0.00000
    959      11.8615     -0.00000
    960      11.8616     -0.00000
    961      11.8617     -0.00000
    962      11.8619     -0.00000
    963      11.9202     -0.00000
    964      11.9202     -0.00000
    965      11.9203     -0.00000
    966      11.9203     -0.00000
    967      11.9203     -0.00000
    968      11.9203     -0.00000
    969      11.9204     -0.00000
    970      11.9204     -0.00000
    971      11.9206     -0.00000
    972      11.9207     -0.00000
    973      11.9211     -0.00000
    974      11.9225     -0.00000
    975      12.0357     -0.00000
    976      12.0358     -0.00000
    977      12.0358     -0.00000
    978      12.0358     -0.00000
    979      12.0358     -0.00000
    980      12.0358     -0.00000
    981      12.0358     -0.00000
    982      12.0359     -0.00000
    983      12.0359     -0.00000
    984      12.0359     -0.00000
    985      12.0360     -0.00000
    986      12.0360     -0.00000
    987      12.0363     -0.00000
    988      12.0365     -0.00000
    989      12.0370     -0.00000
    990      12.0375     -0.00000
    991      12.0391     -0.00000
    992      12.0406     -0.00000
    993      12.0408     -0.00000
    994      12.0458     -0.00000
    995      12.0510     -0.00000
    996      12.0545     -0.00000
    997      12.0659     -0.00000
    998      12.1455     -0.00000
    999      12.1847     -0.00000
   1000      12.1926     -0.00000

 k-point     2 :       0.5000    0.0000    0.0000
  band No.  band energies     occupation 
      1     -53.8700      2.00000
      2     -53.8699      2.00000
      3     -53.8162      2.00000
      4     -53.8160      2.00000
      5     -53.8160      2.00000
      6     -53.8160      2.00000
      7     -53.8159      2.00000
      8     -53.8159      2.00000
      9     -53.8159      2.00000
     10     -53.8158      2.00000
     11     -53.7750      2.00000
     12     -53.7750      2.00000
     13     -53.7749      2.00000
     14     -53.7749      2.00000
     15     -53.7749      2.00000
     16     -53.7749      2.00000
     17     -53.7748      2.00000
     18     -53.7748      2.00000
     19     -53.7666      2.00000
     20     -53.7666      2.00000
     21     -53.7387      2.00000
     22     -53.7387      2.00000
     23     -53.7386      2.00000
     24     -53.7386      2.00000
     25     -53.7386      2.00000
     26     -53.7386      2.00000
     27     -53.7385      2.00000
     28     -53.7385      2.00000
     29     -53.7168      2.00000
     30     -53.7168      2.00000
     31     -53.7168      2.00000
     32     -53.7167      2.00000
     33     -53.7167      2.00000
     34     -53.7167      2.00000
     35     -53.7167      2.00000
     36     -53.7166      2.00000
     37     -53.6958      2.00000
     38     -53.6958      2.00000
     39     -53.6958      2.00000
     40     -53.6958      2.00000
     41     -53.6957      2.00000
     42     -53.6957      2.00000
     43     -53.6957      2.00000
     44     -53.6957      2.00000
     45     -53.6873      2.00000
     46     -53.6873      2.00000
     47     -53.6872      2.00000
     48     -53.6872      2.00000
     49     -53.6871      2.00000
     50     -53.6871      2.00000
     51     -53.6871      2.00000
     52     -53.6871      2.00000
     53     -53.6871      2.00000
     54     -53.6870      2.00000
     55     -53.6870      2.00000
     56     -53.6870      2.00000
     57     -53.6870      2.00000
     58     -53.6870      2.00000
     59     -53.6869      2.00000
     60     -53.6869      2.00000
     61     -53.6835      2.00000
     62     -53.6835      2.00000
     63     -53.6835      2.00000
     64     -53.6835      2.00000
     65     -53.6834      2.00000
     66     -53.6834      2.00000
     67     -53.6834      2.00000
     68     -53.6834      2.00000
     69     -53.6787      2.00000
     70     -53.6787      2.00000
     71     -53.6786      2.00000
     72     -53.6786      2.00000
     73     -53.6757      2.00000
     74     -53.6757      2.00000
     75     -53.6756      2.00000
     76     -53.6756      2.00000
     77     -53.6756      2.00000
     78     -53.6756      2.00000
     79     -53.6756      2.00000
     80     -53.6756      2.00000
     81     -53.6755      2.00000
     82     -53.6755      2.00000
     83     -53.6755      2.00000
     84     -53.6755      2.00000
     85     -53.6755      2.00000
     86     -53.6754      2.00000
     87     -53.6754      2.00000
     88     -53.6753      2.00000
     89     -53.6674      2.00000
     90     -53.6674      2.00000
     91     -53.6673      2.00000
     92     -53.6673      2.00000
     93     -53.6509      2.00000
     94     -53.6509      2.00000
     95     -53.6509      2.00000
     96     -53.6509      2.00000
     97     -53.6508      2.00000
     98     -53.6508      2.00000
     99     -53.6508      2.00000
    100     -53.6508      2.00000
    101     -53.6457      2.00000
    102     -53.6457      2.00000
    103     -53.6456      2.00000
    104     -53.6456      2.00000
    105     -53.6456      2.00000
    106     -53.6456      2.00000
    107     -53.6455      2.00000
    108     -53.6455      2.00000
    109     -53.6348      2.00000
    110     -53.6348      2.00000
    111     -53.6162      2.00000
    112     -53.6162      2.00000
    113     -53.6161      2.00000
    114     -53.6161      2.00000
    115     -53.6161      2.00000
    116     -53.6161      2.00000
    117     -53.6160      2.00000
    118     -53.6160      2.00000
    119     -53.5913      2.00000
    120     -53.5912      2.00000
    121     -53.5912      2.00000
    122     -53.5912      2.00000
    123     -53.5911      2.00000
    124     -53.5911      2.00000
    125     -53.5911      2.00000
    126     -53.5910      2.00000
    127     -53.5529      2.00000
    128     -53.5528      2.00000
    129     -28.0745      2.00000
    130     -28.0745      2.00000
    131     -28.0744      2.00000
    132     -28.0744      2.00000
    133     -28.0663      2.00000
    134     -28.0663      2.00000
    135     -28.0663      2.00000
    136     -28.0663      2.00000
    137     -28.0662      2.00000
    138     -28.0662      2.00000
    139     -28.0662      2.00000
    140     -28.0662      2.00000
    141     -27.9924      2.00000
    142     -27.9924      2.00000
    143     -27.9923      2.00000
    144     -27.9923      2.00000
    145     -27.9923      2.00000
    146     -27.9923      2.00000
    147     -27.9923      2.00000
    148     -27.9923      2.00000
    149     -27.9586      2.00000
    150     -27.9586      2.00000
    151     -27.9585      2.00000
    152     -27.9585      2.00000
    153     -27.9585      2.00000
    154     -27.9585      2.00000
    155     -27.9585      2.00000
    156     -27.9585      2.00000
    157     -27.9585      2.00000
    158     -27.9585      2.00000
    159     -27.9584      2.00000
    160     -27.9584      2.00000
    161     -27.9584      2.00000
    162     -27.9584      2.00000
    163     -27.9584      2.00000
    164     -27.9584      2.00000
    165     -27.9411      2.00000
    166     -27.9411      2.00000
    167     -27.9410      2.00000
    168     -27.9410      2.00000
    169     -27.9410      2.00000
    170     -27.9410      2.00000
    171     -27.9410      2.00000
    172     -27.9410      2.00000
    173     -27.9409      2.00000
    174     -27.9409      2.00000
    175     -27.9409      2.00000
    176     -27.9409      2.00000
    177     -27.9409      2.00000
    178     -27.9409      2.00000
    179     -27.9408      2.00000
    180     -27.9408      2.00000
    181     -27.9346      2.00000
    182     -27.9346      2.00000
    183     -27.9346      2.00000
    184     -27.9346      2.00000
    185     -27.9345      2.00000
    186     -27.9345      2.00000
    187     -27.9345      2.00000
    188     -27.9345      2.00000
    189     -27.9256      2.00000
    190     -27.9256      2.00000
    191     -27.9256      2.00000
    192     -27.9256      2.00000
    193     -27.9255      2.00000
    194     -27.9255      2.00000
    195     -27.9255      2.00000
    196     -27.9255      2.00000
    197     -27.8868      2.00000
    198     -27.8868      2.00000
    199     -27.8867      2.00000
    200     -27.8867      2.00000
    201     -27.8867      2.00000
    202     -27.8867      2.00000
    203     -27.8867      2.00000
    204     -27.8867      2.00000
    205     -27.8856      2.00000
    206     -27.8856      2.00000
    207     -27.8856      2.00000
    208     -27.8856      2.00000
    209     -27.8856      2.00000
    210     -27.8856      2.00000
    211     -27.8856      2.00000
    212     -27.8856      2.00000
    213     -27.8279      2.00000
    214     -27.8279      2.00000
    215     -27.8279      2.00000
    216     -27.8279      2.00000
    217     -27.8279      2.00000
    218     -27.8279      2.00000
    219     -27.8278      2.00000
    220     -27.8278      2.00000
    221     -27.8218      2.00000
    222     -27.8218      2.00000
    223     -27.8218      2.00000
    224     -27.8218      2.00000
    225     -27.8189      2.00000
    226     -27.8188      2.00000
    227     -27.7923      2.00000
    228     -27.7923      2.00000
    229     -27.7922      2.00000
    230     -27.7922      2.00000
    231     -27.7878      2.00000
    232     -27.7878      2.00000
    233     -27.7878      2.00000
    234     -27.7878      2.00000
    235     -27.7878      2.00000
    236     -27.7877      2.00000
    237     -27.7877      2.00000
    238     -27.7877      2.00000
    239     -27.7713      2.00000
    240     -27.7713      2.00000
    241     -27.7321      2.00000
    242     -27.7320      2.00000
    243     -27.7320      2.00000
    244     -27.7320      2.00000
    245     -27.7320      2.00000
    246     -27.7320      2.00000
    247     -27.7319      2.00000
    248     -27.7319      2.00000
    249     -27.7186      2.00000
    250     -27.7186      2.00000
    251     -27.7186      2.00000
    252     -27.7186      2.00000
    253     -27.7186      2.00000
    254     -27.7186      2.00000
    255     -27.7186      2.00000
    256     -27.7186      2.00000
    257     -27.7016      2.00000
    258     -27.7015      2.00000
    259     -27.7015      2.00000
    260     -27.7015      2.00000
    261     -27.7015      2.00000
    262     -27.7014      2.00000
    263     -27.7014      2.00000
    264     -27.7014      2.00000
    265     -27.6985      2.00000
    266     -27.6985      2.00000
    267     -27.6985      2.00000
    268     -27.6985      2.00000
    269     -27.6985      2.00000
    270     -27.6985      2.00000
    271     -27.6984      2.00000
    272     -27.6984      2.00000
    273     -27.6335      2.00000
    274     -27.6334      2.00000
    275     -27.6334      2.00000
    276     -27.6334      2.00000
    277     -27.6334      2.00000
    278     -27.6334      2.00000
    279     -27.6333      2.00000
    280     -27.6333      2.00000
    281     -27.6202      2.00000
    282     -27.6202      2.00000
    283     -27.6201      2.00000
    284     -27.6201      2.00000
    285     -27.6147      2.00000
    286     -27.6147      2.00000
    287     -27.6147      2.00000
    288     -27.6147      2.00000
    289     -27.5732      2.00000
    290     -27.5732      2.00000
    291     -27.5732      2.00000
    292     -27.5732      2.00000
    293     -27.5731      2.00000
    294     -27.5731      2.00000
    295     -27.5731      2.00000
    296     -27.5731      2.00000
    297     -27.5731      2.00000
    298     -27.5731      2.00000
    299     -27.5731      2.00000
    300     -27.5731      2.00000
    301     -27.5731      2.00000
    302     -27.5731      2.00000
    303     -27.5731      2.00000
    304     -27.5730      2.00000
    305     -27.5713      2.00000
    306     -27.5713      2.00000
    307     -27.5712      2.00000
    308     -27.5712      2.00000
    309     -27.5712      2.00000
    310     -27.5712      2.00000
    311     -27.5712      2.00000
    312     -27.5712      2.00000
    313     -27.5328      2.00000
    314     -27.5328      2.00000
    315     -27.5194      2.00000
    316     -27.5194      2.00000
    317     -27.5193      2.00000
    318     -27.5193      2.00000
    319     -27.5193      2.00000
    320     -27.5193      2.00000
    321     -27.5193      2.00000
    322     -27.5193      2.00000
    323     -27.5193      2.00000
    324     -27.5193      2.00000
    325     -27.5192      2.00000
    326     -27.5192      2.00000
    327     -27.5192      2.00000
    328     -27.5192      2.00000
    329     -27.5192      2.00000
    330     -27.5192      2.00000
    331     -27.5003      2.00000
    332     -27.5003      2.00000
    333     -27.5002      2.00000
    334     -27.5002      2.00000
    335     -27.4900      2.00000
    336     -27.4900      2.00000
    337     -27.4900      2.00000
    338     -27.4900      2.00000
    339     -27.4899      2.00000
    340     -27.4899      2.00000
    341     -27.4899      2.00000
    342     -27.4899      2.00000
    343     -27.4820      2.00000
    344     -27.4820      2.00000
    345     -27.4820      2.00000
    346     -27.4820      2.00000
    347     -27.4819      2.00000
    348     -27.4819      2.00000
    349     -27.4819      2.00000
    350     -27.4819      2.00000
    351     -27.4776      2.00000
    352     -27.4776      2.00000
    353     -27.4776      2.00000
    354     -27.4776      2.00000
    355     -27.4775      2.00000
    356     -27.4775      2.00000
    357     -27.4775      2.00000
    358     -27.4775      2.00000
    359     -27.4700      2.00000
    360     -27.4700      2.00000
    361     -27.4700      2.00000
    362     -27.4700      2.00000
    363     -27.4429      2.00000
    364     -27.4429      2.00000
    365     -27.4429      2.00000
    366     -27.4429      2.00000
    367     -27.4429      2.00000
    368     -27.4429      2.00000
    369     -27.4428      2.00000
    370     -27.4428      2.00000
    371     -27.4218      2.00000
    372     -27.4218      2.00000
    373     -27.4218      2.00000
    374     -27.4218      2.00000
    375     -27.4218      2.00000
    376     -27.4218      2.00000
    377     -27.4218      2.00000
    378     -27.4218      2.00000
    379     -27.4019      2.00000
    380     -27.4019      2.00000
    381     -27.4019      2.00000
    382     -27.4019      2.00000
    383     -27.4019      2.00000
    384     -27.4019      2.00000
    385     -27.4019      2.00000
    386     -27.4019      2.00000
    387     -27.4003      2.00000
    388     -27.4002      2.00000
    389     -27.4002      2.00000
    390     -27.4002      2.00000
    391     -27.4002      2.00000
    392     -27.4002      2.00000
    393     -27.4001      2.00000
    394     -27.4001      2.00000
    395     -27.3933      2.00000
    396     -27.3932      2.00000
    397     -27.3932      2.00000
    398     -27.3932      2.00000
    399     -27.3932      2.00000
    400     -27.3932      2.00000
    401     -27.3932      2.00000
    402     -27.3932      2.00000
    403     -27.3733      2.00000
    404     -27.3733      2.00000
    405     -27.3733      2.00000
    406     -27.3733      2.00000
    407     -27.3215      2.00000
    408     -27.3215      2.00000
    409     -27.3214      2.00000
    410     -27.3214      2.00000
    411     -27.3214      2.00000
    412     -27.3214      2.00000
    413     -27.3213      2.00000
    414     -27.3213      2.00000
    415     -27.3063      2.00000
    416     -27.3063      2.00000
    417     -27.3062      2.00000
    418     -27.3062      2.00000
    419     -27.3062      2.00000
    420     -27.3062      2.00000
    421     -27.3062      2.00000
    422     -27.3062      2.00000
    423     -27.3061      2.00000
    424     -27.3061      2.00000
    425     -27.3061      2.00000
    426     -27.3061      2.00000
    427     -27.3061      2.00000
    428     -27.3061      2.00000
    429     -27.3061      2.00000
    430     -27.3061      2.00000
    431     -27.3059      2.00000
    432     -27.3059      2.00000
    433     -27.3059      2.00000
    434     -27.3059      2.00000
    435     -27.3059      2.00000
    436     -27.3059      2.00000
    437     -27.3058      2.00000
    438     -27.3058      2.00000
    439     -27.2894      2.00000
    440     -27.2894      2.00000
    441     -27.2893      2.00000
    442     -27.2893      2.00000
    443     -27.2893      2.00000
    444     -27.2893      2.00000
    445     -27.2893      2.00000
    446     -27.2892      2.00000
    447     -27.2824      2.00000
    448     -27.2824      2.00000
    449     -27.2823      2.00000
    450     -27.2823      2.00000
    451     -27.2823      2.00000
    452     -27.2823      2.00000
    453     -27.2823      2.00000
    454     -27.2823      2.00000
    455     -27.2810      2.00000
    456     -27.2810      2.00000
    457     -27.2809      2.00000
    458     -27.2809      2.00000
    459     -27.2809      2.00000
    460     -27.2809      2.00000
    461     -27.2809      2.00000
    462     -27.2809      2.00000
    463     -27.2808      2.00000
    464     -27.2808      2.00000
    465     -27.2808      2.00000
    466     -27.2808      2.00000
    467     -27.2808      2.00000
    468     -27.2808      2.00000
    469     -27.2807      2.00000
    470     -27.2807      2.00000
    471     -27.2375      2.00000
    472     -27.2374      2.00000
    473     -27.2274      2.00000
    474     -27.2274      2.00000
    475     -27.2273      2.00000
    476     -27.2273      2.00000
    477     -27.2183      2.00000
    478     -27.2183      2.00000
    479     -27.2183      2.00000
    480     -27.2183      2.00000
    481     -27.2183      2.00000
    482     -27.2183      2.00000
    483     -27.2182      2.00000
    484     -27.2182      2.00000
    485     -27.2182      2.00000
    486     -27.2182      2.00000
    487     -27.2182      2.00000
    488     -27.2182      2.00000
    489     -27.2182      2.00000
    490     -27.2182      2.00000
    491     -27.2182      2.00000
    492     -27.2182      2.00000
    493     -27.2181      2.00000
    494     -27.2181      2.00000
    495     -27.2180      2.00000
    496     -27.2180      2.00000
    497     -27.2180      2.00000
    498     -27.2180      2.00000
    499     -27.2179      2.00000
    500     -27.2179      2.00000
    501     -27.2177      2.00000
    502     -27.2176      2.00000
    503     -27.2176      2.00000
    504     -27.2176      2.00000
    505     -27.2176      2.00000
    506     -27.2176      2.00000
    507     -27.2175      2.00000
    508     -27.2175      2.00000
    509     -27.2097      2.00000
    510     -27.2097      2.00000
    511     -27.2096      2.00000
    512     -27.2096      2.00000
    513       3.5143      2.00000
    514       3.5144      2.00000
    515       4.6638      2.00000
    516       4.6639      2.00000
    517       4.6639      2.00000
    518       4.6639      2.00000
    519       4.6640      2.00000
    520       4.6640      2.00000
    521       4.6641      2.00000
    522       4.6642      2.00000
    523       5.6285      2.00000
    524       5.6286      2.00000
    525       5.6286      2.00000
    526       5.6287      2.00000
    527       5.6287      2.00000
    528       5.6287      2.00000
    529       5.6288      2.00000
    530       5.6288      2.00000
    531       5.6662      2.00000
    532       5.6662      2.00000
    533       6.2165      2.00000
    534       6.2166      2.00000
    535       6.2166      2.00000
    536       6.2167      2.00000
    537       6.2167      2.00000
    538       6.2167      2.00000
    539       6.2168      2.00000
    540       6.2168      2.00000
    541       6.7180      2.00000
    542       6.7180      2.00000
    543       6.7180      2.00000
    544       6.7180      2.00000
    545       6.7181      2.00000
    546       6.7181      2.00000
    547       6.7181      2.00000
    548       6.7181      2.00000
    549       6.8722      2.00000
    550       6.8722      2.00000
    551       6.8723      2.00000
    552       6.8723      2.00000
    553       6.9486      2.00000
    554       6.9487      2.00000
    555       6.9550      2.00000
    556       6.9551      2.00000
    557       6.9779      2.00000
    558       6.9779      2.00000
    559       6.9779      2.00000
    560       6.9779      2.00000
    561       6.9780      2.00000
    562       6.9780      2.00000
    563       6.9780      2.00000
    564       6.9780      2.00000
    565       7.1146      2.00000
    566       7.1146      2.00000
    567       7.1146      2.00000
    568       7.1146      2.00000
    569       7.1147      2.00000
    570       7.1147      2.00000
    571       7.1147      2.00000
    572       7.1147      2.00000
    573       7.1801      2.00000
    574       7.1801      2.00000
    575       7.1802      2.00000
    576       7.1802      2.00000
    577       7.1802      2.00000
    578       7.1802      2.00000
    579       7.1802      2.00000
    580       7.1803      2.00000
    581       7.1803      2.00000
    582       7.1803      2.00000
    583       7.1803      2.00000
    584       7.1803      2.00000
    585       7.1803      2.00000
    586       7.1804      2.00000
    587       7.1804      2.00000
    588       7.1804      2.00000
    589       7.3960      2.00000
    590       7.3961      2.00000
    591       7.3961      2.00000
    592       7.3961      2.00000
    593       7.3961      2.00000
    594       7.3961      2.00000
    595       7.3961      2.00000
    596       7.3961      2.00000
    597       7.4503      2.00000
    598       7.4505      2.00000
    599       7.4505      2.00000
    600       7.4505      2.00000
    601       7.4506      2.00000
    602       7.4506      2.00000
    603       7.4506      2.00000
    604       7.4507      2.00000
    605       7.4969      2.00000
    606       7.4969      2.00000
    607       7.6241      2.00000
    608       7.6242      2.00000
    609       7.6242      2.00000
    610       7.6242      2.00000
    611       7.6243      2.00000
    612       7.6243      2.00000
    613       7.6243      2.00000
    614       7.6244      2.00000
    615       7.6379      2.00000
    616       7.6380      2.00000
    617       7.6380      2.00000
    618       7.6380      2.00000
    619       7.6380      2.00000
    620       7.6380      2.00000
    621       7.6381      2.00000
    622       7.6381      2.00000
    623       7.6381      2.00000
    624       7.6381      2.00000
    625       7.6381      2.00000
    626       7.6381      2.00000
    627       7.6381      2.00000
    628       7.6381      2.00000
    629       7.6381      2.00000
    630       7.6382      2.00000
    631       7.7813      2.00000
    632       7.7813      2.00000
    633       7.7814      2.00000
    634       7.7814      2.00000
    635       7.7814      2.00000
    636       7.7814      2.00000
    637       7.7815      2.00000
    638       7.7815      2.00000
    639       8.1328      2.00000
    640       8.1328      2.00000
    641       8.1328      2.00000
    642       8.1328      2.00000
    643       8.1329      2.00000
    644       8.1329      2.00000
    645       8.1329      2.00000
    646       8.1329      2.00000
    647       8.2349      2.00000
    648       8.2349      2.00000
    649       8.2507      2.00000
    650       8.2507      2.00000
    651       8.2508      2.00000
    652       8.2508      2.00000
    653       8.2508      2.00000
    654       8.2508      2.00000
    655       8.2509      2.00000
    656       8.2509      2.00000
    657       8.3317      2.00000
    658       8.3317      2.00000
    659       8.3318      2.00000
    660       8.3318      2.00000
    661       8.4959      2.00000
    662       8.4959      2.00000
    663       8.4959      2.00000
    664       8.4959      2.00000
    665       8.5102      2.00000
    666       8.5103      2.00000
    667       8.5103      2.00000
    668       8.5103      2.00000
    669       8.5103      2.00000
    670       8.5103      2.00000
    671       8.5103      2.00000
    672       8.5104      2.00000
    673       8.6043      2.00000
    674       8.6043      2.00000
    675       8.6043      2.00000
    676       8.6043      2.00000
    677       8.6043      2.00000
    678       8.6043      2.00000
    679       8.6043      2.00000
    680       8.6044      2.00000
    681       8.6044      2.00000
    682       8.6044      2.00000
    683       8.6044      2.00000
    684       8.6044      2.00000
    685       8.6044      2.00000
    686       8.6044      2.00000
    687       8.6045      2.00000
    688       8.6045      2.00000
    689       8.6168      2.00000
    690       8.6168      2.00000
    691       8.6169      2.00000
    692       8.6169      2.00000
    693       8.8166      2.00000
    694       8.8166      2.00000
    695       8.8166      2.00000
    696       8.8166      2.00000
    697       8.8166      2.00000
    698       8.8166      2.00000
    699       8.8166      2.00000
    700       8.8166      2.00000
    701       8.8508      2.00000
    702       8.8508      2.00000
    703       8.8508      2.00000
    704       8.8508      2.00000
    705       8.8509      2.00000
    706       8.8509      2.00000
    707       8.8509      2.00000
    708       8.8509      2.00000
    709       8.8996      2.00000
    710       8.8996      2.00000
    711       8.8996      2.00000
    712       8.8996      2.00000
    713       8.8996      2.00000
    714       8.8996      2.00000
    715       8.8997      2.00000
    716       8.8997      2.00000
    717       8.9543      2.00000
    718       8.9543      2.00000
    719       8.9543      2.00000
    720       8.9543      2.00000
    721       8.9544      2.00000
    722       8.9544      2.00000
    723       8.9544      2.00000
    724       8.9544      2.00000
    725       8.9544      2.00000
    726       8.9544      2.00000
    727       8.9544      2.00000
    728       8.9544      2.00000
    729       8.9544      2.00000
    730       8.9544      2.00000
    731       8.9545      2.00000
    732       8.9545      2.00000
    733       9.0331      2.00000
    734       9.0331      2.00000
    735       9.0331      2.00000
    736       9.0331      2.00000
    737       9.0331      2.00000
    738       9.0332      2.00000
    739       9.0332      2.00000
    740       9.0332      2.00000
    741       9.1150      2.00001
    742       9.1150      2.00001
    743       9.1150      2.00001
    744       9.1150      2.00001
    745       9.1150      2.00001
    746       9.1150      2.00001
    747       9.1150      2.00001
    748       9.1150      2.00001
    749       9.1595      2.00004
    750       9.1595      2.00004
    751       9.1595      2.00004
    752       9.1595      2.00004
    753       9.1874      2.00010
    754       9.1874      2.00010
    755       9.1874      2.00010
    756       9.1874      2.00010
    757       9.1874      2.00010
    758       9.1874      2.00010
    759       9.1874      2.00010
    760       9.1874      2.00010
    761       9.2257      2.00029
    762       9.2257      2.00029
    763       9.2257      2.00029
    764       9.2257      2.00029
    765       9.2258      2.00029
    766       9.2258      2.00029
    767       9.2258      2.00029
    768       9.2258      2.00029
    769       9.2928      2.00157
    770       9.2928      2.00157
    771       9.2928      2.00157
    772       9.2928      2.00157
    773       9.2929      2.00157
    774       9.2929      2.00157
    775       9.2929      2.00157
    776       9.2929      2.00157
    777       9.4773      2.04040
    778       9.4773      2.04040
    779       9.4773      2.04041
    780       9.4773      2.04042
    781       9.4774      2.04043
    782       9.4774      2.04043
    783       9.4774      2.04045
    784       9.4774      2.04045
    785       9.5566      2.07041
    786       9.5566      2.07042
    787       9.5566      2.07042
    788       9.5567      2.07042
    789       9.5567      2.07042
    790       9.5567      2.07042
    791       9.5567      2.07043
    792       9.5567      2.07043
    793       9.5567      2.07043
    794       9.5567      2.07043
    795       9.5567      2.07043
    796       9.5567      2.07043
    797       9.5567      2.07043
    798       9.5568      2.07043
    799       9.5568      2.07044
    800       9.5568      2.07044
    801       9.5631      2.07089
    802       9.5631      2.07089
    803       9.5631      2.07089
    804       9.5631      2.07089
    805       9.5631      2.07089
    806       9.5631      2.07089
    807       9.5631      2.07089
    808       9.5631      2.07089
    809       9.5631      2.07089
    810       9.5631      2.07089
    811       9.5631      2.07089
    812       9.5631      2.07089
    813       9.5631      2.07089
    814       9.5632      2.07089
    815       9.5632      2.07089
    816       9.5632      2.07089
    817       9.7261      1.64449
    818       9.7261      1.64447
    819       9.7261      1.64432
    820       9.7261      1.64431
    821       9.7261      1.64429
    822       9.7261      1.64427
    823       9.7262      1.64412
    824       9.7262      1.64411
    825       9.8010      1.07474
    826       9.8010      1.07439
    827       9.8011      1.07427
    828       9.8011      1.07413
    829       9.8011      1.07401
    830       9.8011      1.07393
    831       9.8011      1.07371
    832       9.8011      1.07351
    833       9.8240      0.88088
    834       9.8240      0.88085
    835       9.8240      0.88059
    836       9.8240      0.88053
    837       9.8240      0.88048
    838       9.8240      0.88046
    839       9.8240      0.88020
    840       9.8240      0.88014
    841       9.8615      0.57832
    842       9.8615      0.57831
    843       9.8615      0.57827
    844       9.8615      0.57824
    845       9.8616      0.57803
    846       9.8616      0.57801
    847       9.8616      0.57796
    848       9.8616      0.57795
    849      10.0063     -0.04635
    850      10.0063     -0.04638
    851      10.0063     -0.04639
    852      10.0063     -0.04642
    853      10.0063     -0.04643
    854      10.0064     -0.04646
    855      10.0064     -0.04647
    856      10.0064     -0.04650
    857      10.1046     -0.05761
    858      10.1046     -0.05761
    859      10.1046     -0.05761
    860      10.1046     -0.05761
    861      10.1046     -0.05759
    862      10.1046     -0.05759
    863      10.1046     -0.05758
    864      10.1046     -0.05758
    865      10.2090     -0.01621
    866      10.2090     -0.01621
    867      10.2091     -0.01619
    868      10.2091     -0.01619
    869      10.3077     -0.00243
    870      10.3077     -0.00243
    871      10.3179     -0.00193
    872      10.3179     -0.00193
    873      10.3179     -0.00193
    874      10.3179     -0.00193
    875      10.3414     -0.00111
    876      10.3415     -0.00111
    877      10.5572     -0.00000
    878      10.5572     -0.00000
    879      10.5572     -0.00000
    880      10.5572     -0.00000
    881      10.5573     -0.00000
    882      10.5573     -0.00000
    883      10.5573     -0.00000
    884      10.5573     -0.00000
    885      10.8624     -0.00000
    886      10.8624     -0.00000
    887      10.8625     -0.00000
    888      10.8625     -0.00000
    889      11.0394     -0.00000
    890      11.0394     -0.00000
    891      11.0394     -0.00000
    892      11.0394     -0.00000
    893      11.0394     -0.00000
    894      11.0394     -0.00000
    895      11.0394     -0.00000
    896      11.0394     -0.00000
    897      11.1604     -0.00000
    898      11.1604     -0.00000
    899      11.1604     -0.00000
    900      11.1604     -0.00000
    901      11.1604     -0.00000
    902      11.1604     -0.00000
    903      11.1604     -0.00000
    904      11.1605     -0.00000
    905      11.1730     -0.00000
    906      11.1730     -0.00000
    907      11.3003     -0.00000
    908      11.3003     -0.00000
    909      11.3003     -0.00000
    910      11.3003     -0.00000
    911      11.3798     -0.00000
    912      11.3798     -0.00000
    913      11.3798     -0.00000
    914      11.3798     -0.00000
    915      11.3798     -0.00000
    916      11.3798     -0.00000
    917      11.3798     -0.00000
    918      11.3798     -0.00000
    919      11.5123     -0.00000
    920      11.5123     -0.00000
    921      11.5123     -0.00000
    922      11.5124     -0.00000
    923      11.5124     -0.00000
    924      11.5124     -0.00000
    925      11.5124     -0.00000
    926      11.5124     -0.00000
    927      11.5729     -0.00000
    928      11.5729     -0.00000
    929      11.5729     -0.00000
    930      11.5729     -0.00000
    931      11.5730     -0.00000
    932      11.5730     -0.00000
    933      11.5730     -0.00000
    934      11.5730     -0.00000
    935      11.7337     -0.00000
    936      11.7337     -0.00000
    937      11.7338     -0.00000
    938      11.7338     -0.00000
    939      11.7338     -0.00000
    940      11.7338     -0.00000
    941      11.7338     -0.00000
    942      11.7338     -0.00000
    943      11.7339     -0.00000
    944      11.7339     -0.00000
    945      11.7339     -0.00000
    946      11.7339     -0.00000
    947      11.7339     -0.00000
    948      11.7339     -0.00000
    949      11.7339     -0.00000
    950      11.7339     -0.00000
    951      11.8054     -0.00000
    952      11.8054     -0.00000
    953      11.8054     -0.00000
    954      11.8055     -0.00000
    955      11.8055     -0.00000
    956      11.8055     -0.00000
    957      11.8055     -0.00000
    958      11.8055     -0.00000
    959      11.8620     -0.00000
    960      11.8620     -0.00000
    961      11.8620     -0.00000
    962      11.8621     -0.00000
    963      11.8621     -0.00000
    964      11.8621     -0.00000
    965      11.8621     -0.00000
    966      11.8622     -0.00000
    967      11.9933     -0.00000
    968      11.9935     -0.00000
    969      12.0018     -0.00000
    970      12.0019     -0.00000
    971      12.0022     -0.00000
    972      12.0025     -0.00000
    973      12.0025     -0.00000
    974      12.0031     -0.00000
    975      12.0045     -0.00000
    976      12.0057     -0.00000
    977      12.0206     -0.00000
    978      12.0206     -0.00000
    979      12.0208     -0.00000
    980      12.0210     -0.00000
    981      12.0213     -0.00000
    982      12.0215     -0.00000
    983      12.0222     -0.00000
    984      12.0270     -0.00000
    985      12.0994     -0.00000
    986      12.0998     -0.00000
    987      12.1011     -0.00000
    988      12.1025     -0.00000
    989      12.1030     -0.00000
    990      12.1089     -0.00000
    991      12.1116     -0.00000
    992      12.1200     -0.00000
    993      12.1318     -0.00000
    994      12.1328     -0.00000
    995      12.1334     -0.00000
    996      12.1369     -0.00000
    997      12.1410     -0.00000
    998      12.1463     -0.00000
    999      12.1485     -0.00000
   1000      12.1528     -0.00000

 k-point     3 :       0.5000    0.5000    0.0000
  band No.  band energies     occupation 
      1     -53.8562      2.00000
      2     -53.8560      2.00000
      3     -53.8558      2.00000
      4     -53.8557      2.00000
      5     -53.8054      2.00000
      6     -53.8053      2.00000
      7     -53.8052      2.00000
      8     -53.8051      2.00000
      9     -53.8050      2.00000
     10     -53.8050      2.00000
     11     -53.8049      2.00000
     12     -53.8048      2.00000
     13     -53.7592      2.00000
     14     -53.7592      2.00000
     15     -53.7591      2.00000
     16     -53.7591      2.00000
     17     -53.7590      2.00000
     18     -53.7590      2.00000
     19     -53.7589      2.00000
     20     -53.7589      2.00000
     21     -53.7330      2.00000
     22     -53.7329      2.00000
     23     -53.7328      2.00000
     24     -53.7328      2.00000
     25     -53.7328      2.00000
     26     -53.7328      2.00000
     27     -53.7328      2.00000
     28     -53.7327      2.00000
     29     -53.7327      2.00000
     30     -53.7327      2.00000
     31     -53.7326      2.00000
     32     -53.7326      2.00000
     33     -53.7326      2.00000
     34     -53.7326      2.00000
     35     -53.7325      2.00000
     36     -53.7325      2.00000
     37     -53.7112      2.00000
     38     -53.7111      2.00000
     39     -53.7111      2.00000
     40     -53.7111      2.00000
     41     -53.6955      2.00000
     42     -53.6955      2.00000
     43     -53.6955      2.00000
     44     -53.6955      2.00000
     45     -53.6954      2.00000
     46     -53.6954      2.00000
     47     -53.6954      2.00000
     48     -53.6954      2.00000
     49     -53.6937      2.00000
     50     -53.6937      2.00000
     51     -53.6936      2.00000
     52     -53.6935      2.00000
     53     -53.6933      2.00000
     54     -53.6933      2.00000
     55     -53.6933      2.00000
     56     -53.6932      2.00000
     57     -53.6813      2.00000
     58     -53.6813      2.00000
     59     -53.6813      2.00000
     60     -53.6813      2.00000
     61     -53.6812      2.00000
     62     -53.6812      2.00000
     63     -53.6812      2.00000
     64     -53.6812      2.00000
     65     -53.6810      2.00000
     66     -53.6810      2.00000
     67     -53.6810      2.00000
     68     -53.6810      2.00000
     69     -53.6809      2.00000
     70     -53.6809      2.00000
     71     -53.6809      2.00000
     72     -53.6809      2.00000
     73     -53.6700      2.00000
     74     -53.6700      2.00000
     75     -53.6699      2.00000
     76     -53.6699      2.00000
     77     -53.6697      2.00000
     78     -53.6697      2.00000
     79     -53.6696      2.00000
     80     -53.6696      2.00000
     81     -53.6610      2.00000
     82     -53.6610      2.00000
     83     -53.6610      2.00000
     84     -53.6610      2.00000
     85     -53.6600      2.00000
     86     -53.6600      2.00000
     87     -53.6600      2.00000
     88     -53.6600      2.00000
     89     -53.6599      2.00000
     90     -53.6599      2.00000
     91     -53.6599      2.00000
     92     -53.6599      2.00000
     93     -53.6470      2.00000
     94     -53.6470      2.00000
     95     -53.6469      2.00000
     96     -53.6469      2.00000
     97     -53.6469      2.00000
     98     -53.6469      2.00000
     99     -53.6468      2.00000
    100     -53.6468      2.00000
    101     -53.6468      2.00000
    102     -53.6468      2.00000
    103     -53.6467      2.00000
    104     -53.6467      2.00000
    105     -53.6467      2.00000
    106     -53.6467      2.00000
    107     -53.6466      2.00000
    108     -53.6466      2.00000
    109     -53.6374      2.00000
    110     -53.6374      2.00000
    111     -53.6373      2.00000
    112     -53.6373      2.00000
    113     -53.6372      2.00000
    114     -53.6372      2.00000
    115     -53.6371      2.00000
    116     -53.6371      2.00000
    117     -53.5974      2.00000
    118     -53.5973      2.00000
    119     -53.5973      2.00000
    120     -53.5972      2.00000
    121     -53.5971      2.00000
    122     -53.5970      2.00000
    123     -53.5970      2.00000
    124     -53.5969      2.00000
    125     -53.5629      2.00000
    126     -53.5628      2.00000
    127     -53.5625      2.00000
    128     -53.5625      2.00000
    129     -28.0681      2.00000
    130     -28.0681      2.00000
    131     -28.0681      2.00000
    132     -28.0681      2.00000
    133     -28.0373      2.00000
    134     -28.0373      2.00000
    135     -28.0372      2.00000
    136     -28.0372      2.00000
    137     -28.0371      2.00000
    138     -28.0371      2.00000
    139     -28.0371      2.00000
    140     -28.0371      2.00000
    141     -28.0369      2.00000
    142     -28.0369      2.00000
    143     -28.0369      2.00000
    144     -28.0369      2.00000
    145     -28.0369      2.00000
    146     -28.0369      2.00000
    147     -28.0368      2.00000
    148     -28.0368      2.00000
    149     -27.9799      2.00000
    150     -27.9799      2.00000
    151     -27.9798      2.00000
    152     -27.9798      2.00000
    153     -27.9698      2.00000
    154     -27.9698      2.00000
    155     -27.9698      2.00000
    156     -27.9698      2.00000
    157     -27.9697      2.00000
    158     -27.9697      2.00000
    159     -27.9697      2.00000
    160     -27.9697      2.00000
    161     -27.9696      2.00000
    162     -27.9696      2.00000
    163     -27.9696      2.00000
    164     -27.9696      2.00000
    165     -27.9695      2.00000
    166     -27.9695      2.00000
    167     -27.9695      2.00000
    168     -27.9695      2.00000
    169     -27.9366      2.00000
    170     -27.9366      2.00000
    171     -27.9365      2.00000
    172     -27.9365      2.00000
    173     -27.9365      2.00000
    174     -27.9365      2.00000
    175     -27.9364      2.00000
    176     -27.9364      2.00000
    177     -27.9362      2.00000
    178     -27.9362      2.00000
    179     -27.9362      2.00000
    180     -27.9362      2.00000
    181     -27.9361      2.00000
    182     -27.9361      2.00000
    183     -27.9361      2.00000
    184     -27.9361      2.00000
    185     -27.8886      2.00000
    186     -27.8886      2.00000
    187     -27.8886      2.00000
    188     -27.8885      2.00000
    189     -27.8884      2.00000
    190     -27.8884      2.00000
    191     -27.8884      2.00000
    192     -27.8883      2.00000
    193     -27.8679      2.00000
    194     -27.8679      2.00000
    195     -27.8679      2.00000
    196     -27.8678      2.00000
    197     -27.8678      2.00000
    198     -27.8678      2.00000
    199     -27.8678      2.00000
    200     -27.8678      2.00000
    201     -27.8641      2.00000
    202     -27.8641      2.00000
    203     -27.8641      2.00000
    204     -27.8641      2.00000
    205     -27.8640      2.00000
    206     -27.8640      2.00000
    207     -27.8639      2.00000
    208     -27.8639      2.00000
    209     -27.8612      2.00000
    210     -27.8611      2.00000
    211     -27.8611      2.00000
    212     -27.8611      2.00000
    213     -27.8429      2.00000
    214     -27.8429      2.00000
    215     -27.8429      2.00000
    216     -27.8429      2.00000
    217     -27.8428      2.00000
    218     -27.8428      2.00000
    219     -27.8428      2.00000
    220     -27.8428      2.00000
    221     -27.8427      2.00000
    222     -27.8427      2.00000
    223     -27.8427      2.00000
    224     -27.8427      2.00000
    225     -27.8426      2.00000
    226     -27.8426      2.00000
    227     -27.8426      2.00000
    228     -27.8426      2.00000
    229     -27.8351      2.00000
    230     -27.8350      2.00000
    231     -27.8350      2.00000
    232     -27.8350      2.00000
    233     -27.8348      2.00000
    234     -27.8348      2.00000
    235     -27.8348      2.00000
    236     -27.8348      2.00000
    237     -27.7688      2.00000
    238     -27.7687      2.00000
    239     -27.7684      2.00000
    240     -27.7684      2.00000
    241     -27.7577      2.00000
    242     -27.7577      2.00000
    243     -27.7577      2.00000
    244     -27.7576      2.00000
    245     -27.7576      2.00000
    246     -27.7576      2.00000
    247     -27.7575      2.00000
    248     -27.7575      2.00000
    249     -27.7291      2.00000
    250     -27.7290      2.00000
    251     -27.7290      2.00000
    252     -27.7290      2.00000
    253     -27.6857      2.00000
    254     -27.6857      2.00000
    255     -27.6857      2.00000
    256     -27.6857      2.00000
    257     -27.6857      2.00000
    258     -27.6857      2.00000
    259     -27.6857      2.00000
    260     -27.6856      2.00000
    261     -27.6500      2.00000
    262     -27.6500      2.00000
    263     -27.6499      2.00000
    264     -27.6499      2.00000
    265     -27.6499      2.00000
    266     -27.6499      2.00000
    267     -27.6499      2.00000
    268     -27.6498      2.00000
    269     -27.6362      2.00000
    270     -27.6362      2.00000
    271     -27.6361      2.00000
    272     -27.6361      2.00000
    273     -27.6361      2.00000
    274     -27.6361      2.00000
    275     -27.6361      2.00000
    276     -27.6361      2.00000
    277     -27.6361      2.00000
    278     -27.6360      2.00000
    279     -27.6360      2.00000
    280     -27.6360      2.00000
    281     -27.6360      2.00000
    282     -27.6360      2.00000
    283     -27.6359      2.00000
    284     -27.6359      2.00000
    285     -27.6226      2.00000
    286     -27.6226      2.00000
    287     -27.6226      2.00000
    288     -27.6226      2.00000
    289     -27.6226      2.00000
    290     -27.6226      2.00000
    291     -27.6226      2.00000
    292     -27.6226      2.00000
    293     -27.6032      2.00000
    294     -27.6032      2.00000
    295     -27.6031      2.00000
    296     -27.6031      2.00000
    297     -27.6030      2.00000
    298     -27.6030      2.00000
    299     -27.6029      2.00000
    300     -27.6029      2.00000
    301     -27.5540      2.00000
    302     -27.5540      2.00000
    303     -27.5539      2.00000
    304     -27.5539      2.00000
    305     -27.5538      2.00000
    306     -27.5538      2.00000
    307     -27.5538      2.00000
    308     -27.5538      2.00000
    309     -27.5483      2.00000
    310     -27.5483      2.00000
    311     -27.5483      2.00000
    312     -27.5483      2.00000
    313     -27.5482      2.00000
    314     -27.5482      2.00000
    315     -27.5482      2.00000
    316     -27.5482      2.00000
    317     -27.5266      2.00000
    318     -27.5265      2.00000
    319     -27.5265      2.00000
    320     -27.5265      2.00000
    321     -27.5205      2.00000
    322     -27.5205      2.00000
    323     -27.5204      2.00000
    324     -27.5204      2.00000
    325     -27.5204      2.00000
    326     -27.5204      2.00000
    327     -27.5204      2.00000
    328     -27.5204      2.00000
    329     -27.5151      2.00000
    330     -27.5151      2.00000
    331     -27.5151      2.00000
    332     -27.5151      2.00000
    333     -27.5151      2.00000
    334     -27.5151      2.00000
    335     -27.5150      2.00000
    336     -27.5150      2.00000
    337     -27.5072      2.00000
    338     -27.5072      2.00000
    339     -27.5072      2.00000
    340     -27.5072      2.00000
    341     -27.5071      2.00000
    342     -27.5071      2.00000
    343     -27.5071      2.00000
    344     -27.5070      2.00000
    345     -27.5069      2.00000
    346     -27.5069      2.00000
    347     -27.5069      2.00000
    348     -27.5069      2.00000
    349     -27.5068      2.00000
    350     -27.5068      2.00000
    351     -27.5068      2.00000
    352     -27.5068      2.00000
    353     -27.4671      2.00000
    354     -27.4671      2.00000
    355     -27.4671      2.00000
    356     -27.4671      2.00000
    357     -27.4671      2.00000
    358     -27.4671      2.00000
    359     -27.4670      2.00000
    360     -27.4670      2.00000
    361     -27.4337      2.00000
    362     -27.4337      2.00000
    363     -27.4337      2.00000
    364     -27.4336      2.00000
    365     -27.4080      2.00000
    366     -27.4080      2.00000
    367     -27.4079      2.00000
    368     -27.4079      2.00000
    369     -27.4079      2.00000
    370     -27.4079      2.00000
    371     -27.4078      2.00000
    372     -27.4078      2.00000
    373     -27.4078      2.00000
    374     -27.4078      2.00000
    375     -27.4077      2.00000
    376     -27.4077      2.00000
    377     -27.4077      2.00000
    378     -27.4077      2.00000
    379     -27.4077      2.00000
    380     -27.4077      2.00000
    381     -27.4038      2.00000
    382     -27.4038      2.00000
    383     -27.4038      2.00000
    384     -27.4038      2.00000
    385     -27.4037      2.00000
    386     -27.4037      2.00000
    387     -27.4036      2.00000
    388     -27.4036      2.00000
    389     -27.3802      2.00000
    390     -27.3802      2.00000
    391     -27.3801      2.00000
    392     -27.3801      2.00000
    393     -27.3800      2.00000
    394     -27.3800      2.00000
    395     -27.3799      2.00000
    396     -27.3799      2.00000
    397     -27.3519      2.00000
    398     -27.3519      2.00000
    399     -27.3519      2.00000
    400     -27.3519      2.00000
    401     -27.3518      2.00000
    402     -27.3518      2.00000
    403     -27.3518      2.00000
    404     -27.3518      2.00000
    405     -27.3518      2.00000
    406     -27.3518      2.00000
    407     -27.3517      2.00000
    408     -27.3517      2.00000
    409     -27.3517      2.00000
    410     -27.3517      2.00000
    411     -27.3517      2.00000
    412     -27.3517      2.00000
    413     -27.3482      2.00000
    414     -27.3482      2.00000
    415     -27.3482      2.00000
    416     -27.3481      2.00000
    417     -27.3481      2.00000
    418     -27.3481      2.00000
    419     -27.3480      2.00000
    420     -27.3480      2.00000
    421     -27.3279      2.00000
    422     -27.3279      2.00000
    423     -27.3279      2.00000
    424     -27.3278      2.00000
    425     -27.3166      2.00000
    426     -27.3165      2.00000
    427     -27.3165      2.00000
    428     -27.3165      2.00000
    429     -27.3165      2.00000
    430     -27.3164      2.00000
    431     -27.3164      2.00000
    432     -27.3164      2.00000
    433     -27.2950      2.00000
    434     -27.2950      2.00000
    435     -27.2949      2.00000
    436     -27.2949      2.00000
    437     -27.2949      2.00000
    438     -27.2949      2.00000
    439     -27.2948      2.00000
    440     -27.2948      2.00000
    441     -27.2932      2.00000
    442     -27.2932      2.00000
    443     -27.2931      2.00000
    444     -27.2931      2.00000
    445     -27.2931      2.00000
    446     -27.2931      2.00000
    447     -27.2931      2.00000
    448     -27.2931      2.00000
    449     -27.2882      2.00000
    450     -27.2882      2.00000
    451     -27.2881      2.00000
    452     -27.2881      2.00000
    453     -27.2817      2.00000
    454     -27.2817      2.00000
    455     -27.2817      2.00000
    456     -27.2817      2.00000
    457     -27.2816      2.00000
    458     -27.2816      2.00000
    459     -27.2816      2.00000
    460     -27.2816      2.00000
    461     -27.2403      2.00000
    462     -27.2403      2.00000
    463     -27.2403      2.00000
    464     -27.2403      2.00000
    465     -27.2402      2.00000
    466     -27.2402      2.00000
    467     -27.2402      2.00000
    468     -27.2402      2.00000
    469     -27.2400      2.00000
    470     -27.2400      2.00000
    471     -27.2400      2.00000
    472     -27.2400      2.00000
    473     -27.2400      2.00000
    474     -27.2400      2.00000
    475     -27.2399      2.00000
    476     -27.2399      2.00000
    477     -27.2356      2.00000
    478     -27.2356      2.00000
    479     -27.2356      2.00000
    480     -27.2356      2.00000
    481     -27.2355      2.00000
    482     -27.2355      2.00000
    483     -27.2355      2.00000
    484     -27.2355      2.00000
    485     -27.2354      2.00000
    486     -27.2354      2.00000
    487     -27.2354      2.00000
    488     -27.2354      2.00000
    489     -27.2353      2.00000
    490     -27.2353      2.00000
    491     -27.2353      2.00000
    492     -27.2353      2.00000
    493     -27.2306      2.00000
    494     -27.2305      2.00000
    495     -27.2302      2.00000
    496     -27.2302      2.00000
    497     -27.2207      2.00000
    498     -27.2206      2.00000
    499     -27.2206      2.00000
    500     -27.2206      2.00000
    501     -27.2205      2.00000
    502     -27.2205      2.00000
    503     -27.2205      2.00000
    504     -27.2204      2.00000
    505     -27.1926      2.00000
    506     -27.1926      2.00000
    507     -27.1926      2.00000
    508     -27.1926      2.00000
    509     -27.1880      2.00000
    510     -27.1880      2.00000
    511     -27.1880      2.00000
    512     -27.1880      2.00000
    513       3.8177      2.00000
    514       3.8179      2.00000
    515       3.8181      2.00000
    516       3.8182      2.00000
    517       4.9287      2.00000
    518       4.9288      2.00000
    519       4.9288      2.00000
    520       4.9289      2.00000
    521       4.9290      2.00000
    522       4.9291      2.00000
    523       4.9291      2.00000
    524       4.9292      2.00000
    525       5.8446      2.00000
    526       5.8446      2.00000
    527       5.8447      2.00000
    528       5.8447      2.00000
    529       5.8448      2.00000
    530       5.8448      2.00000
    531       5.8449      2.00000
    532       5.8449      2.00000
    533       6.4802      2.00000
    534       6.4802      2.00000
    535       6.4803      2.00000
    536       6.4804      2.00000
    537       6.4804      2.00000
    538       6.4804      2.00000
    539       6.4804      2.00000
    540       6.4805      2.00000
    541       6.4805      2.00000
    542       6.4805      2.00000
    543       6.4806      2.00000
    544       6.4806      2.00000
    545       6.4806      2.00000
    546       6.4806      2.00000
    547       6.4807      2.00000
    548       6.4807      2.00000
    549       6.4971      2.00000
    550       6.4972      2.00000
    551       6.4972      2.00000
    552       6.4972      2.00000
    553       6.9794      2.00000
    554       6.9794      2.00000
    555       6.9794      2.00000
    556       6.9794      2.00000
    557       6.9795      2.00000
    558       6.9795      2.00000
    559       6.9796      2.00000
    560       6.9796      2.00000
    561       6.9798      2.00000
    562       6.9798      2.00000
    563       6.9798      2.00000
    564       6.9798      2.00000
    565       6.9798      2.00000
    566       6.9798      2.00000
    567       6.9798      2.00000
    568       6.9799      2.00000
    569       7.0274      2.00000
    570       7.0274      2.00000
    571       7.0275      2.00000
    572       7.0275      2.00000
    573       7.0958      2.00000
    574       7.0959      2.00000
    575       7.0961      2.00000
    576       7.0962      2.00000
    577       7.1155      2.00000
    578       7.1155      2.00000
    579       7.1156      2.00000
    580       7.1156      2.00000
    581       7.1158      2.00000
    582       7.1158      2.00000
    583       7.1159      2.00000
    584       7.1159      2.00000
    585       7.1434      2.00000
    586       7.1435      2.00000
    587       7.1437      2.00000
    588       7.1438      2.00000
    589       7.5443      2.00000
    590       7.5443      2.00000
    591       7.5443      2.00000
    592       7.5443      2.00000
    593       7.5444      2.00000
    594       7.5444      2.00000
    595       7.5445      2.00000
    596       7.5445      2.00000
    597       7.5720      2.00000
    598       7.5720      2.00000
    599       7.5721      2.00000
    600       7.5721      2.00000
    601       7.5722      2.00000
    602       7.5722      2.00000
    603       7.5723      2.00000
    604       7.5723      2.00000
    605       7.6494      2.00000
    606       7.6494      2.00000
    607       7.6494      2.00000
    608       7.6494      2.00000
    609       7.6495      2.00000
    610       7.6495      2.00000
    611       7.6495      2.00000
    612       7.6496      2.00000
    613       7.6496      2.00000
    614       7.6496      2.00000
    615       7.6496      2.00000
    616       7.6497      2.00000
    617       7.6497      2.00000
    618       7.6497      2.00000
    619       7.6498      2.00000
    620       7.6498      2.00000
    621       7.6799      2.00000
    622       7.6800      2.00000
    623       7.6800      2.00000
    624       7.6802      2.00000
    625       7.6803      2.00000
    626       7.6804      2.00000
    627       7.6804      2.00000
    628       7.6804      2.00000
    629       7.6869      2.00000
    630       7.6871      2.00000
    631       7.6871      2.00000
    632       7.6872      2.00000
    633       7.6873      2.00000
    634       7.6874      2.00000
    635       7.6874      2.00000
    636       7.6875      2.00000
    637       7.8494      2.00000
    638       7.8494      2.00000
    639       7.8495      2.00000
    640       7.8495      2.00000
    641       7.8495      2.00000
    642       7.8495      2.00000
    643       7.8495      2.00000
    644       7.8496      2.00000
    645       8.1843      2.00000
    646       8.1843      2.00000
    647       8.1843      2.00000
    648       8.1843      2.00000
    649       8.1843      2.00000
    650       8.1844      2.00000
    651       8.1844      2.00000
    652       8.1844      2.00000
    653       8.3091      2.00000
    654       8.3091      2.00000
    655       8.3092      2.00000
    656       8.3092      2.00000
    657       8.3093      2.00000
    658       8.3093      2.00000
    659       8.3094      2.00000
    660       8.3094      2.00000
    661       8.6354      2.00000
    662       8.6354      2.00000
    663       8.6355      2.00000
    664       8.6355      2.00000
    665       8.6355      2.00000
    666       8.6355      2.00000
    667       8.6355      2.00000
    668       8.6355      2.00000
    669       8.6477      2.00000
    670       8.6477      2.00000
    671       8.6477      2.00000
    672       8.6478      2.00000
    673       8.6478      2.00000
    674       8.6478      2.00000
    675       8.6478      2.00000
    676       8.6478      2.00000
    677       8.7135      2.00000
    678       8.7135      2.00000
    679       8.7136      2.00000
    680       8.7136      2.00000
    681       8.7136      2.00000
    682       8.7136      2.00000
    683       8.7136      2.00000
    684       8.7136      2.00000
    685       8.7576      2.00000
    686       8.7576      2.00000
    687       8.7577      2.00000
    688       8.7577      2.00000
    689       8.7578      2.00000
    690       8.7578      2.00000
    691       8.7578      2.00000
    692       8.7578      2.00000
    693       8.7578      2.00000
    694       8.7578      2.00000
    695       8.7579      2.00000
    696       8.7579      2.00000
    697       8.7579      2.00000
    698       8.7579      2.00000
    699       8.7580      2.00000
    700       8.7580      2.00000
    701       8.7606      2.00000
    702       8.7606      2.00000
    703       8.7606      2.00000
    704       8.7606      2.00000
    705       8.7607      2.00000
    706       8.7607      2.00000
    707       8.7607      2.00000
    708       8.7607      2.00000
    709       8.7609      2.00000
    710       8.7609      2.00000
    711       8.7609      2.00000
    712       8.7609      2.00000
    713       8.7610      2.00000
    714       8.7610      2.00000
    715       8.7610      2.00000
    716       8.7610      2.00000
    717       8.8743      2.00000
    718       8.8743      2.00000
    719       8.8743      2.00000
    720       8.8743      2.00000
    721       8.9195      2.00000
    722       8.9195      2.00000
    723       8.9196      2.00000
    724       8.9196      2.00000
    725       8.9197      2.00000
    726       8.9197      2.00000
    727       8.9198      2.00000
    728       8.9198      2.00000
    729       9.0603      2.00000
    730       9.0603      2.00000
    731       9.0604      2.00000
    732       9.0604      2.00000
    733       9.0606      2.00000
    734       9.0606      2.00000
    735       9.0606      2.00000
    736       9.0606      2.00000
    737       9.0787      2.00000
    738       9.0787      2.00000
    739       9.0787      2.00000
    740       9.0787      2.00000
    741       9.0787      2.00000
    742       9.0788      2.00000
    743       9.0788      2.00000
    744       9.0788      2.00000
    745       9.0788      2.00000
    746       9.0788      2.00000
    747       9.0789      2.00000
    748       9.0789      2.00000
    749       9.0789      2.00000
    750       9.0789      2.00000
    751       9.0789      2.00000
    752       9.0789      2.00000
    753       9.1407      2.00002
    754       9.1407      2.00002
    755       9.1407      2.00002
    756       9.1407      2.00002
    757       9.1407      2.00002
    758       9.1407      2.00002
    759       9.1407      2.00002
    760       9.1408      2.00002
    761       9.1778      2.00007
    762       9.1778      2.00007
    763       9.1779      2.00007
    764       9.1779      2.00007
    765       9.3346      2.00396
    766       9.3346      2.00396
    767       9.3346      2.00396
    768       9.3347      2.00396
    769       9.3347      2.00396
    770       9.3347      2.00396
    771       9.3347      2.00396
    772       9.3347      2.00397
    773       9.4560      2.03130
    774       9.4560      2.03130
    775       9.4561      2.03131
    776       9.4561      2.03131
    777       9.4561      2.03132
    778       9.4561      2.03133
    779       9.4561      2.03133
    780       9.4561      2.03133
    781       9.4562      2.03135
    782       9.4562      2.03135
    783       9.4562      2.03135
    784       9.4562      2.03135
    785       9.4562      2.03137
    786       9.4562      2.03137
    787       9.4562      2.03138
    788       9.4562      2.03138
    789       9.5352      2.06540
    790       9.5352      2.06541
    791       9.5352      2.06541
    792       9.5352      2.06541
    793       9.5352      2.06542
    794       9.5352      2.06542
    795       9.5352      2.06543
    796       9.5353      2.06543
    797       9.5353      2.06543
    798       9.5353      2.06544
    799       9.5353      2.06544
    800       9.5353      2.06544
    801       9.5353      2.06545
    802       9.5353      2.06545
    803       9.5353      2.06546
    804       9.5353      2.06546
    805       9.6641      1.93913
    806       9.6641      1.93903
    807       9.6641      1.93899
    808       9.6641      1.93890
    809       9.6642      1.93868
    810       9.6642      1.93861
    811       9.6642      1.93854
    812       9.6643      1.93847
    813       9.7025      1.77906
    814       9.7025      1.77901
    815       9.7026      1.77880
    816       9.7026      1.77871
    817       9.7026      1.77864
    818       9.7026      1.77864
    819       9.7026      1.77844
    820       9.7027      1.77828
    821       9.7542      1.45123
    822       9.7542      1.45120
    823       9.7542      1.45110
    824       9.7542      1.45109
    825       9.7542      1.45095
    826       9.7542      1.45094
    827       9.7543      1.45085
    828       9.7543      1.45081
    829       9.8216      0.90038
    830       9.8217      0.90026
    831       9.8217      0.89993
    832       9.8217      0.89980
    833       9.8217      0.89961
    834       9.8217      0.89945
    835       9.8218      0.89912
    836       9.8218      0.89902
    837       9.8380      0.76428
    838       9.8380      0.76417
    839       9.8380      0.76410
    840       9.8380      0.76407
    841       9.9279      0.16886
    842       9.9279      0.16884
    843       9.9279      0.16878
    844       9.9279      0.16869
    845       9.9280      0.16849
    846       9.9280      0.16848
    847       9.9280      0.16838
    848       9.9280      0.16831
    849       9.9710      0.01707
    850       9.9710      0.01703
    851       9.9710      0.01697
    852       9.9710      0.01692
    853      10.1428     -0.04021
    854      10.1429     -0.04017
    855      10.1431     -0.04008
    856      10.1432     -0.04005
    857      10.2309     -0.01121
    858      10.2309     -0.01121
    859      10.2310     -0.01120
    860      10.2310     -0.01120
    861      10.2310     -0.01119
    862      10.2310     -0.01119
    863      10.2310     -0.01119
    864      10.2310     -0.01118
    865      10.2311     -0.01116
    866      10.2312     -0.01116
    867      10.2312     -0.01116
    868      10.2312     -0.01116
    869      10.2312     -0.01115
    870      10.2312     -0.01115
    871      10.2312     -0.01115
    872      10.2312     -0.01115
    873      10.3338     -0.00133
    874      10.3339     -0.00133
    875      10.3339     -0.00133
    876      10.3339     -0.00133
    877      10.6735     -0.00000
    878      10.6735     -0.00000
    879      10.6736     -0.00000
    880      10.6736     -0.00000
    881      10.6804     -0.00000
    882      10.6804     -0.00000
    883      10.6804     -0.00000
    884      10.6804     -0.00000
    885      10.6805     -0.00000
    886      10.6805     -0.00000
    887      10.6805     -0.00000
    888      10.6805     -0.00000
    889      10.6943     -0.00000
    890      10.6943     -0.00000
    891      10.6943     -0.00000
    892      10.6943     -0.00000
    893      10.6943     -0.00000
    894      10.6943     -0.00000
    895      10.6944     -0.00000
    896      10.6944     -0.00000
    897      11.0867     -0.00000
    898      11.0867     -0.00000
    899      11.0867     -0.00000
    900      11.0867     -0.00000
    901      11.0867     -0.00000
    902      11.0867     -0.00000
    903      11.0867     -0.00000
    904      11.0867     -0.00000
    905      11.2132     -0.00000
    906      11.2132     -0.00000
    907      11.2132     -0.00000
    908      11.2132     -0.00000
    909      11.2133     -0.00000
    910      11.2133     -0.00000
    911      11.2134     -0.00000
    912      11.2134     -0.00000
    913      11.2769     -0.00000
    914      11.2769     -0.00000
    915      11.2770     -0.00000
    916      11.2770     -0.00000
    917      11.2770     -0.00000
    918      11.2770     -0.00000
    919      11.2771     -0.00000
    920      11.2771     -0.00000
    921      11.5888     -0.00000
    922      11.5888     -0.00000
    923      11.5888     -0.00000
    924      11.5888     -0.00000
    925      11.5889     -0.00000
    926      11.5889     -0.00000
    927      11.5890     -0.00000
    928      11.5890     -0.00000
    929      11.7160     -0.00000
    930      11.7160     -0.00000
    931      11.7160     -0.00000
    932      11.7161     -0.00000
    933      11.7163     -0.00000
    934      11.7163     -0.00000
    935      11.7163     -0.00000
    936      11.7163     -0.00000
    937      11.7163     -0.00000
    938      11.7163     -0.00000
    939      11.7164     -0.00000
    940      11.7164     -0.00000
    941      11.7164     -0.00000
    942      11.7164     -0.00000
    943      11.7164     -0.00000
    944      11.7164     -0.00000
    945      11.7165     -0.00000
    946      11.7165     -0.00000
    947      11.7165     -0.00000
    948      11.7165     -0.00000
    949      11.7426     -0.00000
    950      11.7427     -0.00000
    951      11.7427     -0.00000
    952      11.7428     -0.00000
    953      11.7429     -0.00000
    954      11.7430     -0.00000
    955      11.7430     -0.00000
    956      11.7430     -0.00000
    957      11.7434     -0.00000
    958      11.7434     -0.00000
    959      11.7435     -0.00000
    960      11.7435     -0.00000
    961      11.7435     -0.00000
    962      11.7435     -0.00000
    963      11.7436     -0.00000
    964      11.7436     -0.00000
    965      11.8627     -0.00000
    966      11.8627     -0.00000
    967      11.8628     -0.00000
    968      11.8628     -0.00000
    969      11.8628     -0.00000
    970      11.8628     -0.00000
    971      11.8629     -0.00000
    972      11.8629     -0.00000
    973      11.8629     -0.00000
    974      11.8629     -0.00000
    975      11.8630     -0.00000
    976      11.8630     -0.00000
    977      11.8630     -0.00000
    978      11.8630     -0.00000
    979      11.8630     -0.00000
    980      11.8631     -0.00000
    981      11.9996     -0.00000
    982      11.9997     -0.00000
    983      11.9999     -0.00000
    984      12.0004     -0.00000
    985      12.1580     -0.00000
    986      12.1582     -0.00000
    987      12.1583     -0.00000
    988      12.1585     -0.00000
    989      12.1590     -0.00000
    990      12.1594     -0.00000
    991      12.1601     -0.00000
    992      12.1611     -0.00000
    993      12.1622     -0.00000
    994      12.1643     -0.00000
    995      12.1674     -0.00000
    996      12.1713     -0.00000
    997      12.1786     -0.00000
    998      12.1892     -0.00000
    999      12.2039     -0.00000
   1000      12.2177     -0.00000

 k-point     4 :       0.5000    0.5000    0.5000
  band No.  band energies     occupation 
      1     -53.8426      2.00000
      2     -53.8426      2.00000
      3     -53.8425      2.00000
      4     -53.8424      2.00000
      5     -53.8423      2.00000
      6     -53.8422      2.00000
      7     -53.8422      2.00000
      8     -53.8420      2.00000
      9     -53.7522      2.00000
     10     -53.7522      2.00000
     11     -53.7521      2.00000
     12     -53.7521      2.00000
     13     -53.7521      2.00000
     14     -53.7520      2.00000
     15     -53.7520      2.00000
     16     -53.7520      2.00000
     17     -53.7520      2.00000
     18     -53.7520      2.00000
     19     -53.7520      2.00000
     20     -53.7519      2.00000
     21     -53.7519      2.00000
     22     -53.7519      2.00000
     23     -53.7518      2.00000
     24     -53.7518      2.00000
     25     -53.7518      2.00000
     26     -53.7518      2.00000
     27     -53.7518      2.00000
     28     -53.7518      2.00000
     29     -53.7517      2.00000
     30     -53.7517      2.00000
     31     -53.7517      2.00000
     32     -53.7516      2.00000
     33     -53.7073      2.00000
     34     -53.7073      2.00000
     35     -53.7073      2.00000
     36     -53.7073      2.00000
     37     -53.7072      2.00000
     38     -53.7072      2.00000
     39     -53.7072      2.00000
     40     -53.7072      2.00000
     41     -53.7072      2.00000
     42     -53.7072      2.00000
     43     -53.7071      2.00000
     44     -53.7071      2.00000
     45     -53.7071      2.00000
     46     -53.7071      2.00000
     47     -53.7071      2.00000
     48     -53.7071      2.00000
     49     -53.7071      2.00000
     50     -53.7070      2.00000
     51     -53.7070      2.00000
     52     -53.7070      2.00000
     53     -53.7070      2.00000
     54     -53.7070      2.00000
     55     -53.7069      2.00000
     56     -53.7069      2.00000
     57     -53.6816      2.00000
     58     -53.6815      2.00000
     59     -53.6815      2.00000
     60     -53.6815      2.00000
     61     -53.6815      2.00000
     62     -53.6814      2.00000
     63     -53.6814      2.00000
     64     -53.6814      2.00000
     65     -53.6629      2.00000
     66     -53.6629      2.00000
     67     -53.6628      2.00000
     68     -53.6628      2.00000
     69     -53.6628      2.00000
     70     -53.6628      2.00000
     71     -53.6627      2.00000
     72     -53.6627      2.00000
     73     -53.6606      2.00000
     74     -53.6605      2.00000
     75     -53.6605      2.00000
     76     -53.6605      2.00000
     77     -53.6605      2.00000
     78     -53.6605      2.00000
     79     -53.6604      2.00000
     80     -53.6604      2.00000
     81     -53.6604      2.00000
     82     -53.6604      2.00000
     83     -53.6604      2.00000
     84     -53.6604      2.00000
     85     -53.6603      2.00000
     86     -53.6603      2.00000
     87     -53.6603      2.00000
     88     -53.6603      2.00000
     89     -53.6603      2.00000
     90     -53.6603      2.00000
     91     -53.6602      2.00000
     92     -53.6602      2.00000
     93     -53.6602      2.00000
     94     -53.6602      2.00000
     95     -53.6601      2.00000
     96     -53.6601      2.00000
     97     -53.6396      2.00000
     98     -53.6396      2.00000
     99     -53.6396      2.00000
    100     -53.6395      2.00000
    101     -53.6395      2.00000
    102     -53.6395      2.00000
    103     -53.6395      2.00000
    104     -53.6395      2.00000
    105     -53.6394      2.00000
    106     -53.6394      2.00000
    107     -53.6394      2.00000
    108     -53.6394      2.00000
    109     -53.6394      2.00000
    110     -53.6394      2.00000
    111     -53.6393      2.00000
    112     -53.6393      2.00000
    113     -53.6392      2.00000
    114     -53.6392      2.00000
    115     -53.6392      2.00000
    116     -53.6392      2.00000
    117     -53.6392      2.00000
    118     -53.6391      2.00000
    119     -53.6391      2.00000
    120     -53.6391      2.00000
    121     -53.5718      2.00000
    122     -53.5717      2.00000
    123     -53.5717      2.00000
    124     -53.5716      2.00000
    125     -53.5715      2.00000
    126     -53.5714      2.00000
    127     -53.5714      2.00000
    128     -53.5712      2.00000
    129     -28.0339      2.00000
    130     -28.0339      2.00000
    131     -28.0338      2.00000
    132     -28.0338      2.00000
    133     -28.0338      2.00000
    134     -28.0338      2.00000
    135     -28.0338      2.00000
    136     -28.0337      2.00000
    137     -28.0337      2.00000
    138     -28.0337      2.00000
    139     -28.0337      2.00000
    140     -28.0337      2.00000
    141     -28.0337      2.00000
    142     -28.0337      2.00000
    143     -28.0336      2.00000
    144     -28.0336      2.00000
    145     -28.0336      2.00000
    146     -28.0336      2.00000
    147     -28.0336      2.00000
    148     -28.0336      2.00000
    149     -28.0335      2.00000
    150     -28.0335      2.00000
    151     -28.0335      2.00000
    152     -28.0335      2.00000
    153     -27.9671      2.00000
    154     -27.9671      2.00000
    155     -27.9670      2.00000
    156     -27.9670      2.00000
    157     -27.9670      2.00000
    158     -27.9670      2.00000
    159     -27.9670      2.00000
    160     -27.9670      2.00000
    161     -27.9670      2.00000
    162     -27.9669      2.00000
    163     -27.9669      2.00000
    164     -27.9669      2.00000
    165     -27.9669      2.00000
    166     -27.9669      2.00000
    167     -27.9669      2.00000
    168     -27.9669      2.00000
    169     -27.9668      2.00000
    170     -27.9668      2.00000
    171     -27.9668      2.00000
    172     -27.9668      2.00000
    173     -27.9668      2.00000
    174     -27.9668      2.00000
    175     -27.9667      2.00000
    176     -27.9667      2.00000
    177     -27.9045      2.00000
    178     -27.9045      2.00000
    179     -27.9045      2.00000
    180     -27.9045      2.00000
    181     -27.9045      2.00000
    182     -27.9045      2.00000
    183     -27.9044      2.00000
    184     -27.9044      2.00000
    185     -27.8948      2.00000
    186     -27.8948      2.00000
    187     -27.8948      2.00000
    188     -27.8948      2.00000
    189     -27.8947      2.00000
    190     -27.8947      2.00000
    191     -27.8947      2.00000
    192     -27.8947      2.00000
    193     -27.8947      2.00000
    194     -27.8947      2.00000
    195     -27.8946      2.00000
    196     -27.8946      2.00000
    197     -27.8946      2.00000
    198     -27.8946      2.00000
    199     -27.8946      2.00000
    200     -27.8946      2.00000
    201     -27.8946      2.00000
    202     -27.8945      2.00000
    203     -27.8945      2.00000
    204     -27.8945      2.00000
    205     -27.8945      2.00000
    206     -27.8945      2.00000
    207     -27.8945      2.00000
    208     -27.8945      2.00000
    209     -27.8344      2.00000
    210     -27.8344      2.00000
    211     -27.8344      2.00000
    212     -27.8344      2.00000
    213     -27.8343      2.00000
    214     -27.8343      2.00000
    215     -27.8343      2.00000
    216     -27.8342      2.00000
    217     -27.8342      2.00000
    218     -27.8342      2.00000
    219     -27.8341      2.00000
    220     -27.8341      2.00000
    221     -27.8341      2.00000
    222     -27.8341      2.00000
    223     -27.8340      2.00000
    224     -27.8340      2.00000
    225     -27.7918      2.00000
    226     -27.7918      2.00000
    227     -27.7918      2.00000
    228     -27.7918      2.00000
    229     -27.7918      2.00000
    230     -27.7918      2.00000
    231     -27.7918      2.00000
    232     -27.7917      2.00000
    233     -27.7917      2.00000
    234     -27.7917      2.00000
    235     -27.7917      2.00000
    236     -27.7917      2.00000
    237     -27.7917      2.00000
    238     -27.7917      2.00000
    239     -27.7917      2.00000
    240     -27.7917      2.00000
    241     -27.7122      2.00000
    242     -27.7122      2.00000
    243     -27.7122      2.00000
    244     -27.7122      2.00000
    245     -27.7121      2.00000
    246     -27.7121      2.00000
    247     -27.7121      2.00000
    248     -27.7121      2.00000
    249     -27.7121      2.00000
    250     -27.7121      2.00000
    251     -27.7121      2.00000
    252     -27.7121      2.00000
    253     -27.7120      2.00000
    254     -27.7120      2.00000
    255     -27.7120      2.00000
    256     -27.7120      2.00000
    257     -27.7120      2.00000
    258     -27.7120      2.00000
    259     -27.7120      2.00000
    260     -27.7119      2.00000
    261     -27.7119      2.00000
    262     -27.7119      2.00000
    263     -27.7119      2.00000
    264     -27.7119      2.00000
    265     -27.6504      2.00000
    266     -27.6504      2.00000
    267     -27.6503      2.00000
    268     -27.6503      2.00000
    269     -27.6503      2.00000
    270     -27.6502      2.00000
    271     -27.6502      2.00000
    272     -27.6502      2.00000
    273     -27.6452      2.00000
    274     -27.6452      2.00000
    275     -27.6452      2.00000
    276     -27.6452      2.00000
    277     -27.6452      2.00000
    278     -27.6452      2.00000
    279     -27.6452      2.00000
    280     -27.6452      2.00000
    281     -27.6451      2.00000
    282     -27.6451      2.00000
    283     -27.6451      2.00000
    284     -27.6451      2.00000
    285     -27.6451      2.00000
    286     -27.6451      2.00000
    287     -27.6451      2.00000
    288     -27.6451      2.00000
    289     -27.6451      2.00000
    290     -27.6451      2.00000
    291     -27.6451      2.00000
    292     -27.6451      2.00000
    293     -27.6451      2.00000
    294     -27.6451      2.00000
    295     -27.6451      2.00000
    296     -27.6450      2.00000
    297     -27.5777      2.00000
    298     -27.5777      2.00000
    299     -27.5777      2.00000
    300     -27.5777      2.00000
    301     -27.5777      2.00000
    302     -27.5777      2.00000
    303     -27.5777      2.00000
    304     -27.5776      2.00000
    305     -27.5776      2.00000
    306     -27.5776      2.00000
    307     -27.5776      2.00000
    308     -27.5776      2.00000
    309     -27.5776      2.00000
    310     -27.5776      2.00000
    311     -27.5776      2.00000
    312     -27.5776      2.00000
    313     -27.5775      2.00000
    314     -27.5775      2.00000
    315     -27.5775      2.00000
    316     -27.5775      2.00000
    317     -27.5775      2.00000
    318     -27.5775      2.00000
    319     -27.5774      2.00000
    320     -27.5774      2.00000
    321     -27.4558      2.00000
    322     -27.4558      2.00000
    323     -27.4558      2.00000
    324     -27.4558      2.00000
    325     -27.4558      2.00000
    326     -27.4558      2.00000
    327     -27.4557      2.00000
    328     -27.4557      2.00000
    329     -27.4557      2.00000
    330     -27.4557      2.00000
    331     -27.4557      2.00000
    332     -27.4557      2.00000
    333     -27.4557      2.00000
    334     -27.4557      2.00000
    335     -27.4557      2.00000
    336     -27.4557      2.00000
    337     -27.4473      2.00000
    338     -27.4473      2.00000
    339     -27.4473      2.00000
    340     -27.4473      2.00000
    341     -27.4472      2.00000
    342     -27.4472      2.00000
    343     -27.4472      2.00000
    344     -27.4472      2.00000
    345     -27.4472      2.00000
    346     -27.4472      2.00000
    347     -27.4472      2.00000
    348     -27.4471      2.00000
    349     -27.4471      2.00000
    350     -27.4471      2.00000
    351     -27.4471      2.00000
    352     -27.4471      2.00000
    353     -27.4471      2.00000
    354     -27.4471      2.00000
    355     -27.4471      2.00000
    356     -27.4470      2.00000
    357     -27.4470      2.00000
    358     -27.4470      2.00000
    359     -27.4470      2.00000
    360     -27.4470      2.00000
    361     -27.4449      2.00000
    362     -27.4449      2.00000
    363     -27.4449      2.00000
    364     -27.4449      2.00000
    365     -27.4449      2.00000
    366     -27.4449      2.00000
    367     -27.4448      2.00000
    368     -27.4448      2.00000
    369     -27.4448      2.00000
    370     -27.4448      2.00000
    371     -27.4448      2.00000
    372     -27.4448      2.00000
    373     -27.4448      2.00000
    374     -27.4448      2.00000
    375     -27.4448      2.00000
    376     -27.4448      2.00000
    377     -27.4447      2.00000
    378     -27.4447      2.00000
    379     -27.4447      2.00000
    380     -27.4447      2.00000
    381     -27.4447      2.00000
    382     -27.4447      2.00000
    383     -27.4447      2.00000
    384     -27.4447      2.00000
    385     -27.4049      2.00000
    386     -27.4048      2.00000
    387     -27.4048      2.00000
    388     -27.4048      2.00000
    389     -27.4047      2.00000
    390     -27.4047      2.00000
    391     -27.4047      2.00000
    392     -27.4047      2.00000
    393     -27.3877      2.00000
    394     -27.3877      2.00000
    395     -27.3877      2.00000
    396     -27.3877      2.00000
    397     -27.3876      2.00000
    398     -27.3876      2.00000
    399     -27.3876      2.00000
    400     -27.3876      2.00000
    401     -27.3876      2.00000
    402     -27.3876      2.00000
    403     -27.3876      2.00000
    404     -27.3876      2.00000
    405     -27.3876      2.00000
    406     -27.3876      2.00000
    407     -27.3876      2.00000
    408     -27.3876      2.00000
    409     -27.3876      2.00000
    410     -27.3876      2.00000
    411     -27.3876      2.00000
    412     -27.3876      2.00000
    413     -27.3875      2.00000
    414     -27.3875      2.00000
    415     -27.3875      2.00000
    416     -27.3875      2.00000
    417     -27.3388      2.00000
    418     -27.3388      2.00000
    419     -27.3388      2.00000
    420     -27.3388      2.00000
    421     -27.3388      2.00000
    422     -27.3388      2.00000
    423     -27.3388      2.00000
    424     -27.3388      2.00000
    425     -27.2824      2.00000
    426     -27.2824      2.00000
    427     -27.2823      2.00000
    428     -27.2823      2.00000
    429     -27.2823      2.00000
    430     -27.2823      2.00000
    431     -27.2823      2.00000
    432     -27.2823      2.00000
    433     -27.2822      2.00000
    434     -27.2822      2.00000
    435     -27.2822      2.00000
    436     -27.2822      2.00000
    437     -27.2822      2.00000
    438     -27.2822      2.00000
    439     -27.2822      2.00000
    440     -27.2822      2.00000
    441     -27.2821      2.00000
    442     -27.2821      2.00000
    443     -27.2821      2.00000
    444     -27.2821      2.00000
    445     -27.2821      2.00000
    446     -27.2821      2.00000
    447     -27.2820      2.00000
    448     -27.2820      2.00000
    449     -27.2694      2.00000
    450     -27.2694      2.00000
    451     -27.2694      2.00000
    452     -27.2694      2.00000
    453     -27.2693      2.00000
    454     -27.2693      2.00000
    455     -27.2693      2.00000
    456     -27.2693      2.00000
    457     -27.2693      2.00000
    458     -27.2693      2.00000
    459     -27.2693      2.00000
    460     -27.2693      2.00000
    461     -27.2693      2.00000
    462     -27.2693      2.00000
    463     -27.2693      2.00000
    464     -27.2692      2.00000
    465     -27.2692      2.00000
    466     -27.2692      2.00000
    467     -27.2692      2.00000
    468     -27.2692      2.00000
    469     -27.2692      2.00000
    470     -27.2692      2.00000
    471     -27.2692      2.00000
    472     -27.2692      2.00000
    473     -27.2249      2.00000
    474     -27.2249      2.00000
    475     -27.2249      2.00000
    476     -27.2249      2.00000
    477     -27.2249      2.00000
    478     -27.2248      2.00000
    479     -27.2248      2.00000
    480     -27.2248      2.00000
    481     -27.2248      2.00000
    482     -27.2248      2.00000
    483     -27.2247      2.00000
    484     -27.2247      2.00000
    485     -27.2247      2.00000
    486     -27.2247      2.00000
    487     -27.2247      2.00000
    488     -27.2247      2.00000
    489     -27.2247      2.00000
    490     -27.2247      2.00000
    491     -27.2246      2.00000
    492     -27.2246      2.00000
    493     -27.2246      2.00000
    494     -27.2246      2.00000
    495     -27.2246      2.00000
    496     -27.2245      2.00000
    497     -27.2124      2.00000
    498     -27.2124      2.00000
    499     -27.2123      2.00000
    500     -27.2123      2.00000
    501     -27.2123      2.00000
    502     -27.2123      2.00000
    503     -27.2122      2.00000
    504     -27.2122      2.00000
    505     -27.2122      2.00000
    506     -27.2121      2.00000
    507     -27.2121      2.00000
    508     -27.2121      2.00000
    509     -27.2121      2.00000
    510     -27.2120      2.00000
    511     -27.2120      2.00000
    512     -27.2120      2.00000
    513       4.1128      2.00000
    514       4.1128      2.00000
    515       4.1129      2.00000
    516       4.1130      2.00000
    517       4.1131      2.00000
    518       4.1132      2.00000
    519       4.1133      2.00000
    520       4.1134      2.00000
    521       6.0481      2.00000
    522       6.0481      2.00000
    523       6.0481      2.00000
    524       6.0481      2.00000
    525       6.0482      2.00000
    526       6.0482      2.00000
    527       6.0482      2.00000
    528       6.0482      2.00000
    529       6.0483      2.00000
    530       6.0483      2.00000
    531       6.0483      2.00000
    532       6.0483      2.00000
    533       6.0483      2.00000
    534       6.0483      2.00000
    535       6.0484      2.00000
    536       6.0484      2.00000
    537       6.0485      2.00000
    538       6.0485      2.00000
    539       6.0485      2.00000
    540       6.0485      2.00000
    541       6.0485      2.00000
    542       6.0486      2.00000
    543       6.0486      2.00000
    544       6.0486      2.00000
    545       6.7818      2.00000
    546       6.7818      2.00000
    547       6.7819      2.00000
    548       6.7819      2.00000
    549       6.7819      2.00000
    550       6.7819      2.00000
    551       6.7819      2.00000
    552       6.7820      2.00000
    553       6.7820      2.00000
    554       6.7820      2.00000
    555       6.7820      2.00000
    556       6.7820      2.00000
    557       6.7820      2.00000
    558       6.7820      2.00000
    559       6.7821      2.00000
    560       6.7821      2.00000
    561       6.7821      2.00000
    562       6.7821      2.00000
    563       6.7821      2.00000
    564       6.7821      2.00000
    565       6.7822      2.00000
    566       6.7822      2.00000
    567       6.7822      2.00000
    568       6.7822      2.00000
    569       7.2737      2.00000
    570       7.2738      2.00000
    571       7.2738      2.00000
    572       7.2738      2.00000
    573       7.2738      2.00000
    574       7.2738      2.00000
    575       7.2738      2.00000
    576       7.2739      2.00000
    577       7.2739      2.00000
    578       7.2739      2.00000
    579       7.2739      2.00000
    580       7.2739      2.00000
    581       7.2739      2.00000
    582       7.2740      2.00000
    583       7.2740      2.00000
    584       7.2740      2.00000
    585       7.2740      2.00000
    586       7.2740      2.00000
    587       7.2740      2.00000
    588       7.2740      2.00000
    589       7.2741      2.00000
    590       7.2741      2.00000
    591       7.2741      2.00000
    592       7.2741      2.00000
    593       7.2844      2.00000
    594       7.2844      2.00000
    595       7.2844      2.00000
    596       7.2844      2.00000
    597       7.2845      2.00000
    598       7.2845      2.00000
    599       7.2846      2.00000
    600       7.2846      2.00000
    601       7.2847      2.00000
    602       7.2847      2.00000
    603       7.2847      2.00000
    604       7.2847      2.00000
    605       7.2848      2.00000
    606       7.2848      2.00000
    607       7.2849      2.00000
    608       7.2849      2.00000
    609       7.7476      2.00000
    610       7.7476      2.00000
    611       7.7476      2.00000
    612       7.7476      2.00000
    613       7.7477      2.00000
    614       7.7477      2.00000
    615       7.7477      2.00000
    616       7.7478      2.00000
    617       7.7478      2.00000
    618       7.7478      2.00000
    619       7.7478      2.00000
    620       7.7478      2.00000
    621       7.7478      2.00000
    622       7.7478      2.00000
    623       7.7479      2.00000
    624       7.7479      2.00000
    625       7.7480      2.00000
    626       7.7480      2.00000
    627       7.7480      2.00000
    628       7.7480      2.00000
    629       7.7480      2.00000
    630       7.7480      2.00000
    631       7.7481      2.00000
    632       7.7481      2.00000
    633       8.1054      2.00000
    634       8.1054      2.00000
    635       8.1054      2.00000
    636       8.1054      2.00000
    637       8.1054      2.00000
    638       8.1054      2.00000
    639       8.1054      2.00000
    640       8.1054      2.00000
    641       8.2801      2.00000
    642       8.2801      2.00000
    643       8.2801      2.00000
    644       8.2801      2.00000
    645       8.2802      2.00000
    646       8.2802      2.00000
    647       8.2802      2.00000
    648       8.2802      2.00000
    649       8.2802      2.00000
    650       8.2802      2.00000
    651       8.2803      2.00000
    652       8.2803      2.00000
    653       8.2803      2.00000
    654       8.2803      2.00000
    655       8.2804      2.00000
    656       8.2804      2.00000
    657       8.2804      2.00000
    658       8.2804      2.00000
    659       8.2804      2.00000
    660       8.2804      2.00000
    661       8.2805      2.00000
    662       8.2805      2.00000
    663       8.2805      2.00000
    664       8.2805      2.00000
    665       8.4482      2.00000
    666       8.4482      2.00000
    667       8.4483      2.00000
    668       8.4483      2.00000
    669       8.4483      2.00000
    670       8.4483      2.00000
    671       8.4483      2.00000
    672       8.4483      2.00000
    673       8.5551      2.00000
    674       8.5551      2.00000
    675       8.5551      2.00000
    676       8.5551      2.00000
    677       8.5551      2.00000
    678       8.5551      2.00000
    679       8.5551      2.00000
    680       8.5551      2.00000
    681       8.5551      2.00000
    682       8.5551      2.00000
    683       8.5552      2.00000
    684       8.5552      2.00000
    685       8.5552      2.00000
    686       8.5552      2.00000
    687       8.5552      2.00000
    688       8.5552      2.00000
    689       8.8005      2.00000
    690       8.8005      2.00000
    691       8.8005      2.00000
    692       8.8006      2.00000
    693       8.8006      2.00000
    694       8.8006      2.00000
    695       8.8006      2.00000
    696       8.8006      2.00000
    697       8.8006      2.00000
    698       8.8006      2.00000
    699       8.8007      2.00000
    700       8.8007      2.00000
    701       8.8007      2.00000
    702       8.8007      2.00000
    703       8.8007      2.00000
    704       8.8007      2.00000
    705       8.8007      2.00000
    706       8.8007      2.00000
    707       8.8008      2.00000
    708       8.8008      2.00000
    709       8.8008      2.00000
    710       8.8008      2.00000
    711       8.8008      2.00000
    712       8.8009      2.00000
    713       8.9202      2.00000
    714       8.9202      2.00000
    715       8.9202      2.00000
    716       8.9202      2.00000
    717       8.9202      2.00000
    718       8.9202      2.00000
    719       8.9202      2.00000
    720       8.9202      2.00000
    721       8.9202      2.00000
    722       8.9202      2.00000
    723       8.9203      2.00000
    724       8.9203      2.00000
    725       8.9203      2.00000
    726       8.9203      2.00000
    727       8.9203      2.00000
    728       8.9203      2.00000
    729       8.9934      2.00000
    730       8.9934      2.00000
    731       8.9934      2.00000
    732       8.9934      2.00000
    733       8.9934      2.00000
    734       8.9934      2.00000
    735       8.9935      2.00000
    736       8.9935      2.00000
    737       8.9935      2.00000
    738       8.9935      2.00000
    739       8.9935      2.00000
    740       8.9935      2.00000
    741       8.9935      2.00000
    742       8.9936      2.00000
    743       8.9936      2.00000
    744       8.9936      2.00000
    745       8.9936      2.00000
    746       8.9936      2.00000
    747       8.9936      2.00000
    748       8.9936      2.00000
    749       8.9936      2.00000
    750       8.9937      2.00000
    751       8.9937      2.00000
    752       8.9937      2.00000
    753       9.4067      2.01520
    754       9.4067      2.01520
    755       9.4067      2.01520
    756       9.4068      2.01521
    757       9.4068      2.01521
    758       9.4068      2.01521
    759       9.4068      2.01522
    760       9.4068      2.01522
    761       9.4068      2.01522
    762       9.4068      2.01522
    763       9.4068      2.01523
    764       9.4068      2.01523
    765       9.4069      2.01523
    766       9.4069      2.01523
    767       9.4069      2.01524
    768       9.4069      2.01524
    769       9.4069      2.01524
    770       9.4069      2.01524
    771       9.4069      2.01524
    772       9.4069      2.01525
    773       9.4069      2.01525
    774       9.4069      2.01525
    775       9.4069      2.01525
    776       9.4070      2.01526
    777       9.6888      1.84471
    778       9.6888      1.84467
    779       9.6888      1.84465
    780       9.6888      1.84457
    781       9.6888      1.84452
    782       9.6889      1.84444
    783       9.6889      1.84443
    784       9.6889      1.84439
    785       9.6889      1.84436
    786       9.6889      1.84434
    787       9.6889      1.84429
    788       9.6889      1.84427
    789       9.6889      1.84422
    790       9.6889      1.84418
    791       9.6889      1.84416
    792       9.6889      1.84410
    793       9.6889      1.84409
    794       9.6889      1.84406
    795       9.6890      1.84401
    796       9.6890      1.84398
    797       9.6890      1.84393
    798       9.6890      1.84389
    799       9.6890      1.84385
    800       9.6890      1.84379
    801       9.6985      1.79920
    802       9.6985      1.79914
    803       9.6985      1.79908
    804       9.6986      1.79901
    805       9.6986      1.79879
    806       9.6986      1.79876
    807       9.6986      1.79868
    808       9.6986      1.79866
    809       9.6986      1.79862
    810       9.6986      1.79859
    811       9.6986      1.79855
    812       9.6987      1.79843
    813       9.6987      1.79831
    814       9.6987      1.79825
    815       9.6987      1.79819
    816       9.6987      1.79815
    817       9.6987      1.79810
    818       9.6987      1.79808
    819       9.6988      1.79803
    820       9.6988      1.79797
    821       9.6988      1.79774
    822       9.6988      1.79772
    823       9.6988      1.79763
    824       9.6989      1.79755
    825       9.8956      0.34273
    826       9.8957      0.34264
    827       9.8957      0.34252
    828       9.8957      0.34242
    829       9.8957      0.34231
    830       9.8957      0.34208
    831       9.8958      0.34200
    832       9.8958      0.34166
    833       9.8958      0.34151
    834       9.8959      0.34128
    835       9.8959      0.34104
    836       9.8959      0.34089
    837       9.8960      0.34078
    838       9.8960      0.34069
    839       9.8960      0.34043
    840       9.8960      0.34037
    841       9.9003      0.31469
    842       9.9003      0.31463
    843       9.9003      0.31447
    844       9.9003      0.31440
    845       9.9003      0.31429
    846       9.9003      0.31425
    847       9.9003      0.31422
    848       9.9003      0.31417
    849       9.9004      0.31409
    850       9.9004      0.31403
    851       9.9004      0.31395
    852       9.9004      0.31388
    853       9.9004      0.31382
    854       9.9004      0.31378
    855       9.9004      0.31372
    856       9.9004      0.31364
    857       9.9004      0.31356
    858       9.9005      0.31352
    859       9.9005      0.31351
    860       9.9005      0.31347
    861       9.9005      0.31331
    862       9.9005      0.31330
    863       9.9005      0.31311
    864       9.9005      0.31305
    865      10.1661     -0.03031
    866      10.1661     -0.03031
    867      10.1662     -0.03030
    868      10.1662     -0.03030
    869      10.1662     -0.03029
    870      10.1662     -0.03029
    871      10.1662     -0.03029
    872      10.1662     -0.03028
    873      10.1662     -0.03028
    874      10.1662     -0.03028
    875      10.1662     -0.03028
    876      10.1662     -0.03028
    877      10.1662     -0.03027
    878      10.1662     -0.03027
    879      10.1662     -0.03026
    880      10.1663     -0.03026
    881      10.1663     -0.03026
    882      10.1663     -0.03026
    883      10.1663     -0.03025
    884      10.1663     -0.03025
    885      10.1663     -0.03025
    886      10.1663     -0.03024
    887      10.1663     -0.03024
    888      10.1663     -0.03024
    889      11.0147     -0.00000
    890      11.0148     -0.00000
    891      11.0148     -0.00000
    892      11.0148     -0.00000
    893      11.0149     -0.00000
    894      11.0149     -0.00000
    895      11.0149     -0.00000
    896      11.0149     -0.00000
    897      11.3242     -0.00000
    898      11.3242     -0.00000
    899      11.3242     -0.00000
    900      11.3242     -0.00000
    901      11.3242     -0.00000
    902      11.3242     -0.00000
    903      11.3242     -0.00000
    904      11.3242     -0.00000
    905      11.3243     -0.00000
    906      11.3243     -0.00000
    907      11.3243     -0.00000
    908      11.3243     -0.00000
    909      11.3243     -0.00000
    910      11.3243     -0.00000
    911      11.3244     -0.00000
    912      11.3244     -0.00000
    913      11.3244     -0.00000
    914      11.3244     -0.00000
    915      11.3244     -0.00000
    916      11.3244     -0.00000
    917      11.3244     -0.00000
    918      11.3244     -0.00000
    919      11.3245     -0.00000
    920      11.3245     -0.00000
    921      11.5798     -0.00000
    922      11.5798     -0.00000
    923      11.5799     -0.00000
    924      11.5799     -0.00000
    925      11.5799     -0.00000
    926      11.5799     -0.00000
    927      11.5799     -0.00000
    928      11.5799     -0.00000
    929      11.5799     -0.00000
    930      11.5799     -0.00000
    931      11.5799     -0.00000
    932      11.5799     -0.00000
    933      11.5799     -0.00000
    934      11.5799     -0.00000
    935      11.5799     -0.00000
    936      11.5799     -0.00000
    937      11.5800     -0.00000
    938      11.5800     -0.00000
    939      11.5800     -0.00000
    940      11.5800     -0.00000
    941      11.5800     -0.00000
    942      11.5800     -0.00000
    943      11.5800     -0.00000
    944      11.5800     -0.00000
    945      11.6107     -0.00000
    946      11.6107     -0.00000
    947      11.6107     -0.00000
    948      11.6107     -0.00000
    949      11.6107     -0.00000
    950      11.6108     -0.00000
    951      11.6108     -0.00000
    952      11.6108     -0.00000
    953      11.9111     -0.00000
    954      11.9111     -0.00000
    955      11.9111     -0.00000
    956      11.9111     -0.00000
    957      11.9112     -0.00000
    958      11.9112     -0.00000
    959      11.9112     -0.00000
    960      11.9112     -0.00000
    961      11.9112     -0.00000
    962      11.9112     -0.00000
    963      11.9112     -0.00000
    964      11.9112     -0.00000
    965      11.9113     -0.00000
    966      11.9113     -0.00000
    967      11.9113     -0.00000
    968      11.9113     -0.00000
    969      11.9113     -0.00000
    970      11.9113     -0.00000
    971      11.9113     -0.00000
    972      11.9114     -0.00000
    973      11.9114     -0.00000
    974      11.9114     -0.00000
    975      11.9115     -0.00000
    976      11.9117     -0.00000
    977      12.1243     -0.00000
    978      12.1246     -0.00000
    979      12.1249     -0.00000
    980      12.1254     -0.00000
    981      12.1262     -0.00000
    982      12.1270     -0.00000
    983      12.1279     -0.00000
    984      12.1284     -0.00000
    985      12.1287     -0.00000
    986      12.1310     -0.00000
    987      12.1335     -0.00000
    988      12.1395     -0.00000
    989      12.1454     -0.00000
    990      12.1536     -0.00000
    991      12.1600     -0.00000
    992      12.1675     -0.00000
    993      12.2074     -0.00000
    994      12.2083     -0.00000
    995      12.2098     -0.00000
    996      12.2101     -0.00000
    997      12.2106     -0.00000
    998      12.2118     -0.00000
    999      12.2125     -0.00000
   1000      12.2131     -0.00000


--------------------------------------------------------------------------------------------------------


 soft charge-density along one line, spin component            1
         0         1         2         3         4         5         6         7         8         9
 total charge-density along one line
 
 pseudopotential strength for first ion, spin component:            1
-18.201  10.644  -0.000  -0.000  -0.000   0.000   0.000   0.000
 10.644   3.232   0.000   0.000   0.000  -0.000  -0.000  -0.000
 -0.000   0.000 -27.368  -0.000  -0.000   7.440   0.000   0.000
 -0.000   0.000  -0.000 -27.368   0.000   0.000   7.440  -0.000
 -0.000   0.000  -0.000   0.000 -27.368   0.000  -0.000   7.440
  0.000  -0.000   7.440   0.000   0.000   5.829  -0.000  -0.000
  0.000  -0.000   0.000   7.440  -0.000  -0.000   5.829   0.000
  0.000  -0.000   0.000  -0.000   7.440  -0.000   0.000   5.829
 -0.000   0.000  -0.000  -0.000  -0.000   0.000   0.000   0.000
 -0.000   0.000  -0.000  -0.000  -0.000   0.000   0.000   0.000
  0.000  -0.000   0.000  -0.000   0.000  -0.000   0.000  -0.000
  0.000  -0.000  -0.000  -0.000  -0.000   0.000   0.000   0.000
 -0.000   0.000   0.000  -0.000  -0.000  -0.000   0.000   0.000
 -0.000   0.000  -0.000  -0.000  -0.000   0.000   0.000   0.000
 -0.000   0.000  -0.000  -0.000  -0.000   0.000   0.000   0.000
  0.000  -0.000   0.000  -0.000   0.000  -0.000   0.000  -0.000
  0.000  -0.000  -0.000  -0.000  -0.000   0.000   0.000   0.000
 -0.000   0.000   0.000  -0.000  -0.000  -0.000   0.000   0.000
 total augmentation occupancy for first ion, spin component:            1
  1.995  -0.051  -0.000  -0.000  -0.000   0.000  -0.000   0.000   0.000   0.000   0.000  -0.000   0.000  -0.000  -0.000  -0.000
 -0.051   1.720   0.000   0.000   0.000  -0.000  -0.000   0.000  -0.000  -0.000  -0.000   0.000  -0.000   0.000   0.000   0.000
 -0.000   0.000   1.986  -0.000  -0.000  -0.045   0.000   0.000   0.000   0.000  -0.000   0.000   0.000   0.000   0.000   0.000
 -0.000   0.000  -0.000   1.986   0.000   0.000  -0.045  -0.000   0.000  -0.000   0.000   0.000  -0.000  -0.000   0.000  -0.000
 -0.000   0.000  -0.000   0.000   1.986   0.000  -0.000  -0.045  -0.000  -0.000  -0.000   0.000  -0.000  -0.000  -0.000  -0.000
  0.000  -0.000  -0.045   0.000   0.000   0.126  -0.000  -0.000  -0.000   0.000  -0.000   0.000   0.000   0.000   0.000  -0.000
 -0.000  -0.000   0.000  -0.045  -0.000  -0.000   0.126   0.000   0.000   0.000   0.000   0.000   0.000   0.000  -0.000  -0.000
  0.000   0.000   0.000  -0.000  -0.045  -0.000   0.000   0.126  -0.000   0.000  -0.000  -0.000  -0.000   0.000  -0.000   0.000
  0.000  -0.000  -0.000  -0.000  -0.000   0.000  -0.000  -0.000   4.042   0.000   0.000  -0.000   0.000  -2.069  -0.000  -0.000
  0.000  -0.000   0.000  -0.000  -0.000   0.000  -0.000  -0.000   0.000   4.042  -0.000  -0.000   0.000  -0.000  -2.069   0.000
  0.000  -0.000   0.000   0.000   0.000  -0.000   0.000  -0.000   0.000  -0.000   4.238   0.000   0.000  -0.000   0.000  -2.387
 -0.000   0.000   0.000  -0.000   0.000   0.000   0.000   0.000  -0.000  -0.000   0.000   4.042   0.000   0.000   0.000  -0.000
  0.000  -0.000   0.000   0.000   0.000   0.000  -0.000   0.000   0.000   0.000   0.000   0.000   4.238  -0.000  -0.000  -0.000
 -0.000   0.000   0.000   0.000   0.000   0.000  -0.000   0.000  -2.069  -0.000  -0.000   0.000  -0.000   1.108   0.000   0.000
 -0.000   0.000   0.000   0.000   0.000  -0.000   0.000  -0.000  -0.000  -2.069   0.000   0.000  -0.000   0.000   1.108  -0.000
 -0.000   0.000   0.000  -0.000  -0.000   0.000  -0.000   0.000  -0.000   0.000  -2.387  -0.000  -0.000   0.000  -0.000   1.371
  0.000  -0.000  -0.000   0.000  -0.000  -0.000  -0.000   0.000   0.000   0.000  -0.000  -2.069  -0.000  -0.000  -0.000   0.000
 -0.000   0.000  -0.000   0.000  -0.000   0.000   0.000   0.000  -0.000  -0.000  -0.000  -0.000  -2.387   0.000   0.000   0.000


------------------------ aborting loop because EDIFF is reached ----------------------------------------


    CHARGE:  cpu time      0.4669: real time      0.3319
    FORLOC:  cpu time      0.0205: real time      0.0032
    FORNL :  cpu time      1.0039: real time      0.7812
    STRESS:  cpu time      2.5333: real time      1.9782
    FORCOR:  cpu time      0.0361: real time      0.0072
    FORHAR:  cpu time      0.0022: real time      0.0020
    MIXING:  cpu time      0.0459: real time      0.0044
    OFIELD:  cpu time      0.0123: real time      0.0008

  FORCE on cell =-STRESS in cart. coord.  units (eV):
  Direction    XX          YY          ZZ          XY          YZ          ZX
  --------------------------------------------------------------------------------------
  Alpha Z 11701.71006 11701.71006 11701.71006
  Ewald  -63190.40972-63190.41035-63190.40947     0.00033     0.00057    -0.00058
  Hartree 16683.44592 16683.44696 16683.44551     0.00002     0.00003    -0.00004
  E(xc)   -9295.29198 -9295.29194 -9295.29199    -0.00000    -0.00000     0.00000
  Local   15170.00628 15170.00335 15170.00742    -0.00013    -0.00022     0.00023
  n-local -4724.32948 -4720.73120 -4719.17538    -0.00002    -0.00004     0.00004
  augment  9434.12944  9434.13029  9434.12910    -0.00007    -0.00011     0.00012
  Kinetic 24220.71295 24223.12672 24220.21463     0.00003     0.00007    -0.00007
  Fock        0.00000     0.00000     0.00000     0.00000     0.00000     0.00000
  -------------------------------------------------------------------------------------
  Total       3.52908     3.52908     3.52908    -0.00000    -0.00000     0.00000
  in kB       3.30522     3.30522     3.30522    -0.00000    -0.00000     0.00000
  external pressure =        3.31 kB  Pullay stress =        0.00 kB


 VOLUME and BASIS-vectors are now :
 -----------------------------------------------------------------------------
  energy-cutoff  :      350.00
  volume of cell :     1710.69
      direct lattice vectors                 reciprocal lattice vectors
    11.959805657 -0.000000045  0.000000088     0.083613399  0.000000000 -0.000000001
    -0.000000055 11.959806389 -0.000000096     0.000000000  0.083613394  0.000000001
     0.000000093 -0.000000082 11.959805372    -0.000000001  0.000000001  0.083613401

  length of vectors
    11.959805657 11.959806389 11.959805372     0.083613399  0.083613394  0.083613401


 FORCES acting on ions
    electron-ion (+dipol)            ewald-force                    non-local-force                 convergence-correction
 -----------------------------------------------------------------------------------------------
   -.253E-02 -.303E-02 -.122E-02   -.789E-04 -.406E-02 0.127E-02   0.276E-19 0.476E-21 0.956E-21   -.157E-04 0.326E-03 -.126E-03
   -.199E-02 0.741E-03 -.211E-02   0.199E-02 0.965E-03 -.234E-03   0.512E-20 0.394E-20 -.103E-19   -.157E-03 0.141E-05 0.125E-04
   -.103E-03 0.308E-02 0.280E-02   -.165E-02 0.376E-02 0.159E-02   0.759E-20 -.371E-21 0.180E-20   0.533E-04 -.973E-04 -.234E-04
   -.169E-02 -.280E-02 -.168E-02   -.358E-02 -.413E-03 0.497E-03   -.153E-19 0.112E-19 0.752E-20   0.937E-05 0.132E-03 0.625E-04
   0.440E-02 0.230E-03 0.202E-02   0.189E-02 0.412E-02 0.186E-02   -.224E-19 -.104E-19 0.192E-19   0.892E-04 -.285E-03 0.631E-04
   -.536E-03 -.270E-02 -.100E-03   -.113E-02 -.333E-02 -.118E-02   0.219E-20 0.228E-19 -.660E-20   -.471E-04 0.208E-03 0.700E-04
   0.108E-02 0.191E-02 0.201E-02   0.112E-03 0.301E-02 0.395E-02   -.217E-20 -.683E-20 -.279E-19   0.113E-03 -.247E-03 -.756E-04
   0.123E-02 0.419E-02 -.235E-03   -.102E-02 0.245E-02 -.331E-03   0.157E-20 -.950E-20 0.551E-20   0.121E-03 -.193E-04 -.820E-04
   0.240E-02 0.471E-03 -.218E-02   0.252E-02 0.391E-02 -.406E-02   -.787E-20 0.334E-20 -.879E-20   -.114E-03 -.309E-03 0.181E-03
   -.224E-02 0.264E-02 0.899E-03   -.295E-02 -.962E-03 0.255E-02   -.415E-21 -.199E-19 0.290E-19   -.154E-04 -.129E-03 0.459E-04
   0.129E-02 -.344E-02 0.708E-03   0.157E-02 -.406E-02 -.803E-03   -.128E-19 -.498E-20 0.123E-19   -.106E-03 0.870E-04 0.108E-03
   -.354E-02 0.227E-02 -.952E-03   -.438E-02 -.397E-02 0.261E-02   0.983E-20 -.424E-20 0.667E-20   0.744E-04 0.285E-03 -.100E-03
   -.168E-02 -.315E-03 0.186E-02   -.313E-02 -.169E-03 0.181E-02   -.115E-19 0.212E-19 -.151E-19   0.293E-04 -.161E-03 0.815E-04
   -.273E-02 -.106E-02 -.479E-03   -.372E-02 0.133E-02 -.118E-02   -.278E-19 0.184E-19 0.206E-19   0.481E-04 -.211E-03 -.125E-03
   0.278E-02 0.407E-03 0.565E-02   0.199E-02 0.228E-02 0.512E-02   0.790E-20 0.934E-20 -.169E-20   -.804E-04 -.290E-03 -.689E-04
   -.278E-02 0.119E-02 -.416E-02   -.198E-02 0.519E-02 -.287E-02   -.351E-20 -.103E-19 0.443E-20   0.378E-04 -.371E-03 0.486E-04
   0.129E-03 0.138E-02 0.406E-03   0.130E-02 0.104E-02 0.496E-03   0.179E-19 -.909E-20 0.163E-19   -.524E-04 -.504E-04 -.404E-04
   0.111E-02 0.110E-02 0.401E-03   0.269E-02 -.118E-02 0.993E-03   0.138E-19 0.585E-20 0.237E-19   -.711E-04 0.257E-03 0.797E-04
   0.158E-02 -.193E-02 0.986E-04   0.398E-03 -.361E-02 -.209E-02   0.801E-20 0.225E-20 0.455E-20   -.236E-04 0.297E-03 0.127E-03
   0.230E-03 -.240E-02 -.466E-02   0.178E-02 -.440E-02 -.164E-02   -.186E-19 0.130E-19 -.741E-20   0.333E-04 0.302E-03 0.239E-04
   -.139E-02 0.452E-02 -.988E-03   -.323E-02 0.659E-02 -.185E-02   -.941E-20 -.196E-20 0.339E-20   0.159E-03 -.361E-03 0.432E-04
   0.224E-02 0.785E-03 -.355E-02   0.547E-02 0.150E-02 -.612E-02   0.204E-19 -.100E-19 -.215E-19   -.142E-03 -.210E-03 0.162E-03
   -.995E-04 -.161E-02 0.205E-03   0.272E-03 -.137E-02 0.211E-02   0.118E-19 -.447E-20 0.466E-20   -.933E-04 -.281E-05 -.167E-03
   -.397E-03 -.823E-03 0.409E-03   0.999E-03 -.534E-02 0.203E-02   -.307E-20 -.138E-20 -.433E-20   0.832E-04 0.282E-03 -.658E-04
   -.117E-02 -.172E-03 0.166E-02   -.232E-02 -.241E-02 0.381E-03   -.547E-20 -.701E-21 0.106E-19   -.336E-04 0.290E-03 0.154E-04
   -.366E-02 -.139E-03 -.477E-02   -.508E-02 -.303E-02 -.431E-02   -.118E-19 0.418E-20 -.969E-20   0.608E-04 0.235E-03 0.106E-03
   0.407E-02 0.127E-02 0.240E-02   0.491E-02 -.422E-02 0.455E-02   0.129E-19 0.188E-19 0.654E-20   -.968E-04 0.266E-03 -.109E-03
   0.204E-02 0.476E-03 0.383E-02   0.521E-02 0.134E-02 0.510E-02   0.289E-19 0.323E-20 0.172E-21   -.127E-03 -.221E-03 -.110E-03
   0.384E-02 -.993E-03 0.323E-02   0.328E-02 -.121E-02 0.255E-02   -.198E-19 -.476E-20 -.168E-19   0.479E-04 0.154E-03 0.539E-04
   0.531E-03 0.174E-02 -.859E-03   0.792E-03 0.179E-02 0.524E-03   -.125E-19 0.431E-20 0.551E-20   0.170E-04 0.359E-05 -.484E-05
   -.191E-02 0.363E-02 -.316E-02   -.127E-02 0.439E-02 -.318E-02   -.215E-19 0.770E-20 0.106E-20   0.113E-03 -.316E-03 0.157E-03
   -.179E-02 0.175E-02 -.475E-02   -.261E-02 0.129E-02 -.232E-02   -.163E-19 -.275E-20 -.508E-20   -.344E-04 -.184E-03 -.102E-03
   -.440E-02 0.185E-02 -.494E-02   -.621E-02 -.214E-03 -.344E-02   0.210E-20 -.189E-20 -.135E-19   0.809E-04 0.231E-03 0.612E-04
   0.146E-03 0.225E-02 -.378E-02   0.142E-02 0.300E-02 -.189E-02   0.104E-19 0.810E-20 -.169E-19   0.859E-04 -.262E-03 -.123E-03
   -.320E-03 -.416E-02 0.300E-02   0.521E-03 -.272E-02 0.499E-02   0.220E-19 -.135E-20 -.225E-21   -.332E-04 0.270E-04 -.196E-03
   0.665E-02 -.769E-03 0.964E-03   0.439E-02 -.155E-02 -.185E-02   0.376E-19 -.124E-20 0.937E-20   -.725E-04 0.230E-03 -.677E-04
   0.180E-02 -.635E-03 -.219E-02   0.219E-02 -.118E-02 -.625E-03   0.621E-20 -.514E-20 -.900E-20   -.126E-03 -.153E-05 0.368E-04
   -.582E-03 -.259E-02 0.650E-04   0.593E-03 -.634E-02 0.205E-02   -.165E-20 0.188E-19 -.145E-19   0.651E-05 0.372E-03 -.311E-04
   -.136E-02 0.106E-02 -.400E-02   -.181E-02 0.388E-02 -.292E-03   -.113E-19 0.633E-20 -.474E-20   -.143E-04 -.267E-03 -.146E-03
   0.589E-03 -.326E-02 0.175E-02   -.530E-03 -.358E-02 0.665E-03   0.129E-19 -.392E-20 0.217E-19   0.413E-04 0.963E-04 0.293E-05
   0.214E-02 -.454E-03 0.316E-03   -.139E-03 -.267E-02 -.641E-03   0.206E-19 0.112E-19 0.169E-20   0.328E-04 0.310E-03 0.291E-04
   0.718E-05 -.311E-02 0.362E-02   -.718E-03 -.132E-02 0.338E-02   -.270E-20 -.185E-20 -.118E-19   0.928E-04 0.188E-04 -.142E-03
   0.650E-03 0.136E-02 0.188E-02   0.399E-03 0.178E-02 0.113E-02   -.304E-20 -.514E-20 -.535E-20   -.169E-04 -.317E-04 0.105E-04
   -.293E-02 -.212E-02 -.204E-02   -.345E-02 -.165E-02 -.253E-02   -.251E-20 0.296E-20 0.245E-21   -.446E-05 0.186E-03 -.581E-04
   -.195E-02 -.114E-02 -.264E-03   0.483E-03 -.251E-02 0.188E-02   -.155E-20 -.662E-20 0.118E-19   0.912E-04 0.245E-03 -.502E-04
   -.171E-03 0.259E-02 0.460E-02   -.774E-04 0.310E-02 0.409E-02   0.393E-20 -.175E-19 0.165E-19   -.659E-04 -.253E-03 -.777E-04
   0.787E-03 -.199E-03 -.381E-02   0.174E-02 0.196E-02 -.346E-02   0.384E-20 -.143E-19 0.116E-19   0.919E-04 -.203E-03 -.777E-04
   -.191E-02 0.475E-03 0.341E-02   -.176E-02 0.293E-02 0.155E-02   -.338E-19 0.847E-21 0.714E-20   0.102E-04 -.247E-03 0.958E-04
   -.271E-02 -.339E-03 -.996E-03   -.372E-02 -.381E-02 0.204E-02   0.121E-19 0.302E-20 0.101E-19   -.943E-05 0.295E-03 0.433E-04
   -.260E-03 -.237E-02 0.361E-03   0.147E-02 -.503E-02 0.177E-02   0.153E-19 0.556E-20 -.191E-19   -.124E-03 0.351E-03 -.175E-04
   -.857E-03 0.696E-03 -.133E-02   0.386E-02 0.391E-02 -.700E-02   0.192E-19 -.418E-20 0.263E-20   -.130E-03 -.248E-03 0.205E-03
   0.973E-03 0.236E-02 -.557E-02   0.352E-02 0.527E-02 -.443E-02   0.171E-19 -.842E-20 0.863E-20   -.160E-03 -.351E-03 0.671E-04
   -.329E-02 -.355E-03 -.354E-02   -.303E-02 -.345E-02 -.542E-02   -.814E-20 -.159E-21 0.908E-20   -.249E-04 0.265E-03 -.146E-04
   0.128E-02 -.117E-02 0.146E-02   -.299E-03 -.441E-02 -.466E-03   -.744E-21 0.261E-20 0.249E-19   -.690E-04 0.309E-03 0.952E-04
   0.903E-03 0.218E-02 0.280E-02   -.318E-02 0.276E-02 0.221E-02   -.200E-19 0.127E-19 0.137E-19   0.157E-03 -.296E-04 -.677E-05
   -.623E-03 -.243E-02 -.257E-02   0.221E-02 -.382E-02 -.324E-02   0.876E-20 0.181E-19 -.942E-20   -.918E-04 0.213E-03 0.123E-03
   -.450E-02 -.159E-02 -.345E-02   -.871E-03 -.507E-02 -.167E-02   0.158E-19 0.113E-19 -.152E-19   -.882E-04 0.333E-03 -.931E-04
   -.167E-02 -.167E-02 0.437E-02   -.131E-02 -.166E-02 0.217E-02   -.292E-19 -.102E-19 -.474E-20   0.397E-05 0.163E-03 0.882E-04
   0.298E-02 0.588E-02 -.183E-02   0.163E-02 0.588E-02 -.282E-02   -.192E-21 -.318E-21 0.158E-19   -.371E-04 -.340E-03 0.617E-04
   0.365E-03 0.103E-02 -.273E-02   0.105E-02 0.193E-02 -.592E-03   -.303E-19 0.237E-20 -.105E-19   0.426E-04 -.595E-04 -.254E-04
   -.121E-02 0.137E-02 -.130E-02   -.270E-02 0.222E-02 0.839E-03   -.155E-19 -.625E-20 0.142E-19   0.274E-04 -.228E-03 -.170E-03
   -.498E-02 -.185E-02 -.118E-03   -.703E-02 -.208E-02 0.337E-02   -.303E-19 -.104E-19 0.175E-20   0.961E-04 0.213E-03 -.866E-04
   -.170E-02 0.157E-02 -.213E-02   -.100E-03 0.132E-02 -.207E-02   -.198E-19 -.177E-19 -.646E-20   0.755E-04 -.495E-04 0.143E-03
   -.195E-03 0.364E-02 0.404E-02   -.658E-03 0.307E-02 0.268E-02   -.573E-20 -.132E-19 0.593E-20   -.436E-04 -.881E-04 -.385E-04
   -.205E-02 -.357E-02 -.374E-03   -.156E-02 -.405E-02 0.491E-03   0.759E-20 -.265E-22 -.254E-20   0.390E-04 0.899E-04 0.524E-04
   0.522E-03 -.206E-03 0.567E-03   -.454E-04 0.489E-03 0.133E-02   0.103E-19 -.699E-20 -.204E-19   0.337E-04 -.110E-04 -.113E-03
   0.254E-02 0.168E-02 -.647E-03   0.848E-03 0.154E-02 -.171E-02   0.108E-19 0.971E-20 -.167E-19   0.191E-04 0.104E-04 -.505E-04
   0.392E-02 -.309E-02 -.133E-02   0.124E-02 -.623E-02 -.305E-02   -.773E-20 0.262E-20 -.365E-20   0.155E-04 0.354E-03 -.351E-04
   -.139E-02 0.593E-03 -.101E-02   0.899E-03 0.892E-03 -.102E-03   0.102E-19 -.150E-19 -.307E-20   -.121E-03 0.243E-05 -.106E-03
   -.146E-02 -.189E-02 -.928E-03   -.187E-02 -.134E-02 -.624E-03   -.321E-19 0.238E-20 -.134E-19   0.106E-03 0.490E-04 0.833E-04
   0.309E-02 -.431E-02 0.178E-03   -.325E-03 -.678E-02 -.115E-02   -.905E-20 0.762E-20 0.102E-19   0.883E-04 0.347E-03 -.674E-04
   -.521E-02 0.357E-02 -.124E-02   -.272E-02 0.385E-02 -.253E-02   -.472E-20 -.128E-19 -.733E-20   0.467E-04 -.907E-04 0.115E-03
   -.137E-02 -.165E-02 -.420E-02   0.658E-03 -.251E-02 -.881E-03   0.121E-19 0.144E-19 0.424E-21   -.325E-04 0.282E-03 0.101E-04
   -.845E-03 -.319E-02 0.237E-03   0.310E-03 -.436E-02 0.102E-02   -.292E-19 -.929E-20 -.466E-20   0.688E-04 0.316E-03 0.688E-04
   -.669E-03 0.236E-02 0.214E-02   0.171E-02 0.549E-02 0.334E-02   -.256E-21 -.134E-19 0.190E-19   -.126E-03 -.333E-03 -.180E-03
   -.179E-02 0.962E-03 -.151E-02   -.335E-02 0.529E-02 0.743E-03   0.643E-20 -.746E-20 -.635E-21   0.292E-05 -.298E-03 0.653E-04
   0.717E-02 -.142E-02 0.330E-02   0.670E-02 -.125E-02 0.456E-02   0.237E-19 -.125E-19 -.518E-20   -.105E-03 0.218E-03 -.921E-04
   -.112E-02 0.123E-02 0.356E-02   -.259E-02 -.122E-02 0.172E-02   -.297E-19 0.529E-21 -.185E-19   0.233E-04 0.245E-03 0.740E-04
   0.124E-03 0.139E-02 0.383E-02   -.471E-03 0.397E-02 0.408E-02   -.413E-20 -.175E-20 -.233E-19   -.868E-04 -.261E-03 -.589E-04
   0.416E-02 0.257E-02 -.293E-02   0.107E-02 0.202E-02 -.472E-02   -.102E-19 0.937E-20 -.688E-21   -.459E-04 -.460E-04 0.197E-03
   0.219E-02 -.225E-02 0.729E-03   0.191E-02 -.160E-02 -.223E-02   0.913E-20 0.265E-22 -.190E-19   -.385E-04 0.460E-04 0.139E-03
   0.155E-02 0.123E-02 -.474E-02   0.441E-02 -.156E-02 -.372E-02   0.364E-20 0.109E-19 0.549E-21   -.104E-03 0.245E-03 0.802E-04
   -.300E-02 0.821E-03 0.523E-02   -.322E-02 0.250E-02 0.377E-02   0.863E-20 0.858E-20 -.116E-20   0.618E-04 -.309E-03 -.502E-04
   -.400E-02 0.100E-02 -.384E-02   -.385E-02 0.424E-02 -.320E-02   -.120E-19 -.164E-19 0.389E-20   0.621E-04 -.327E-03 0.130E-03
   -.223E-02 0.314E-02 -.972E-03   -.713E-03 0.148E-02 0.152E-02   0.102E-19 -.166E-19 0.168E-19   -.190E-04 -.272E-04 -.138E-03
   -.125E-02 0.139E-03 -.205E-02   0.205E-02 -.159E-02 -.335E-02   0.366E-20 0.132E-19 0.302E-20   0.526E-04 0.205E-03 -.406E-04
   -.685E-03 0.120E-02 -.590E-03   0.320E-02 0.353E-02 0.259E-03   0.131E-19 -.157E-19 -.384E-21   -.102E-03 -.260E-03 0.979E-04
   0.279E-03 0.150E-02 0.161E-02   -.113E-02 -.115E-02 -.362E-03   -.181E-19 0.103E-19 -.203E-19   0.177E-04 0.213E-03 -.936E-04
   -.422E-02 -.327E-03 -.252E-02   -.486E-02 0.206E-02 -.710E-02   -.752E-20 -.174E-19 0.105E-19   0.624E-04 -.234E-03 0.183E-03
   0.174E-02 0.314E-02 0.282E-02   -.711E-03 0.573E-02 0.346E-02   -.817E-20 0.265E-21 -.105E-19   0.126E-03 -.347E-03 -.156E-03
   -.796E-03 -.582E-03 0.185E-02   0.683E-03 0.474E-02 0.288E-02   0.111E-19 0.130E-19 -.156E-19   0.121E-03 -.280E-03 -.599E-04
   0.159E-03 -.145E-02 0.472E-02   -.875E-04 -.222E-02 0.376E-02   0.139E-19 0.529E-20 -.355E-20   -.819E-04 0.251E-03 -.556E-04
   0.226E-02 0.723E-03 -.205E-02   0.305E-02 0.176E-02 0.163E-02   0.973E-20 -.134E-19 0.926E-21   -.991E-04 -.232E-03 -.192E-03
   -.303E-02 0.110E-02 0.105E-02   -.522E-02 0.208E-02 0.490E-02   -.572E-21 -.724E-20 -.856E-20   0.795E-04 -.215E-03 -.108E-03
   0.896E-03 -.386E-02 0.509E-02   0.341E-03 -.423E-02 0.162E-02   -.320E-20 0.310E-20 -.134E-19   -.671E-05 0.340E-03 -.116E-04
   0.280E-02 0.137E-02 0.145E-02   0.146E-02 0.443E-03 0.309E-02   -.881E-20 0.974E-20 -.148E-20   0.983E-04 -.152E-03 0.468E-04
   0.255E-02 -.273E-03 0.337E-02   0.359E-02 -.332E-02 0.332E-02   -.469E-20 0.334E-20 -.597E-20   0.572E-04 0.282E-03 0.377E-04
   -.198E-02 -.283E-02 -.212E-02   0.225E-02 -.353E-02 -.574E-02   0.482E-21 -.100E-19 0.330E-20   0.587E-04 0.261E-03 0.488E-05
   0.191E-02 0.116E-02 0.410E-03   0.121E-02 0.272E-02 -.250E-02   -.103E-19 0.109E-19 0.868E-20   0.127E-03 -.228E-03 0.908E-04
   0.122E-02 0.895E-03 0.942E-03   0.127E-02 0.199E-02 0.244E-02   0.131E-19 0.146E-19 -.365E-20   -.607E-04 -.282E-03 -.629E-04
   0.291E-02 0.414E-02 -.197E-02   0.174E-02 0.448E-02 -.416E-02   0.104E-19 -.582E-21 -.160E-20   -.762E-04 -.872E-04 0.169E-03
   0.206E-03 0.160E-02 0.268E-02   -.595E-03 0.427E-02 0.228E-02   -.212E-20 -.582E-21 -.149E-19   0.375E-04 -.354E-03 -.128E-03
   0.510E-02 -.218E-02 -.167E-02   0.405E-02 -.440E-02 -.121E-02   -.152E-19 -.572E-20 0.449E-20   0.782E-04 0.231E-03 0.525E-04
   -.117E-02 -.308E-02 0.105E-02   -.164E-02 -.314E-02 -.807E-03   -.135E-19 -.953E-20 0.106E-19   0.126E-03 0.292E-04 0.242E-04
   -.102E-02 0.108E-02 0.108E-02   0.440E-05 0.327E-02 0.149E-02   -.435E-19 0.265E-20 -.107E-19   0.794E-04 -.301E-03 -.441E-04
   -.280E-03 -.395E-02 0.235E-02   0.407E-04 -.303E-02 0.111E-02   0.533E-20 -.381E-20 0.503E-20   -.706E-04 0.876E-04 -.146E-04
   0.390E-02 -.380E-03 0.103E-02   0.253E-02 -.195E-02 -.259E-03   0.213E-19 0.175E-20 0.142E-19   -.659E-04 0.194E-03 -.111E-03
   -.188E-02 -.107E-02 0.104E-02   -.381E-03 -.414E-02 0.166E-02   0.435E-20 0.114E-19 -.625E-20   0.238E-04 0.328E-03 0.371E-04
   0.172E-02 -.310E-02 -.448E-03   0.806E-03 -.336E-02 -.818E-03   0.254E-20 -.662E-21 0.233E-20   -.268E-04 0.317E-04 0.391E-04
   -.307E-04 -.278E-02 0.401E-02   -.151E-02 -.488E-02 0.326E-02   0.942E-20 -.413E-20 0.130E-19   -.608E-04 0.263E-03 -.744E-04
   -.142E-02 -.209E-02 0.188E-02   -.360E-02 -.251E-02 -.157E-02   -.240E-19 -.725E-20 -.846E-20   0.386E-04 0.226E-03 -.486E-04
   -.103E-04 0.289E-02 0.977E-03   -.120E-02 0.535E-02 -.451E-02   0.231E-20 -.159E-19 0.120E-19   -.488E-04 -.284E-03 0.158E-03
   0.538E-02 0.158E-02 -.562E-03   0.227E-02 0.396E-02 -.393E-02   -.198E-19 -.451E-20 0.186E-19   0.116E-03 -.269E-03 0.136E-03
   0.551E-02 -.697E-03 0.531E-02   0.609E-02 0.405E-02 0.529E-02   0.261E-19 0.175E-20 0.214E-19   -.135E-03 -.264E-03 -.937E-04
   -.406E-03 -.334E-02 -.933E-03   0.161E-02 -.186E-02 -.105E-02   -.225E-20 0.577E-20 0.188E-19   -.612E-04 0.141E-03 0.967E-04
   -.474E-02 -.153E-02 0.229E-02   -.627E-02 0.397E-02 0.472E-02   -.755E-20 0.614E-20 0.174E-19   0.101E-03 -.283E-03 -.947E-04
   -.496E-02 -.137E-02 -.355E-02   -.568E-02 0.119E-02 -.530E-02   -.219E-20 0.471E-20 0.345E-20   0.822E-04 -.232E-03 0.138E-03
   -.244E-02 -.518E-03 -.239E-02   -.141E-02 -.656E-03 -.437E-03   -.674E-20 -.238E-19 0.167E-20   0.272E-04 -.411E-05 0.218E-04
   0.165E-03 -.146E-02 -.292E-03   -.628E-03 -.323E-02 -.400E-03   -.363E-20 0.476E-20 -.127E-20   -.666E-04 0.281E-03 0.268E-04
   -.154E-02 -.196E-03 -.130E-02   -.283E-03 -.428E-03 -.391E-03   0.205E-19 -.634E-20 -.120E-19   -.408E-04 0.501E-04 -.119E-04
   -.152E-02 0.404E-02 0.263E-02   -.429E-03 0.531E-02 0.519E-02   0.189E-19 0.206E-20 0.754E-20   -.369E-04 -.326E-03 -.208E-03
   0.355E-02 0.160E-02 -.207E-02   0.261E-02 0.319E-02 -.493E-02   0.299E-19 0.114E-19 0.371E-20   -.610E-04 -.297E-03 0.209E-03
   0.701E-03 0.157E-02 0.313E-03   -.102E-02 0.130E-02 -.423E-02   0.164E-19 -.514E-20 -.111E-20   -.680E-04 -.206E-03 0.115E-03
   0.112E-02 0.506E-03 -.167E-02   0.804E-03 -.682E-03 -.128E-02   -.218E-19 -.135E-19 -.138E-20   0.701E-04 0.588E-04 0.552E-05
   0.255E-02 -.406E-03 -.106E-02   0.238E-02 -.222E-02 0.545E-03   -.989E-20 0.274E-20 -.112E-19   0.893E-04 0.267E-03 0.755E-05
   0.740E-03 0.102E-02 0.241E-03   0.455E-02 -.501E-03 0.197E-02   0.819E-20 0.114E-19 0.630E-20   -.112E-03 -.139E-03 0.807E-04
   0.724E-04 -.402E-02 0.410E-02   -.242E-02 -.625E-02 0.170E-02   -.149E-19 0.781E-20 -.189E-20   0.124E-03 0.361E-03 -.252E-04
   0.347E-02 0.815E-03 -.186E-02   0.455E-02 0.182E-02 -.110E-02   0.227E-19 0.206E-19 0.687E-20   -.106E-03 -.192E-03 -.149E-03
 -----------------------------------------------------------------------------------------------
   -.936E-10 0.308E-09 -.101E-09   0.597E-12 -.209E-12 0.366E-11   -.669E-19 -.987E-20 0.450E-19   -.157E-10 0.663E-11 -.132E-10
 
 
 POSITION                                       TOTAL-FORCE (eV/Angst)
 -----------------------------------------------------------------------------------
      4.48493      1.49498      7.47488        -0.000000      0.000000      0.000000
      1.49498      4.48493     10.46483        -0.000000      0.000000      0.000000
     10.46483     10.46483      4.48492         0.000000      0.000000     -0.000000
      0.00000      0.00000      2.98995         0.000000     -0.000000     -0.000000
      8.96985      8.96985      2.98995        -0.000000     -0.000000      0.000000
      0.00000      0.00000      0.00000        -0.000000      0.000000      0.000000
      8.96985      8.96985      8.96985        -0.000000      0.000000      0.000000
      7.47488      4.48492      7.47488         0.000000     -0.000000      0.000000
      1.49497      7.47488      1.49498         0.000000      0.000000      0.000000
      0.00000      5.97990      2.98995         0.000000      0.000000     -0.000000
      1.49497      4.48493      1.49498         0.000000      0.000000     -0.000000
      5.97991     11.95981      8.96985         0.000000      0.000000      0.000000
      5.97990      5.97990      2.98995         0.000000     -0.000000     -0.000000
      5.97991      5.97990      5.97990        -0.000000      0.000000     -0.000000
      1.49497      7.47488      4.48492         0.000000      0.000000     -0.000000
     10.46483      7.47488     10.46483         0.000000     -0.000000     -0.000000
      4.48493     10.46483      4.48493        -0.000000      0.000000     -0.000000
      2.98995      2.98995      2.98995        -0.000000      0.000000     -0.000000
      4.48493      1.49498      1.49498        -0.000000      0.000000     -0.000000
      7.47488      1.49498      4.48493         0.000000     -0.000000     -0.000000
      7.47488      7.47487     10.46483        -0.000000     -0.000000     -0.000000
      2.98995      5.97990      0.00000         0.000000      0.000000      0.000000
      1.49498     10.46483      7.47488         0.000000      0.000000     -0.000000
      8.96985      0.00000      8.96985        -0.000000     -0.000000     -0.000000
      1.49498      1.49498      4.48493         0.000000     -0.000000      0.000000
      5.97991      0.00000      0.00000        -0.000000      0.000000      0.000000
      2.98995      0.00000      8.96985        -0.000000      0.000000     -0.000000
      2.98995      8.96985      8.96985         0.000000      0.000000     -0.000000
      8.96985      0.00000      2.98995        -0.000000     -0.000000      0.000000
     10.46483      4.48493     10.46483         0.000000      0.000000     -0.000000
      7.47488      7.47488      1.49498        -0.000000     -0.000000      0.000000
      0.00000      5.97990      5.97991         0.000000      0.000000     -0.000000
      5.97991      2.98995      0.00000         0.000000      0.000000      0.000000
      8.96985      8.96985      5.97991         0.000000     -0.000000      0.000000
      4.48493     10.46483      7.47488         0.000000     -0.000000      0.000000
      2.98995      2.98995      5.97990        -0.000000     -0.000000      0.000000
      1.49497     10.46483     10.46483        -0.000000     -0.000000      0.000000
     10.46483      1.49498     10.46483        -0.000000      0.000000     -0.000000
      0.00000      8.96985      5.97991         0.000000     -0.000000     -0.000000
     10.46483      4.48493      4.48493        -0.000000     -0.000000      0.000000
     10.46483      1.49498      4.48493        -0.000000      0.000000     -0.000000
      7.47488     10.46483      7.47488         0.000000      0.000000      0.000000
      4.48493      4.48493     10.46483         0.000000     -0.000000      0.000000
      0.00000      0.00000      5.97990        -0.000000      0.000000      0.000000
      8.96986      2.98995      8.96985        -0.000000     -0.000000     -0.000000
      0.00000      8.96985      8.96985         0.000000      0.000000      0.000000
      8.96985      5.97990      5.97991        -0.000000      0.000000     -0.000000
      5.97990      8.96985      2.98995         0.000000      0.000000     -0.000000
      0.00000      2.98995      2.98995        -0.000000     -0.000000     -0.000000
      1.49498      1.49498     10.46483         0.000000      0.000000      0.000000
      2.98995      8.96985      0.00000         0.000000     -0.000000     -0.000000
      1.49497      7.47488     10.46483         0.000000      0.000000      0.000000
      0.00000      2.98995      5.97991         0.000000     -0.000000      0.000000
      1.49498      1.49498      1.49497         0.000000     -0.000000     -0.000000
      7.47488      4.48493     10.46483        -0.000000     -0.000000     -0.000000
      2.98995      0.00000      0.00000        -0.000000     -0.000000     -0.000000
      1.49498      1.49498      7.47488        -0.000000     -0.000000     -0.000000
      5.97990      0.00000      2.98995        -0.000000     -0.000000     -0.000000
      4.48493      7.47487     10.46483        -0.000000     -0.000000      0.000000
      7.47488     10.46483      4.48493         0.000000     -0.000000     -0.000000
      5.97990      8.96985      5.97990         0.000000     -0.000000      0.000000
      5.97991      2.98995      8.96985         0.000000     -0.000000      0.000000
      7.47488     10.46483      1.49498        -0.000000     -0.000000      0.000000
      1.49498     10.46483      4.48492        -0.000000     -0.000000      0.000000
     10.46483      4.48493      1.49498         0.000000     -0.000000     -0.000000
     10.46483     10.46483      7.47488        -0.000000      0.000000      0.000000
     10.46483      4.48493      7.47488        -0.000000     -0.000000      0.000000
     10.46483      1.49498      7.47488        -0.000000      0.000000     -0.000000
      1.49498      4.48493      7.47488         0.000000      0.000000     -0.000000
      7.47488      4.48493      1.49498         0.000000     -0.000000      0.000000
      7.47488      1.49498      7.47488        -0.000000      0.000000      0.000000
     10.46483     10.46483      1.49498        -0.000000     -0.000000     -0.000000
      4.48493      1.49498      4.48493        -0.000000      0.000000      0.000000
      7.47488      1.49498      1.49498        -0.000000      0.000000     -0.000000
      1.49498      7.47488      7.47488        -0.000000     -0.000000     -0.000000
      0.00000      8.96985      2.98995         0.000000     -0.000000      0.000000
      2.98995      2.98995      8.96985        -0.000000      0.000000     -0.000000
      5.97990      2.98995      2.98995         0.000000      0.000000     -0.000000
      0.00000      5.97990      8.96985         0.000000      0.000000      0.000000
      4.48492     10.46483      1.49498        -0.000000      0.000000     -0.000000
      4.48493      4.48493      1.49498         0.000000      0.000000     -0.000000
      2.98995      2.98995      0.00000         0.000000      0.000000      0.000000
     10.46483      7.47488      4.48492        -0.000000      0.000000     -0.000000
     10.46483      7.47488      1.49498         0.000000      0.000000      0.000000
      4.48493      4.48493      7.47488        -0.000000     -0.000000     -0.000000
      8.96985      0.00000      5.97990         0.000000      0.000000      0.000000
      2.98995      8.96985      2.98995        -0.000000     -0.000000     -0.000000
      5.97990     11.95981      5.97990        -0.000000      0.000000      0.000000
      5.97991      8.96985      0.00000         0.000000      0.000000     -0.000000
      7.47488      7.47488      7.47488        -0.000000      0.000000      0.000000
      8.96985      5.97990      8.96985        -0.000000     -0.000000      0.000000
     11.95981      2.98995      8.96985        -0.000000     -0.000000     -0.000000
      2.98995      8.96985      5.97990        -0.000000     -0.000000      0.000000
      5.97991      8.96985      8.96985         0.000000     -0.000000      0.000000
      4.48493      1.49498     10.46483        -0.000000      0.000000      0.000000
      8.96985      5.97990      2.98995        -0.000000     -0.000000      0.000000
      8.96985      2.98995      2.98995         0.000000      0.000000      0.000000
      8.96985      2.98995      5.97991        -0.000000     -0.000000      0.000000
      8.96985      5.97990      0.00000         0.000000     -0.000000     -0.000000
      4.48493      7.47488      4.48493         0.000000     -0.000000      0.000000
      1.49497     10.46483      1.49498         0.000000      0.000000     -0.000000
     10.46483      7.47488      7.47488         0.000000      0.000000      0.000000
      8.96985      0.00000      0.00000        -0.000000      0.000000     -0.000000
      7.47488     10.46483     10.46483         0.000000      0.000000     -0.000000
      7.47488      7.47488      4.48493         0.000000      0.000000     -0.000000
      1.49498      4.48493      4.48493         0.000000      0.000000     -0.000000
      2.98995      0.00000      5.97990        -0.000000      0.000000      0.000000
     10.46483      1.49498      1.49497        -0.000000     -0.000000      0.000000
      4.48493     10.46483     10.46483        -0.000000     -0.000000     -0.000000
      0.00000      0.00000      8.96985         0.000000      0.000000      0.000000
      5.97990      2.98995      5.97990        -0.000000     -0.000000     -0.000000
      0.00000      8.96985      0.00000         0.000000      0.000000      0.000000
      8.96985      8.96985      0.00000        -0.000000      0.000000     -0.000000
      2.98995      5.97990      8.96985        -0.000000      0.000000     -0.000000
      2.98995      0.00000      2.98995        -0.000000     -0.000000     -0.000000
      5.97991      5.97990      8.96985        -0.000000     -0.000000      0.000000
      5.97991      5.97990      0.00000         0.000000      0.000000     -0.000000
     10.46483     10.46483     10.46483        -0.000000      0.000000     -0.000000
      0.00000      2.98995      0.00000         0.000000      0.000000      0.000000
      4.48493      4.48493      4.48493         0.000000     -0.000000      0.000000
      4.48493      7.47488      7.47488        -0.000000     -0.000000      0.000000
      4.48492      7.47488      1.49498        -0.000000     -0.000000     -0.000000
     11.95981      5.97990      0.00000        -0.000000     -0.000000      0.000000
      7.47488      4.48493      4.48493        -0.000000      0.000000     -0.000000
      8.96985      2.98995      0.00000         0.000000     -0.000000      0.000000
      2.98995      5.97990      2.98995         0.000000      0.000000     -0.000000
      7.47488      1.49498     10.46483         0.000000      0.000000     -0.000000
      2.98995      5.97990      5.97990        -0.000000      0.000000      0.000000
 -----------------------------------------------------------------------------------
    total drift:                               -0.000000      0.000000     -0.000000


--------------------------------------------------------------------------------------------------------



  FREE ENERGIE OF THE ION-ELECTRON SYSTEM (eV)
  ---------------------------------------------------
  free  energy   TOTEN  =     -1150.82101883 eV

  energy  without entropy=    -1150.39870501  energy(sigma->0) =    -1150.68024756
 


--------------------------------------------------------------------------------------------------------


    POTLOK:  cpu time      0.1206: real time      0.0202


--------------------------------------------------------------------------------------------------------




--------------------------------------------------------------------------------------------------------


      MLFF:  cpu time      0.0360: real time      0.0669
    WAVPRE:  cpu time      0.2828: real time      0.1038
    FEWALD:  cpu time      0.1827: real time      0.1712
    GENKIN:  cpu time      0.0044: real time      0.0044
    ORTHCH:  cpu time      0.4983: real time      0.4981
     LOOP+:  cpu time     61.2743: real time     57.3962


--------------------------------------- Ionic step        2  -------------------------------------------




--------------------------------------- Iteration      2(   1)  ---------------------------------------


    POTLOK:  cpu time      0.0063: real time      0.0060
    SETDIJ:  cpu time      0.0880: real time      0.0058
     EDDAV:  cpu time      3.2148: real time      3.1622
       DOS:  cpu time      0.0014: real time      0.0014
    CHARGE:  cpu time      0.4161: real time      0.2668
    MIXING:  cpu time      0.0363: real time      0.0035
    --------------------------------------------
      LOOP:  cpu time      3.7629: real time      3.4456

 eigenvalue-minimisations  :  8272
 total energy-change (2. order) :-0.4651403E+00  (-0.1040968E+01)
 number of electron    1664.0022340 magnetization 
 augmentation part      608.1250762 magnetization 

 Broyden mixing:
  rms(total) = 0.72375E+00    rms(broyden)= 0.72348E+00
  rms(prec ) = 0.78020E+00
  weight for this iteration     100.00

 Free energy of the ion-electron system (eV)
  ---------------------------------------------------
  alpha Z        PSCENC =     11655.14079082
  Ewald energy   TEWEN  =   -189317.76485605
  -Hartree energ DENC   =    -49983.83723192
  -exchange      EXHF   =         0.00000000
  -V(xc)+E(xc)   XCENC  =      8942.90372430
  PAW double counting   =    249589.10023188  -251956.05578101
  entropy T*S    EENTRO =        -0.39091134
  eigenvalues    EBANDS =    -29943.36165437
  atomic energy  EATOM  =    249862.97952924
  Solvation  Ediel_sol  =         0.00000000
  ---------------------------------------------------
  free energy    TOTEN  =     -1151.28615845 eV

  energy without entropy =    -1150.89524711  energy(sigma->0) =    -1151.15585467


--------------------------------------------------------------------------------------------------------




--------------------------------------- Iteration      2(   2)  ---------------------------------------


    POTLOK:  cpu time      0.0395: real time      0.0112
    SETDIJ:  cpu time      0.0936: real time      0.0062
     EDDAV:  cpu time      3.2555: real time      3.2025
       DOS:  cpu time      0.0013: real time      0.0013
    CHARGE:  cpu time      0.4092: real time      0.2647
    MIXING:  cpu time      0.0351: real time      0.0026
    --------------------------------------------
      LOOP:  cpu time      3.8342: real time      3.4885

 eigenvalue-minimisations  :  8400
 total energy-change (2. order) : 0.4573994E+00  (-0.2653299E+00)
 number of electron    1664.0022270 magnetization 
 augmentation part      605.0148666 magnetization 

 Broyden mixing:
  rms(total) = 0.13952E+00    rms(broyden)= 0.13935E+00
  rms(prec ) = 0.14320E+00
  weight for this iteration     100.00

 eigenvalues of (default mixing * dielectric matrix)
  average eigenvalue GAMMA=   0.8951
  0.8951

 Free energy of the ion-electron system (eV)
  ---------------------------------------------------
  alpha Z        PSCENC =     11655.14079082
  Ewald energy   TEWEN  =   -189317.76485605
  -Hartree energ DENC   =    -50178.58593936
  -exchange      EXHF   =         0.00000000
  -V(xc)+E(xc)   XCENC  =      8952.53479375
  PAW double counting   =    248732.96222792  -251101.43502263
  entropy T*S    EENTRO =        -0.42711474
  eigenvalues    EBANDS =    -29756.23316796
  atomic energy  EATOM  =    249862.97952924
  Solvation  Ediel_sol  =         0.00000000
  ---------------------------------------------------
  free energy    TOTEN  =     -1150.82875902 eV

  energy without entropy =    -1150.40164427  energy(sigma->0) =    -1150.68638744


--------------------------------------------------------------------------------------------------------




--------------------------------------- Iteration      2(   3)  ---------------------------------------


    POTLOK:  cpu time      0.0353: real time      0.0128
    SETDIJ:  cpu time      0.0834: real time      0.0056
     EDDAV:  cpu time      3.3517: real time      3.2982
       DOS:  cpu time      0.0013: real time      0.0013
    CHARGE:  cpu time      0.4049: real time      0.2634
    MIXING:  cpu time      0.0382: real time      0.0028
    --------------------------------------------
      LOOP:  cpu time      3.9149: real time      3.5842

 eigenvalue-minimisations  :  8712
 total energy-change (2. order) : 0.3561117E-02  (-0.2323167E-02)
 number of electron    1664.0022266 magnetization 
 augmentation part      605.0093905 magnetization 

 Broyden mixing:
  rms(total) = 0.86289E-01    rms(broyden)= 0.86287E-01
  rms(prec ) = 0.89045E-01
  weight for this iteration     100.00

 eigenvalues of (default mixing * dielectric matrix)
  average eigenvalue GAMMA=   1.7090
  0.9960  2.4221

 Free energy of the ion-electron system (eV)
  ---------------------------------------------------
  alpha Z        PSCENC =     11655.14079082
  Ewald energy   TEWEN  =   -189317.76485605
  -Hartree energ DENC   =    -50174.44441651
  -exchange      EXHF   =         0.00000000
  -V(xc)+E(xc)   XCENC  =      8952.32465596
  PAW double counting   =    248757.38071315  -251124.45845332
  entropy T*S    EENTRO =        -0.42813591
  eigenvalues    EBANDS =    -29761.55502528
  atomic energy  EATOM  =    249862.97952924
  Solvation  Ediel_sol  =         0.00000000
  ---------------------------------------------------
  free energy    TOTEN  =     -1150.82519790 eV

  energy without entropy =    -1150.39706199  energy(sigma->0) =    -1150.68248593


--------------------------------------------------------------------------------------------------------




--------------------------------------- Iteration      2(   4)  ---------------------------------------


    POTLOK:  cpu time      0.0354: real time      0.0130
    SETDIJ:  cpu time      0.0860: real time      0.0054
     EDDAV:  cpu time      3.2475: real time      3.1945
       DOS:  cpu time      0.0014: real time      0.0014
    CHARGE:  cpu time      0.4053: real time      0.2639
    MIXING:  cpu time      0.0412: real time      0.0030
    --------------------------------------------
      LOOP:  cpu time      3.8167: real time      3.4812

 eigenvalue-minimisations  :  8376
 total energy-change (2. order) : 0.2590669E-02  (-0.7354773E-03)
 number of electron    1664.0022266 magnetization 
 augmentation part      605.0776459 magnetization 

 Broyden mixing:
  rms(total) = 0.14251E-01    rms(broyden)= 0.14234E-01
  rms(prec ) = 0.14673E-01
  weight for this iteration     100.00

 eigenvalues of (default mixing * dielectric matrix)
  average eigenvalue GAMMA=   1.6062
  2.4492  1.0457  1.3237

 Free energy of the ion-electron system (eV)
  ---------------------------------------------------
  alpha Z        PSCENC =     11655.14079082
  Ewald energy   TEWEN  =   -189317.76485605
  -Hartree energ DENC   =    -50165.53539641
  -exchange      EXHF   =         0.00000000
  -V(xc)+E(xc)   XCENC  =      8951.88229491
  PAW double counting   =    248802.15850365  -251168.05634107
  entropy T*S    EENTRO =        -0.42910669
  eigenvalues    EBANDS =    -29771.19802564
  atomic energy  EATOM  =    249862.97952924
  Solvation  Ediel_sol  =         0.00000000
  ---------------------------------------------------
  free energy    TOTEN  =     -1150.82260723 eV

  energy without entropy =    -1150.39350055  energy(sigma->0) =    -1150.67957167


--------------------------------------------------------------------------------------------------------




--------------------------------------- Iteration      2(   5)  ---------------------------------------


    POTLOK:  cpu time      0.0351: real time      0.0111
    SETDIJ:  cpu time      0.0849: real time      0.0057
     EDDAV:  cpu time      3.3702: real time      3.3167
       DOS:  cpu time      0.0013: real time      0.0013
    CHARGE:  cpu time      0.4051: real time      0.2650
    MIXING:  cpu time      0.0445: real time      0.0032
    --------------------------------------------
      LOOP:  cpu time      3.9411: real time      3.6030

 eigenvalue-minimisations  :  8784
 total energy-change (2. order) :-0.3169848E-04  (-0.1312441E-03)
 number of electron    1664.0022264 magnetization 
 augmentation part      605.0104779 magnetization 

 Broyden mixing:
  rms(total) = 0.44050E-02    rms(broyden)= 0.44047E-02
  rms(prec ) = 0.50941E-02
  weight for this iteration     100.00

 eigenvalues of (default mixing * dielectric matrix)
  average eigenvalue GAMMA=   1.7780
  0.9570  0.9570  2.5991  2.5991

 Free energy of the ion-electron system (eV)
  ---------------------------------------------------
  alpha Z        PSCENC =     11655.14079082
  Ewald energy   TEWEN  =   -189317.76485605
  -Hartree energ DENC   =    -50168.73111814
  -exchange      EXHF   =         0.00000000
  -V(xc)+E(xc)   XCENC  =      8952.04280493
  PAW double counting   =    248788.06729811  -251154.56126398
  entropy T*S    EENTRO =        -0.42969028
  eigenvalues    EBANDS =    -29767.56613359
  atomic energy  EATOM  =    249862.97952924
  Solvation  Ediel_sol  =         0.00000000
  ---------------------------------------------------
  free energy    TOTEN  =     -1150.82263893 eV

  energy without entropy =    -1150.39294866  energy(sigma->0) =    -1150.67940884


--------------------------------------------------------------------------------------------------------




--------------------------------------- Iteration      2(   6)  ---------------------------------------


    POTLOK:  cpu time      0.0352: real time      0.0103
    SETDIJ:  cpu time      0.0840: real time      0.0056
     EDDAV:  cpu time      3.3478: real time      3.2940
       DOS:  cpu time      0.0014: real time      0.0013
    CHARGE:  cpu time      0.4050: real time      0.2649
    MIXING:  cpu time      0.0481: real time      0.0034
    --------------------------------------------
      LOOP:  cpu time      3.9214: real time      3.5796

 eigenvalue-minimisations  :  8712
 total energy-change (2. order) :-0.3351447E-04  (-0.1378796E-04)
 number of electron    1664.0022264 magnetization 
 augmentation part      605.0311386 magnetization 

 Broyden mixing:
  rms(total) = 0.94117E-03    rms(broyden)= 0.93570E-03
  rms(prec ) = 0.96373E-03
  weight for this iteration     100.00

 eigenvalues of (default mixing * dielectric matrix)
  average eigenvalue GAMMA=   1.5509
  2.4947  2.4947  0.9783  0.8935  0.8935

 Free energy of the ion-electron system (eV)
  ---------------------------------------------------
  alpha Z        PSCENC =     11655.14079082
  Ewald energy   TEWEN  =   -189317.76485605
  -Hartree energ DENC   =    -50166.84024669
  -exchange      EXHF   =         0.00000000
  -V(xc)+E(xc)   XCENC  =      8951.95212835
  PAW double counting   =    248792.93630315  -251159.93827177
  entropy T*S    EENTRO =        -0.42951727
  eigenvalues    EBANDS =    -29768.85853221
  atomic energy  EATOM  =    249862.97952924
  Solvation  Ediel_sol  =         0.00000000
  ---------------------------------------------------
  free energy    TOTEN  =     -1150.82267245 eV

  energy without entropy =    -1150.39315518  energy(sigma->0) =    -1150.67950002


--------------------------------------------------------------------------------------------------------




--------------------------------------- Iteration      2(   7)  ---------------------------------------


    POTLOK:  cpu time      0.0473: real time      0.0336
    SETDIJ:  cpu time      0.0930: real time      0.0063
     EDDAV:  cpu time      2.6646: real time      2.6155
       DOS:  cpu time      0.0014: real time      0.0013
    CHARGE:  cpu time      0.4009: real time      0.2623
    MIXING:  cpu time      0.0520: real time      0.0037
    --------------------------------------------
      LOOP:  cpu time      3.2590: real time      2.9227

 eigenvalue-minimisations  :  6208
 total energy-change (2. order) : 0.5725597E-05  (-0.3874867E-06)
 number of electron    1664.0022264 magnetization 
 augmentation part      605.0317074 magnetization 

 Broyden mixing:
  rms(total) = 0.34319E-03    rms(broyden)= 0.34169E-03
  rms(prec ) = 0.38887E-03
  weight for this iteration     100.00

 eigenvalues of (default mixing * dielectric matrix)
  average eigenvalue GAMMA=   1.8806
  3.2464  2.6995  2.4243  0.9937  0.9937  0.9262

 Free energy of the ion-electron system (eV)
  ---------------------------------------------------
  alpha Z        PSCENC =     11655.14079082
  Ewald energy   TEWEN  =   -189317.76485605
  -Hartree energ DENC   =    -50166.84204999
  -exchange      EXHF   =         0.00000000
  -V(xc)+E(xc)   XCENC  =      8951.95192621
  PAW double counting   =    248792.97124827  -251159.91923688
  entropy T*S    EENTRO =        -0.42951671
  eigenvalues    EBANDS =    -29768.91050164
  atomic energy  EATOM  =    249862.97952924
  Solvation  Ediel_sol  =         0.00000000
  ---------------------------------------------------
  free energy    TOTEN  =     -1150.82266672 eV

  energy without entropy =    -1150.39315001  energy(sigma->0) =    -1150.67949448


--------------------------------------------------------------------------------------------------------




--------------------------------------- Iteration      2(   8)  ---------------------------------------


    POTLOK:  cpu time      0.0452: real time      0.0248
    SETDIJ:  cpu time      0.0863: real time      0.0058
     EDDAV:  cpu time      2.2186: real time      2.1729
       DOS:  cpu time      0.0013: real time      0.0013
    --------------------------------------------
      LOOP:  cpu time      2.3517: real time      2.2051

 eigenvalue-minimisations  :  4656
 total energy-change (2. order) :-0.4921749E-06  (-0.3572332E-07)
 number of electron    1664.0022264 magnetization 
 augmentation part      605.0317074 magnetization 

 Free energy of the ion-electron system (eV)
  ---------------------------------------------------
  alpha Z        PSCENC =     11655.14079082
  Ewald energy   TEWEN  =   -189317.76485605
  -Hartree energ DENC   =    -50166.77176295
  -exchange      EXHF   =         0.00000000
  -V(xc)+E(xc)   XCENC  =      8951.94868585
  PAW double counting   =    248792.16217200  -251159.11865528
  entropy T*S    EENTRO =        -0.42951250
  eigenvalues    EBANDS =    -29768.96905833
  atomic energy  EATOM  =    249862.97952924
  Solvation  Ediel_sol  =         0.00000000
  ---------------------------------------------------
  free energy    TOTEN  =     -1150.82266721 eV

  energy without entropy =    -1150.39315471  energy(sigma->0) =    -1150.67949638


--------------------------------------------------------------------------------------------------------




 average (electrostatic) potential at core
  the test charge radii are     0.9956
  (the norm of the test charge is              1.0000)
       1 -70.0875       2 -70.0878       3 -70.0872       4 -70.0874       5 -70.0876
       6 -70.0873       7 -70.0871       8 -70.0882       9 -70.0881      10 -70.0883
      11 -70.0881      12 -70.0872      13 -70.0879      14 -70.0878      15 -70.0880
      16 -70.0874      17 -70.0873      18 -70.0878      19 -70.0875      20 -70.0875
      21 -70.0874      22 -70.0877      23 -70.0874      24 -70.0874      25 -70.0877
      26 -70.0871      27 -70.0872      28 -70.0869      29 -70.0872      30 -70.0879
      31 -70.0879      32 -70.0880      33 -70.0876      34 -70.0874      35 -70.0871
      36 -70.0878      37 -70.0870      38 -70.0876      39 -70.0875      40 -70.0877
      41 -70.0873      42 -70.0873      43 -70.0873      44 -70.0873      45 -70.0881
      46 -70.0872      47 -70.0879      48 -70.0875      49 -70.0877      50 -70.0875
      51 -70.0872      52 -70.0874      53 -70.0878      54 -70.0877      55 -70.0879
      56 -70.0871      57 -70.0879      58 -70.0873      59 -70.0868      60 -70.0873
      61 -70.0874      62 -70.0878      63 -70.0875      64 -70.0875      65 -70.0880
      66 -70.0873      67 -70.0881      68 -70.0877      69 -70.0882      70 -70.0880
      71 -70.0878      72 -70.0872      73 -70.0875      74 -70.0878      75 -70.0878
      76 -70.0879      77 -70.0878      78 -70.0877      79 -70.0878      80 -70.0872
      81 -70.0877      82 -70.0876      83 -70.0877      84 -70.0879      85 -70.0877
      86 -70.0873      87 -70.0878      88 -70.0874      89 -70.0870      90 -70.0877
      91 -70.0878      92 -70.0880      93 -70.0874      94 -70.0868      95 -70.0871
      96 -70.0880      97 -70.0877      98 -70.0879      99 -70.0879     100 -70.0876
     101 -70.0874     102 -70.0877     103 -70.0873     104 -70.0870     105 -70.0877
     106 -70.0880     107 -70.0875     108 -70.0875     109 -70.0866     110 -70.0874
     111 -70.0879     112 -70.0875     113 -70.0873     114 -70.0875     115 -70.0874
     116 -70.0875     117 -70.0875     118 -70.0870     119 -70.0878     120 -70.0877
     121 -70.0873     122 -70.0876     123 -70.0880     124 -70.0879     125 -70.0879
     126 -70.0880     127 -70.0876     128 -70.0878
 
 
 
 E-fermi :   9.7602     XC(G=0): -12.9278     alpha+bet :-18.7604

 val. band max:        9.7529315876   @ k =   0.5000   0.0000   0.0000
 cond. band min:       9.7732507963   @ k =   0.5000   0.5000   0.0000
 fundamental gap:      0.0203192087
 Fermi energy:         9.7602188255

 k-point     1 :       0.0000    0.0000    0.0000
  band No.  band energies     occupation 
      1     -53.9399      2.00000
      2     -53.8832      2.00000
      3     -53.8831      2.00000
      4     -53.8831      2.00000
      5     -53.8831      2.00000
      6     -53.8830      2.00000
      7     -53.8829      2.00000
      8     -53.8399      2.00000
      9     -53.8399      2.00000
     10     -53.8398      2.00000
     11     -53.8398      2.00000
     12     -53.8398      2.00000
     13     -53.8398      2.00000
     14     -53.8398      2.00000
     15     -53.8397      2.00000
     16     -53.8397      2.00000
     17     -53.8397      2.00000
     18     -53.8396      2.00000
     19     -53.8396      2.00000
     20     -53.8069      2.00000
     21     -53.8069      2.00000
     22     -53.8068      2.00000
     23     -53.8068      2.00000
     24     -53.8068      2.00000
     25     -53.8068      2.00000
     26     -53.8067      2.00000
     27     -53.8067      2.00000
     28     -53.7558      2.00000
     29     -53.7558      2.00000
     30     -53.7558      2.00000
     31     -53.7558      2.00000
     32     -53.7558      2.00000
     33     -53.7558      2.00000
     34     -53.7470      2.00000
     35     -53.7470      2.00000
     36     -53.7470      2.00000
     37     -53.7470      2.00000
     38     -53.7470      2.00000
     39     -53.7470      2.00000
     40     -53.7470      2.00000
     41     -53.7469      2.00000
     42     -53.7469      2.00000
     43     -53.7469      2.00000
     44     -53.7469      2.00000
     45     -53.7469      2.00000
     46     -53.7469      2.00000
     47     -53.7469      2.00000
     48     -53.7469      2.00000
     49     -53.7469      2.00000
     50     -53.7469      2.00000
     51     -53.7468      2.00000
     52     -53.7468      2.00000
     53     -53.7468      2.00000
     54     -53.7468      2.00000
     55     -53.7468      2.00000
     56     -53.7467      2.00000
     57     -53.7467      2.00000
     58     -53.7392      2.00000
     59     -53.7391      2.00000
     60     -53.7391      2.00000
     61     -53.7391      2.00000
     62     -53.7390      2.00000
     63     -53.7390      2.00000
     64     -53.7390      2.00000
     65     -53.7390      2.00000
     66     -53.7390      2.00000
     67     -53.7389      2.00000
     68     -53.7389      2.00000
     69     -53.7389      2.00000
     70     -53.7389      2.00000
     71     -53.7389      2.00000
     72     -53.7389      2.00000
     73     -53.7389      2.00000
     74     -53.7389      2.00000
     75     -53.7389      2.00000
     76     -53.7389      2.00000
     77     -53.7388      2.00000
     78     -53.7388      2.00000
     79     -53.7388      2.00000
     80     -53.7387      2.00000
     81     -53.7387      2.00000
     82     -53.7385      2.00000
     83     -53.7385      2.00000
     84     -53.7385      2.00000
     85     -53.7385      2.00000
     86     -53.7384      2.00000
     87     -53.7384      2.00000
     88     -53.7312      2.00000
     89     -53.7312      2.00000
     90     -53.7312      2.00000
     91     -53.7311      2.00000
     92     -53.7311      2.00000
     93     -53.7311      2.00000
     94     -53.7311      2.00000
     95     -53.7310      2.00000
     96     -53.7310      2.00000
     97     -53.7310      2.00000
     98     -53.7309      2.00000
     99     -53.7309      2.00000
    100     -53.7240      2.00000
    101     -53.7240      2.00000
    102     -53.6875      2.00000
    103     -53.6875      2.00000
    104     -53.6874      2.00000
    105     -53.6874      2.00000
    106     -53.6874      2.00000
    107     -53.6874      2.00000
    108     -53.6873      2.00000
    109     -53.6873      2.00000
    110     -53.6708      2.00000
    111     -53.6707      2.00000
    112     -53.6707      2.00000
    113     -53.6707      2.00000
    114     -53.6707      2.00000
    115     -53.6707      2.00000
    116     -53.6706      2.00000
    117     -53.6706      2.00000
    118     -53.6706      2.00000
    119     -53.6706      2.00000
    120     -53.6705      2.00000
    121     -53.6704      2.00000
    122     -53.6440      2.00000
    123     -53.6439      2.00000
    124     -53.6439      2.00000
    125     -53.6438      2.00000
    126     -53.6438      2.00000
    127     -53.6437      2.00000
    128     -53.6004      2.00000
    129     -28.1598      2.00000
    130     -28.1598      2.00000
    131     -28.1598      2.00000
    132     -28.1598      2.00000
    133     -28.1598      2.00000
    134     -28.1598      2.00000
    135     -28.0243      2.00000
    136     -28.0243      2.00000
    137     -28.0243      2.00000
    138     -28.0242      2.00000
    139     -28.0242      2.00000
    140     -28.0242      2.00000
    141     -28.0242      2.00000
    142     -28.0242      2.00000
    143     -28.0241      2.00000
    144     -28.0241      2.00000
    145     -28.0241      2.00000
    146     -28.0241      2.00000
    147     -28.0169      2.00000
    148     -28.0169      2.00000
    149     -28.0169      2.00000
    150     -28.0169      2.00000
    151     -28.0169      2.00000
    152     -28.0169      2.00000
    153     -28.0169      2.00000
    154     -28.0169      2.00000
    155     -28.0169      2.00000
    156     -28.0168      2.00000
    157     -28.0168      2.00000
    158     -28.0168      2.00000
    159     -27.9984      2.00000
    160     -27.9984      2.00000
    161     -27.9984      2.00000
    162     -27.9984      2.00000
    163     -27.9983      2.00000
    164     -27.9983      2.00000
    165     -27.9983      2.00000
    166     -27.9983      2.00000
    167     -27.9983      2.00000
    168     -27.9983      2.00000
    169     -27.9983      2.00000
    170     -27.9983      2.00000
    171     -27.9983      2.00000
    172     -27.9983      2.00000
    173     -27.9983      2.00000
    174     -27.9982      2.00000
    175     -27.9982      2.00000
    176     -27.9982      2.00000
    177     -27.9982      2.00000
    178     -27.9982      2.00000
    179     -27.9982      2.00000
    180     -27.9981      2.00000
    181     -27.9981      2.00000
    182     -27.9981      2.00000
    183     -27.9908      2.00000
    184     -27.9907      2.00000
    185     -27.9907      2.00000
    186     -27.9907      2.00000
    187     -27.9907      2.00000
    188     -27.9907      2.00000
    189     -27.9907      2.00000
    190     -27.9906      2.00000
    191     -27.9906      2.00000
    192     -27.9906      2.00000
    193     -27.9906      2.00000
    194     -27.9906      2.00000
    195     -27.9906      2.00000
    196     -27.9906      2.00000
    197     -27.9906      2.00000
    198     -27.9906      2.00000
    199     -27.9906      2.00000
    200     -27.9906      2.00000
    201     -27.9906      2.00000
    202     -27.9905      2.00000
    203     -27.9905      2.00000
    204     -27.9905      2.00000
    205     -27.9905      2.00000
    206     -27.9904      2.00000
    207     -27.9007      2.00000
    208     -27.9007      2.00000
    209     -27.9007      2.00000
    210     -27.9007      2.00000
    211     -27.9007      2.00000
    212     -27.9007      2.00000
    213     -27.9006      2.00000
    214     -27.9006      2.00000
    215     -27.9006      2.00000
    216     -27.9006      2.00000
    217     -27.9006      2.00000
    218     -27.9006      2.00000
    219     -27.9006      2.00000
    220     -27.9006      2.00000
    221     -27.9006      2.00000
    222     -27.9005      2.00000
    223     -27.8706      2.00000
    224     -27.8706      2.00000
    225     -27.8706      2.00000
    226     -27.8655      2.00000
    227     -27.8655      2.00000
    228     -27.8654      2.00000
    229     -27.8654      2.00000
    230     -27.8654      2.00000
    231     -27.8654      2.00000
    232     -27.8443      2.00000
    233     -27.8443      2.00000
    234     -27.8443      2.00000
    235     -27.8443      2.00000
    236     -27.8443      2.00000
    237     -27.8443      2.00000
    238     -27.8442      2.00000
    239     -27.8442      2.00000
    240     -27.7755      2.00000
    241     -27.7755      2.00000
    242     -27.7755      2.00000
    243     -27.7754      2.00000
    244     -27.7754      2.00000
    245     -27.7754      2.00000
    246     -27.7754      2.00000
    247     -27.7754      2.00000
    248     -27.7754      2.00000
    249     -27.7753      2.00000
    250     -27.7753      2.00000
    251     -27.7753      2.00000
    252     -27.7323      2.00000
    253     -27.7323      2.00000
    254     -27.7323      2.00000
    255     -27.7323      2.00000
    256     -27.7323      2.00000
    257     -27.7323      2.00000
    258     -27.7142      2.00000
    259     -27.7142      2.00000
    260     -27.7142      2.00000
    261     -27.7142      2.00000
    262     -27.7142      2.00000
    263     -27.7142      2.00000
    264     -27.7142      2.00000
    265     -27.7141      2.00000
    266     -27.7141      2.00000
    267     -27.7141      2.00000
    268     -27.7141      2.00000
    269     -27.7141      2.00000
    270     -27.7043      2.00000
    271     -27.7043      2.00000
    272     -27.7043      2.00000
    273     -27.7043      2.00000
    274     -27.7043      2.00000
    275     -27.7042      2.00000
    276     -27.7042      2.00000
    277     -27.7042      2.00000
    278     -27.7042      2.00000
    279     -27.7042      2.00000
    280     -27.7042      2.00000
    281     -27.7041      2.00000
    282     -27.7009      2.00000
    283     -27.7009      2.00000
    284     -27.7009      2.00000
    285     -27.7009      2.00000
    286     -27.7009      2.00000
    287     -27.7009      2.00000
    288     -27.6254      2.00000
    289     -27.6253      2.00000
    290     -27.6253      2.00000
    291     -27.6253      2.00000
    292     -27.6253      2.00000
    293     -27.6253      2.00000
    294     -27.6253      2.00000
    295     -27.6253      2.00000
    296     -27.6253      2.00000
    297     -27.6253      2.00000
    298     -27.6253      2.00000
    299     -27.6253      2.00000
    300     -27.6253      2.00000
    301     -27.6253      2.00000
    302     -27.6253      2.00000
    303     -27.6253      2.00000
    304     -27.6253      2.00000
    305     -27.6253      2.00000
    306     -27.6253      2.00000
    307     -27.6252      2.00000
    308     -27.6252      2.00000
    309     -27.6252      2.00000
    310     -27.6252      2.00000
    311     -27.6252      2.00000
    312     -27.6174      2.00000
    313     -27.6174      2.00000
    314     -27.6173      2.00000
    315     -27.6173      2.00000
    316     -27.6173      2.00000
    317     -27.6173      2.00000
    318     -27.6173      2.00000
    319     -27.6173      2.00000
    320     -27.6173      2.00000
    321     -27.6173      2.00000
    322     -27.6172      2.00000
    323     -27.6172      2.00000
    324     -27.5687      2.00000
    325     -27.5687      2.00000
    326     -27.5687      2.00000
    327     -27.5687      2.00000
    328     -27.5687      2.00000
    329     -27.5687      2.00000
    330     -27.5686      2.00000
    331     -27.5686      2.00000
    332     -27.5686      2.00000
    333     -27.5686      2.00000
    334     -27.5686      2.00000
    335     -27.5686      2.00000
    336     -27.5501      2.00000
    337     -27.5501      2.00000
    338     -27.5501      2.00000
    339     -27.5501      2.00000
    340     -27.5501      2.00000
    341     -27.5501      2.00000
    342     -27.5501      2.00000
    343     -27.5501      2.00000
    344     -27.5501      2.00000
    345     -27.5501      2.00000
    346     -27.5501      2.00000
    347     -27.5501      2.00000
    348     -27.5415      2.00000
    349     -27.5415      2.00000
    350     -27.5415      2.00000
    351     -27.5414      2.00000
    352     -27.5414      2.00000
    353     -27.5414      2.00000
    354     -27.5414      2.00000
    355     -27.5414      2.00000
    356     -27.5414      2.00000
    357     -27.5414      2.00000
    358     -27.5414      2.00000
    359     -27.5413      2.00000
    360     -27.5413      2.00000
    361     -27.5413      2.00000
    362     -27.5413      2.00000
    363     -27.5413      2.00000
    364     -27.5413      2.00000
    365     -27.5413      2.00000
    366     -27.5413      2.00000
    367     -27.5413      2.00000
    368     -27.5412      2.00000
    369     -27.5412      2.00000
    370     -27.5412      2.00000
    371     -27.5411      2.00000
    372     -27.5329      2.00000
    373     -27.5329      2.00000
    374     -27.5329      2.00000
    375     -27.5329      2.00000
    376     -27.5329      2.00000
    377     -27.5329      2.00000
    378     -27.4280      2.00000
    379     -27.4280      2.00000
    380     -27.4279      2.00000
    381     -27.4279      2.00000
    382     -27.4279      2.00000
    383     -27.4279      2.00000
    384     -27.4194      2.00000
    385     -27.4194      2.00000
    386     -27.4193      2.00000
    387     -27.4193      2.00000
    388     -27.4193      2.00000
    389     -27.4193      2.00000
    390     -27.4193      2.00000
    391     -27.4193      2.00000
    392     -27.3921      2.00000
    393     -27.3921      2.00000
    394     -27.3921      2.00000
    395     -27.3921      2.00000
    396     -27.3921      2.00000
    397     -27.3920      2.00000
    398     -27.3920      2.00000
    399     -27.3920      2.00000
    400     -27.3920      2.00000
    401     -27.3920      2.00000
    402     -27.3919      2.00000
    403     -27.3919      2.00000
    404     -27.3834      2.00000
    405     -27.3834      2.00000
    406     -27.3834      2.00000
    407     -27.3833      2.00000
    408     -27.3833      2.00000
    409     -27.3833      2.00000
    410     -27.3833      2.00000
    411     -27.3833      2.00000
    412     -27.3832      2.00000
    413     -27.3832      2.00000
    414     -27.3832      2.00000
    415     -27.3832      2.00000
    416     -27.3587      2.00000
    417     -27.3587      2.00000
    418     -27.3587      2.00000
    419     -27.3587      2.00000
    420     -27.3587      2.00000
    421     -27.3587      2.00000
    422     -27.3587      2.00000
    423     -27.3587      2.00000
    424     -27.3587      2.00000
    425     -27.3586      2.00000
    426     -27.3586      2.00000
    427     -27.3586      2.00000
    428     -27.3586      2.00000
    429     -27.3586      2.00000
    430     -27.3586      2.00000
    431     -27.3586      2.00000
    432     -27.3504      2.00000
    433     -27.3504      2.00000
    434     -27.3504      2.00000
    435     -27.3503      2.00000
    436     -27.3503      2.00000
    437     -27.3503      2.00000
    438     -27.3503      2.00000
    439     -27.3503      2.00000
    440     -27.3503      2.00000
    441     -27.3503      2.00000
    442     -27.3503      2.00000
    443     -27.3503      2.00000
    444     -27.3503      2.00000
    445     -27.3503      2.00000
    446     -27.3503      2.00000
    447     -27.3503      2.00000
    448     -27.3503      2.00000
    449     -27.3502      2.00000
    450     -27.3502      2.00000
    451     -27.3502      2.00000
    452     -27.3502      2.00000
    453     -27.3502      2.00000
    454     -27.3501      2.00000
    455     -27.3501      2.00000
    456     -27.3419      2.00000
    457     -27.3419      2.00000
    458     -27.3419      2.00000
    459     -27.3418      2.00000
    460     -27.3418      2.00000
    461     -27.3418      2.00000
    462     -27.3418      2.00000
    463     -27.3418      2.00000
    464     -27.3418      2.00000
    465     -27.3418      2.00000
    466     -27.3418      2.00000
    467     -27.3418      2.00000
    468     -27.3418      2.00000
    469     -27.3418      2.00000
    470     -27.3418      2.00000
    471     -27.3417      2.00000
    472     -27.3417      2.00000
    473     -27.3417      2.00000
    474     -27.3417      2.00000
    475     -27.3417      2.00000
    476     -27.3417      2.00000
    477     -27.3417      2.00000
    478     -27.3417      2.00000
    479     -27.3416      2.00000
    480     -27.3347      2.00000
    481     -27.3347      2.00000
    482     -27.3347      2.00000
    483     -27.3346      2.00000
    484     -27.3346      2.00000
    485     -27.3346      2.00000
    486     -27.3346      2.00000
    487     -27.3346      2.00000
    488     -27.3346      2.00000
    489     -27.3345      2.00000
    490     -27.3345      2.00000
    491     -27.3345      2.00000
    492     -27.2544      2.00000
    493     -27.2544      2.00000
    494     -27.2544      2.00000
    495     -27.2544      2.00000
    496     -27.2544      2.00000
    497     -27.2544      2.00000
    498     -27.2513      2.00000
    499     -27.2513      2.00000
    500     -27.2513      2.00000
    501     -27.2512      2.00000
    502     -27.2512      2.00000
    503     -27.2512      2.00000
    504     -27.2512      2.00000
    505     -27.2512      2.00000
    506     -27.2512      2.00000
    507     -27.2512      2.00000
    508     -27.2512      2.00000
    509     -27.2512      2.00000
    510     -27.2484      2.00000
    511     -27.2484      2.00000
    512     -27.2484      2.00000
    513       3.1567      2.00000
    514       4.3573      2.00000
    515       4.3574      2.00000
    516       4.3574      2.00000
    517       4.3574      2.00000
    518       4.3575      2.00000
    519       4.3576      2.00000
    520       5.3097      2.00000
    521       5.3098      2.00000
    522       5.3098      2.00000
    523       5.3098      2.00000
    524       5.3098      2.00000
    525       5.3099      2.00000
    526       5.3099      2.00000
    527       5.3099      2.00000
    528       5.3100      2.00000
    529       5.3100      2.00000
    530       5.3101      2.00000
    531       5.3101      2.00000
    532       6.2867      2.00000
    533       6.2867      2.00000
    534       6.2868      2.00000
    535       6.2868      2.00000
    536       6.2868      2.00000
    537       6.2869      2.00000
    538       6.2870      2.00000
    539       6.2870      2.00000
    540       6.5726      2.00000
    541       6.5726      2.00000
    542       6.5726      2.00000
    543       6.5726      2.00000
    544       6.5726      2.00000
    545       6.5726      2.00000
    546       6.7473      2.00000
    547       6.7473      2.00000
    548       6.8479      2.00000
    549       6.8479      2.00000
    550       6.8479      2.00000
    551       6.8479      2.00000
    552       6.8479      2.00000
    553       6.8479      2.00000
    554       6.8991      2.00000
    555       6.8991      2.00000
    556       6.8991      2.00000
    557       6.8991      2.00000
    558       6.8991      2.00000
    559       6.8991      2.00000
    560       6.8992      2.00000
    561       6.8992      2.00000
    562       6.8992      2.00000
    563       6.8992      2.00000
    564       6.8992      2.00000
    565       6.8992      2.00000
    566       6.8992      2.00000
    567       6.8992      2.00000
    568       6.8993      2.00000
    569       6.8993      2.00000
    570       6.8993      2.00000
    571       6.8993      2.00000
    572       6.8993      2.00000
    573       6.8993      2.00000
    574       6.8993      2.00000
    575       6.8993      2.00000
    576       6.8994      2.00000
    577       6.8994      2.00000
    578       7.3050      2.00000
    579       7.3050      2.00000
    580       7.3051      2.00000
    581       7.3051      2.00000
    582       7.3051      2.00000
    583       7.3052      2.00000
    584       7.4138      2.00000
    585       7.4138      2.00000
    586       7.4139      2.00000
    587       7.4139      2.00000
    588       7.4140      2.00000
    589       7.4140      2.00000
    590       7.4950      2.00000
    591       7.4950      2.00000
    592       7.4950      2.00000
    593       7.4950      2.00000
    594       7.4950      2.00000
    595       7.4951      2.00000
    596       7.4951      2.00000
    597       7.4951      2.00000
    598       7.4951      2.00000
    599       7.4952      2.00000
    600       7.4952      2.00000
    601       7.4952      2.00000
    602       7.5161      2.00000
    603       7.5161      2.00000
    604       7.5162      2.00000
    605       7.5162      2.00000
    606       7.5162      2.00000
    607       7.5162      2.00000
    608       7.5162      2.00000
    609       7.5162      2.00000
    610       7.5162      2.00000
    611       7.5162      2.00000
    612       7.5163      2.00000
    613       7.5163      2.00000
    614       7.5884      2.00000
    615       7.5884      2.00000
    616       7.5884      2.00000
    617       7.5884      2.00000
    618       7.5884      2.00000
    619       7.5884      2.00000
    620       7.5884      2.00000
    621       7.5885      2.00000
    622       7.5885      2.00000
    623       7.5885      2.00000
    624       7.5885      2.00000
    625       7.5885      2.00000
    626       7.5885      2.00000
    627       7.5885      2.00000
    628       7.5885      2.00000
    629       7.5885      2.00000
    630       7.5885      2.00000
    631       7.5885      2.00000
    632       7.5885      2.00000
    633       7.5885      2.00000
    634       7.5886      2.00000
    635       7.5886      2.00000
    636       7.5886      2.00000
    637       7.5886      2.00000
    638       8.1593      2.00000
    639       8.1594      2.00000
    640       8.1594      2.00000
    641       8.1594      2.00000
    642       8.1594      2.00000
    643       8.1594      2.00000
    644       8.1595      2.00000
    645       8.1595      2.00000
    646       8.1595      2.00000
    647       8.1595      2.00000
    648       8.1596      2.00000
    649       8.1596      2.00000
    650       8.3301      2.00000
    651       8.3301      2.00000
    652       8.3301      2.00000
    653       8.3301      2.00000
    654       8.3302      2.00000
    655       8.3302      2.00000
    656       8.3302      2.00000
    657       8.3302      2.00000
    658       8.3302      2.00000
    659       8.3302      2.00000
    660       8.3302      2.00000
    661       8.3302      2.00000
    662       8.3303      2.00000
    663       8.3303      2.00000
    664       8.3303      2.00000
    665       8.3303      2.00000
    666       8.4713      2.00000
    667       8.4713      2.00000
    668       8.4713      2.00000
    669       8.4713      2.00000
    670       8.4713      2.00000
    671       8.4713      2.00000
    672       8.4713      2.00000
    673       8.4713      2.00000
    674       8.4714      2.00000
    675       8.4714      2.00000
    676       8.4714      2.00000
    677       8.4714      2.00000
    678       8.5994      2.00000
    679       8.5994      2.00000
    680       8.5995      2.00000
    681       8.5995      2.00000
    682       8.5995      2.00000
    683       8.5995      2.00000
    684       8.5995      2.00000
    685       8.5995      2.00000
    686       8.5995      2.00000
    687       8.5995      2.00000
    688       8.5995      2.00000
    689       8.5995      2.00000
    690       8.5995      2.00000
    691       8.5995      2.00000
    692       8.5995      2.00000
    693       8.5996      2.00000
    694       8.5996      2.00000
    695       8.5996      2.00000
    696       8.5996      2.00000
    697       8.5996      2.00000
    698       8.5996      2.00000
    699       8.5996      2.00000
    700       8.5996      2.00000
    701       8.5997      2.00000
    702       8.6296      2.00000
    703       8.6296      2.00000
    704       8.6296      2.00000
    705       8.6296      2.00000
    706       8.6296      2.00000
    707       8.6296      2.00000
    708       8.6412      2.00000
    709       8.6412      2.00000
    710       8.6412      2.00000
    711       8.6412      2.00000
    712       8.6412      2.00000
    713       8.6412      2.00000
    714       8.9516      2.00000
    715       8.9516      2.00000
    716       8.9516      2.00000
    717       8.9516      2.00000
    718       8.9516      2.00000
    719       8.9516      2.00000
    720       8.9516      2.00000
    721       8.9516      2.00000
    722       9.0117      2.00000
    723       9.0117      2.00000
    724       9.0117      2.00000
    725       9.0117      2.00000
    726       9.0117      2.00000
    727       9.0117      2.00000
    728       9.0117      2.00000
    729       9.0117      2.00000
    730       9.0117      2.00000
    731       9.0118      2.00000
    732       9.0118      2.00000
    733       9.0118      2.00000
    734       9.0118      2.00000
    735       9.0118      2.00000
    736       9.0118      2.00000
    737       9.0118      2.00000
    738       9.1871      2.00039
    739       9.1871      2.00039
    740       9.1871      2.00039
    741       9.1871      2.00039
    742       9.1871      2.00039
    743       9.1871      2.00039
    744       9.2874      2.00416
    745       9.2874      2.00416
    746       9.2874      2.00416
    747       9.2874      2.00416
    748       9.2875      2.00416
    749       9.2875      2.00416
    750       9.2875      2.00416
    751       9.2875      2.00417
    752       9.2875      2.00417
    753       9.2875      2.00417
    754       9.2875      2.00417
    755       9.2875      2.00417
    756       9.2875      2.00417
    757       9.2875      2.00417
    758       9.2875      2.00417
    759       9.2876      2.00417
    760       9.2876      2.00417
    761       9.2876      2.00417
    762       9.2876      2.00417
    763       9.2876      2.00417
    764       9.2876      2.00417
    765       9.2876      2.00418
    766       9.2876      2.00418
    767       9.2876      2.00418
    768       9.3151      2.00722
    769       9.3151      2.00722
    770       9.3152      2.00723
    771       9.3152      2.00723
    772       9.3152      2.00723
    773       9.3152      2.00723
    774       9.3152      2.00723
    775       9.3152      2.00724
    776       9.3152      2.00724
    777       9.3152      2.00724
    778       9.3152      2.00724
    779       9.3153      2.00724
    780       9.3153      2.00724
    781       9.3153      2.00724
    782       9.3153      2.00724
    783       9.3153      2.00724
    784       9.3153      2.00724
    785       9.3153      2.00725
    786       9.3153      2.00725
    787       9.3154      2.00726
    788       9.3154      2.00726
    789       9.3154      2.00726
    790       9.3154      2.00726
    791       9.3154      2.00726
    792       9.3498      2.01346
    793       9.3498      2.01346
    794       9.3498      2.01346
    795       9.3498      2.01347
    796       9.3498      2.01347
    797       9.3498      2.01347
    798       9.3498      2.01347
    799       9.3498      2.01347
    800       9.3499      2.01348
    801       9.3499      2.01348
    802       9.3499      2.01348
    803       9.3499      2.01348
    804       9.4274      2.04028
    805       9.4274      2.04028
    806       9.4274      2.04028
    807       9.4274      2.04028
    808       9.4274      2.04029
    809       9.4274      2.04029
    810       9.4274      2.04029
    811       9.4274      2.04029
    812       9.4275      2.04031
    813       9.4275      2.04031
    814       9.4275      2.04031
    815       9.4275      2.04031
    816       9.4275      2.04031
    817       9.4275      2.04031
    818       9.4275      2.04032
    819       9.4275      2.04032
    820       9.4275      2.04033
    821       9.4275      2.04033
    822       9.4275      2.04033
    823       9.4275      2.04034
    824       9.4276      2.04034
    825       9.4276      2.04035
    826       9.4276      2.04035
    827       9.4276      2.04035
    828       9.7404      1.16694
    829       9.7404      1.16684
    830       9.7404      1.16677
    831       9.7404      1.16669
    832       9.7404      1.16668
    833       9.7404      1.16665
    834       9.7404      1.16658
    835       9.7404      1.16652
    836       9.7404      1.16649
    837       9.7404      1.16647
    838       9.7404      1.16646
    839       9.7405      1.16630
    840       9.8614      0.25328
    841       9.8614      0.25326
    842       9.8614      0.25314
    843       9.8615      0.25306
    844       9.8615      0.25296
    845       9.8615      0.25291
    846       9.8615      0.25289
    847       9.8615      0.25286
    848       9.8615      0.25275
    849       9.8615      0.25264
    850       9.8615      0.25257
    851       9.8616      0.25249
    852      10.1501     -0.01876
    853      10.1502     -0.01875
    854      10.1502     -0.01875
    855      10.1502     -0.01874
    856      10.1502     -0.01873
    857      10.1502     -0.01873
    858      10.1502     -0.01873
    859      10.1502     -0.01873
    860      10.1502     -0.01873
    861      10.1503     -0.01871
    862      10.1503     -0.01870
    863      10.1503     -0.01870
    864      10.1777     -0.01193
    865      10.1777     -0.01192
    866      10.1777     -0.01192
    867      10.5275     -0.00000
    868      10.5276     -0.00000
    869      10.5276     -0.00000
    870      10.5276     -0.00000
    871      10.5276     -0.00000
    872      10.5276     -0.00000
    873      10.5276     -0.00000
    874      10.5276     -0.00000
    875      10.5276     -0.00000
    876      10.5276     -0.00000
    877      10.5277     -0.00000
    878      10.5277     -0.00000
    879      10.6139     -0.00000
    880      10.6139     -0.00000
    881      10.6139     -0.00000
    882      10.6139     -0.00000
    883      10.6139     -0.00000
    884      10.6139     -0.00000
    885      10.6139     -0.00000
    886      10.6139     -0.00000
    887      10.6139     -0.00000
    888      10.6139     -0.00000
    889      10.6139     -0.00000
    890      10.6139     -0.00000
    891      10.6152     -0.00000
    892      10.6152     -0.00000
    893      10.6153     -0.00000
    894      10.6153     -0.00000
    895      10.6154     -0.00000
    896      10.6154     -0.00000
    897      11.2397     -0.00000
    898      11.2397     -0.00000
    899      11.2397     -0.00000
    900      11.2397     -0.00000
    901      11.2398     -0.00000
    902      11.2398     -0.00000
    903      11.3452     -0.00000
    904      11.3452     -0.00000
    905      11.3452     -0.00000
    906      11.3452     -0.00000
    907      11.3452     -0.00000
    908      11.3452     -0.00000
    909      11.3452     -0.00000
    910      11.3452     -0.00000
    911      11.3452     -0.00000
    912      11.3453     -0.00000
    913      11.3453     -0.00000
    914      11.3453     -0.00000
    915      11.4111     -0.00000
    916      11.4111     -0.00000
    917      11.4111     -0.00000
    918      11.4111     -0.00000
    919      11.4111     -0.00000
    920      11.4111     -0.00000
    921      11.5948     -0.00000
    922      11.5948     -0.00000
    923      11.5949     -0.00000
    924      11.5949     -0.00000
    925      11.5949     -0.00000
    926      11.5949     -0.00000
    927      11.5949     -0.00000
    928      11.5949     -0.00000
    929      11.5949     -0.00000
    930      11.5949     -0.00000
    931      11.5949     -0.00000
    932      11.5949     -0.00000
    933      11.5949     -0.00000
    934      11.5949     -0.00000
    935      11.5949     -0.00000
    936      11.5949     -0.00000
    937      11.5949     -0.00000
    938      11.5949     -0.00000
    939      11.5950     -0.00000
    940      11.5950     -0.00000
    941      11.5950     -0.00000
    942      11.5950     -0.00000
    943      11.5950     -0.00000
    944      11.5950     -0.00000
    945      11.7359     -0.00000
    946      11.7359     -0.00000
    947      11.7359     -0.00000
    948      11.7359     -0.00000
    949      11.7359     -0.00000
    950      11.7359     -0.00000
    951      11.8017     -0.00000
    952      11.8017     -0.00000
    953      11.8017     -0.00000
    954      11.8018     -0.00000
    955      11.8018     -0.00000
    956      11.8018     -0.00000
    957      11.8018     -0.00000
    958      11.8018     -0.00000
    959      11.8018     -0.00000
    960      11.8018     -0.00000
    961      11.8018     -0.00000
    962      11.8018     -0.00000
    963      11.8609     -0.00000
    964      11.8610     -0.00000
    965      11.8610     -0.00000
    966      11.8610     -0.00000
    967      11.8610     -0.00000
    968      11.8610     -0.00000
    969      11.8610     -0.00000
    970      11.8610     -0.00000
    971      11.8610     -0.00000
    972      11.8610     -0.00000
    973      11.8611     -0.00000
    974      11.8611     -0.00000
    975      11.9756     -0.00000
    976      11.9756     -0.00000
    977      11.9756     -0.00000
    978      11.9756     -0.00000
    979      11.9756     -0.00000
    980      11.9756     -0.00000
    981      11.9756     -0.00000
    982      11.9756     -0.00000
    983      11.9757     -0.00000
    984      11.9757     -0.00000
    985      11.9757     -0.00000
    986      11.9757     -0.00000
    987      11.9757     -0.00000
    988      11.9757     -0.00000
    989      11.9757     -0.00000
    990      11.9757     -0.00000
    991      11.9758     -0.00000
    992      11.9758     -0.00000
    993      11.9759     -0.00000
    994      11.9760     -0.00000
    995      11.9762     -0.00000
    996      11.9764     -0.00000
    997      11.9767     -0.00000
    998      11.9839     -0.00000
    999      12.1206     -0.00000
   1000      12.1216     -0.00000

 k-point     2 :       0.5000    0.0000    0.0000
  band No.  band energies     occupation 
      1     -53.9247      2.00000
      2     -53.9246      2.00000
      3     -53.8717      2.00000
      4     -53.8716      2.00000
      5     -53.8716      2.00000
      6     -53.8715      2.00000
      7     -53.8715      2.00000
      8     -53.8714      2.00000
      9     -53.8714      2.00000
     10     -53.8713      2.00000
     11     -53.8312      2.00000
     12     -53.8312      2.00000
     13     -53.8311      2.00000
     14     -53.8311      2.00000
     15     -53.8311      2.00000
     16     -53.8311      2.00000
     17     -53.8310      2.00000
     18     -53.8310      2.00000
     19     -53.8229      2.00000
     20     -53.8229      2.00000
     21     -53.7954      2.00000
     22     -53.7954      2.00000
     23     -53.7953      2.00000
     24     -53.7953      2.00000
     25     -53.7953      2.00000
     26     -53.7953      2.00000
     27     -53.7952      2.00000
     28     -53.7952      2.00000
     29     -53.7739      2.00000
     30     -53.7739      2.00000
     31     -53.7739      2.00000
     32     -53.7738      2.00000
     33     -53.7738      2.00000
     34     -53.7738      2.00000
     35     -53.7738      2.00000
     36     -53.7737      2.00000
     37     -53.7532      2.00000
     38     -53.7532      2.00000
     39     -53.7532      2.00000
     40     -53.7532      2.00000
     41     -53.7531      2.00000
     42     -53.7531      2.00000
     43     -53.7531      2.00000
     44     -53.7531      2.00000
     45     -53.7448      2.00000
     46     -53.7448      2.00000
     47     -53.7447      2.00000
     48     -53.7447      2.00000
     49     -53.7447      2.00000
     50     -53.7447      2.00000
     51     -53.7447      2.00000
     52     -53.7447      2.00000
     53     -53.7446      2.00000
     54     -53.7446      2.00000
     55     -53.7446      2.00000
     56     -53.7446      2.00000
     57     -53.7446      2.00000
     58     -53.7445      2.00000
     59     -53.7445      2.00000
     60     -53.7444      2.00000
     61     -53.7411      2.00000
     62     -53.7411      2.00000
     63     -53.7411      2.00000
     64     -53.7411      2.00000
     65     -53.7410      2.00000
     66     -53.7410      2.00000
     67     -53.7410      2.00000
     68     -53.7410      2.00000
     69     -53.7365      2.00000
     70     -53.7365      2.00000
     71     -53.7363      2.00000
     72     -53.7363      2.00000
     73     -53.7335      2.00000
     74     -53.7335      2.00000
     75     -53.7334      2.00000
     76     -53.7334      2.00000
     77     -53.7334      2.00000
     78     -53.7333      2.00000
     79     -53.7333      2.00000
     80     -53.7333      2.00000
     81     -53.7333      2.00000
     82     -53.7333      2.00000
     83     -53.7332      2.00000
     84     -53.7332      2.00000
     85     -53.7332      2.00000
     86     -53.7332      2.00000
     87     -53.7331      2.00000
     88     -53.7331      2.00000
     89     -53.7253      2.00000
     90     -53.7253      2.00000
     91     -53.7252      2.00000
     92     -53.7252      2.00000
     93     -53.7091      2.00000
     94     -53.7091      2.00000
     95     -53.7091      2.00000
     96     -53.7090      2.00000
     97     -53.7090      2.00000
     98     -53.7090      2.00000
     99     -53.7090      2.00000
    100     -53.7089      2.00000
    101     -53.7039      2.00000
    102     -53.7039      2.00000
    103     -53.7038      2.00000
    104     -53.7038      2.00000
    105     -53.7038      2.00000
    106     -53.7038      2.00000
    107     -53.7037      2.00000
    108     -53.7037      2.00000
    109     -53.6931      2.00000
    110     -53.6931      2.00000
    111     -53.6748      2.00000
    112     -53.6748      2.00000
    113     -53.6747      2.00000
    114     -53.6747      2.00000
    115     -53.6747      2.00000
    116     -53.6747      2.00000
    117     -53.6746      2.00000
    118     -53.6746      2.00000
    119     -53.6503      2.00000
    120     -53.6502      2.00000
    121     -53.6502      2.00000
    122     -53.6502      2.00000
    123     -53.6501      2.00000
    124     -53.6501      2.00000
    125     -53.6501      2.00000
    126     -53.6500      2.00000
    127     -53.6125      2.00000
    128     -53.6124      2.00000
    129     -28.1246      2.00000
    130     -28.1246      2.00000
    131     -28.1245      2.00000
    132     -28.1245      2.00000
    133     -28.1164      2.00000
    134     -28.1164      2.00000
    135     -28.1164      2.00000
    136     -28.1164      2.00000
    137     -28.1163      2.00000
    138     -28.1163      2.00000
    139     -28.1163      2.00000
    140     -28.1163      2.00000
    141     -28.0436      2.00000
    142     -28.0436      2.00000
    143     -28.0435      2.00000
    144     -28.0435      2.00000
    145     -28.0435      2.00000
    146     -28.0435      2.00000
    147     -28.0434      2.00000
    148     -28.0434      2.00000
    149     -28.0101      2.00000
    150     -28.0101      2.00000
    151     -28.0100      2.00000
    152     -28.0100      2.00000
    153     -28.0100      2.00000
    154     -28.0100      2.00000
    155     -28.0100      2.00000
    156     -28.0100      2.00000
    157     -28.0100      2.00000
    158     -28.0099      2.00000
    159     -28.0099      2.00000
    160     -28.0099      2.00000
    161     -28.0099      2.00000
    162     -28.0099      2.00000
    163     -28.0099      2.00000
    164     -28.0098      2.00000
    165     -27.9929      2.00000
    166     -27.9929      2.00000
    167     -27.9928      2.00000
    168     -27.9927      2.00000
    169     -27.9927      2.00000
    170     -27.9927      2.00000
    171     -27.9927      2.00000
    172     -27.9927      2.00000
    173     -27.9926      2.00000
    174     -27.9926      2.00000
    175     -27.9926      2.00000
    176     -27.9926      2.00000
    177     -27.9926      2.00000
    178     -27.9926      2.00000
    179     -27.9925      2.00000
    180     -27.9925      2.00000
    181     -27.9866      2.00000
    182     -27.9866      2.00000
    183     -27.9866      2.00000
    184     -27.9866      2.00000
    185     -27.9864      2.00000
    186     -27.9864      2.00000
    187     -27.9864      2.00000
    188     -27.9864      2.00000
    189     -27.9776      2.00000
    190     -27.9776      2.00000
    191     -27.9775      2.00000
    192     -27.9775      2.00000
    193     -27.9775      2.00000
    194     -27.9775      2.00000
    195     -27.9775      2.00000
    196     -27.9775      2.00000
    197     -27.9394      2.00000
    198     -27.9394      2.00000
    199     -27.9394      2.00000
    200     -27.9394      2.00000
    201     -27.9393      2.00000
    202     -27.9393      2.00000
    203     -27.9393      2.00000
    204     -27.9393      2.00000
    205     -27.9381      2.00000
    206     -27.9381      2.00000
    207     -27.9381      2.00000
    208     -27.9381      2.00000
    209     -27.9380      2.00000
    210     -27.9380      2.00000
    211     -27.9380      2.00000
    212     -27.9380      2.00000
    213     -27.8810      2.00000
    214     -27.8810      2.00000
    215     -27.8810      2.00000
    216     -27.8810      2.00000
    217     -27.8810      2.00000
    218     -27.8810      2.00000
    219     -27.8809      2.00000
    220     -27.8809      2.00000
    221     -27.8749      2.00000
    222     -27.8749      2.00000
    223     -27.8749      2.00000
    224     -27.8749      2.00000
    225     -27.8725      2.00000
    226     -27.8724      2.00000
    227     -27.8463      2.00000
    228     -27.8463      2.00000
    229     -27.8462      2.00000
    230     -27.8462      2.00000
    231     -27.8414      2.00000
    232     -27.8414      2.00000
    233     -27.8414      2.00000
    234     -27.8414      2.00000
    235     -27.8414      2.00000
    236     -27.8414      2.00000
    237     -27.8414      2.00000
    238     -27.8414      2.00000
    239     -27.8252      2.00000
    240     -27.8252      2.00000
    241     -27.7866      2.00000
    242     -27.7866      2.00000
    243     -27.7866      2.00000
    244     -27.7865      2.00000
    245     -27.7865      2.00000
    246     -27.7865      2.00000
    247     -27.7865      2.00000
    248     -27.7865      2.00000
    249     -27.7732      2.00000
    250     -27.7732      2.00000
    251     -27.7732      2.00000
    252     -27.7732      2.00000
    253     -27.7732      2.00000
    254     -27.7732      2.00000
    255     -27.7732      2.00000
    256     -27.7732      2.00000
    257     -27.7566      2.00000
    258     -27.7566      2.00000
    259     -27.7566      2.00000
    260     -27.7565      2.00000
    261     -27.7565      2.00000
    262     -27.7565      2.00000
    263     -27.7564      2.00000
    264     -27.7564      2.00000
    265     -27.7533      2.00000
    266     -27.7533      2.00000
    267     -27.7533      2.00000
    268     -27.7532      2.00000
    269     -27.7532      2.00000
    270     -27.7532      2.00000
    271     -27.7532      2.00000
    272     -27.7532      2.00000
    273     -27.6893      2.00000
    274     -27.6892      2.00000
    275     -27.6892      2.00000
    276     -27.6892      2.00000
    277     -27.6892      2.00000
    278     -27.6892      2.00000
    279     -27.6891      2.00000
    280     -27.6891      2.00000
    281     -27.6759      2.00000
    282     -27.6759      2.00000
    283     -27.6758      2.00000
    284     -27.6758      2.00000
    285     -27.6708      2.00000
    286     -27.6708      2.00000
    287     -27.6708      2.00000
    288     -27.6708      2.00000
    289     -27.6296      2.00000
    290     -27.6295      2.00000
    291     -27.6295      2.00000
    292     -27.6295      2.00000
    293     -27.6295      2.00000
    294     -27.6295      2.00000
    295     -27.6295      2.00000
    296     -27.6295      2.00000
    297     -27.6295      2.00000
    298     -27.6294      2.00000
    299     -27.6294      2.00000
    300     -27.6294      2.00000
    301     -27.6294      2.00000
    302     -27.6294      2.00000
    303     -27.6294      2.00000
    304     -27.6294      2.00000
    305     -27.6279      2.00000
    306     -27.6279      2.00000
    307     -27.6278      2.00000
    308     -27.6278      2.00000
    309     -27.6278      2.00000
    310     -27.6278      2.00000
    311     -27.6278      2.00000
    312     -27.6278      2.00000
    313     -27.5894      2.00000
    314     -27.5894      2.00000
    315     -27.5766      2.00000
    316     -27.5766      2.00000
    317     -27.5765      2.00000
    318     -27.5765      2.00000
    319     -27.5765      2.00000
    320     -27.5765      2.00000
    321     -27.5765      2.00000
    322     -27.5764      2.00000
    323     -27.5764      2.00000
    324     -27.5764      2.00000
    325     -27.5764      2.00000
    326     -27.5764      2.00000
    327     -27.5764      2.00000
    328     -27.5763      2.00000
    329     -27.5763      2.00000
    330     -27.5763      2.00000
    331     -27.5577      2.00000
    332     -27.5577      2.00000
    333     -27.5576      2.00000
    334     -27.5576      2.00000
    335     -27.5476      2.00000
    336     -27.5476      2.00000
    337     -27.5476      2.00000
    338     -27.5476      2.00000
    339     -27.5474      2.00000
    340     -27.5474      2.00000
    341     -27.5474      2.00000
    342     -27.5474      2.00000
    343     -27.5394      2.00000
    344     -27.5394      2.00000
    345     -27.5394      2.00000
    346     -27.5394      2.00000
    347     -27.5393      2.00000
    348     -27.5393      2.00000
    349     -27.5393      2.00000
    350     -27.5393      2.00000
    351     -27.5354      2.00000
    352     -27.5354      2.00000
    353     -27.5354      2.00000
    354     -27.5354      2.00000
    355     -27.5353      2.00000
    356     -27.5353      2.00000
    357     -27.5353      2.00000
    358     -27.5353      2.00000
    359     -27.5275      2.00000
    360     -27.5275      2.00000
    361     -27.5275      2.00000
    362     -27.5275      2.00000
    363     -27.5010      2.00000
    364     -27.5010      2.00000
    365     -27.5010      2.00000
    366     -27.5010      2.00000
    367     -27.5010      2.00000
    368     -27.5010      2.00000
    369     -27.5010      2.00000
    370     -27.5009      2.00000
    371     -27.4800      2.00000
    372     -27.4800      2.00000
    373     -27.4800      2.00000
    374     -27.4800      2.00000
    375     -27.4800      2.00000
    376     -27.4800      2.00000
    377     -27.4800      2.00000
    378     -27.4800      2.00000
    379     -27.4605      2.00000
    380     -27.4605      2.00000
    381     -27.4604      2.00000
    382     -27.4604      2.00000
    383     -27.4604      2.00000
    384     -27.4604      2.00000
    385     -27.4604      2.00000
    386     -27.4604      2.00000
    387     -27.4589      2.00000
    388     -27.4589      2.00000
    389     -27.4589      2.00000
    390     -27.4589      2.00000
    391     -27.4588      2.00000
    392     -27.4588      2.00000
    393     -27.4588      2.00000
    394     -27.4588      2.00000
    395     -27.4519      2.00000
    396     -27.4519      2.00000
    397     -27.4518      2.00000
    398     -27.4518      2.00000
    399     -27.4518      2.00000
    400     -27.4518      2.00000
    401     -27.4518      2.00000
    402     -27.4518      2.00000
    403     -27.4323      2.00000
    404     -27.4323      2.00000
    405     -27.4323      2.00000
    406     -27.4323      2.00000
    407     -27.3810      2.00000
    408     -27.3810      2.00000
    409     -27.3810      2.00000
    410     -27.3809      2.00000
    411     -27.3809      2.00000
    412     -27.3809      2.00000
    413     -27.3809      2.00000
    414     -27.3808      2.00000
    415     -27.3660      2.00000
    416     -27.3660      2.00000
    417     -27.3659      2.00000
    418     -27.3659      2.00000
    419     -27.3659      2.00000
    420     -27.3659      2.00000
    421     -27.3659      2.00000
    422     -27.3658      2.00000
    423     -27.3658      2.00000
    424     -27.3658      2.00000
    425     -27.3658      2.00000
    426     -27.3657      2.00000
    427     -27.3657      2.00000
    428     -27.3657      2.00000
    429     -27.3657      2.00000
    430     -27.3657      2.00000
    431     -27.3656      2.00000
    432     -27.3656      2.00000
    433     -27.3655      2.00000
    434     -27.3655      2.00000
    435     -27.3655      2.00000
    436     -27.3655      2.00000
    437     -27.3655      2.00000
    438     -27.3655      2.00000
    439     -27.3494      2.00000
    440     -27.3493      2.00000
    441     -27.3493      2.00000
    442     -27.3493      2.00000
    443     -27.3492      2.00000
    444     -27.3492      2.00000
    445     -27.3492      2.00000
    446     -27.3491      2.00000
    447     -27.3423      2.00000
    448     -27.3423      2.00000
    449     -27.3423      2.00000
    450     -27.3423      2.00000
    451     -27.3422      2.00000
    452     -27.3422      2.00000
    453     -27.3422      2.00000
    454     -27.3422      2.00000
    455     -27.3410      2.00000
    456     -27.3410      2.00000
    457     -27.3409      2.00000
    458     -27.3409      2.00000
    459     -27.3409      2.00000
    460     -27.3409      2.00000
    461     -27.3409      2.00000
    462     -27.3409      2.00000
    463     -27.3408      2.00000
    464     -27.3408      2.00000
    465     -27.3408      2.00000
    466     -27.3408      2.00000
    467     -27.3408      2.00000
    468     -27.3408      2.00000
    469     -27.3407      2.00000
    470     -27.3407      2.00000
    471     -27.2980      2.00000
    472     -27.2979      2.00000
    473     -27.2880      2.00000
    474     -27.2880      2.00000
    475     -27.2878      2.00000
    476     -27.2878      2.00000
    477     -27.2791      2.00000
    478     -27.2790      2.00000
    479     -27.2790      2.00000
    480     -27.2790      2.00000
    481     -27.2790      2.00000
    482     -27.2790      2.00000
    483     -27.2790      2.00000
    484     -27.2790      2.00000
    485     -27.2789      2.00000
    486     -27.2789      2.00000
    487     -27.2789      2.00000
    488     -27.2789      2.00000
    489     -27.2789      2.00000
    490     -27.2789      2.00000
    491     -27.2789      2.00000
    492     -27.2789      2.00000
    493     -27.2788      2.00000
    494     -27.2788      2.00000
    495     -27.2787      2.00000
    496     -27.2787      2.00000
    497     -27.2787      2.00000
    498     -27.2787      2.00000
    499     -27.2786      2.00000
    500     -27.2786      2.00000
    501     -27.2784      2.00000
    502     -27.2784      2.00000
    503     -27.2784      2.00000
    504     -27.2784      2.00000
    505     -27.2783      2.00000
    506     -27.2783      2.00000
    507     -27.2783      2.00000
    508     -27.2783      2.00000
    509     -27.2706      2.00000
    510     -27.2706      2.00000
    511     -27.2705      2.00000
    512     -27.2705      2.00000
    513       3.4718      2.00000
    514       3.4719      2.00000
    515       4.6178      2.00000
    516       4.6179      2.00000
    517       4.6179      2.00000
    518       4.6180      2.00000
    519       4.6181      2.00000
    520       4.6181      2.00000
    521       4.6181      2.00000
    522       4.6182      2.00000
    523       5.5808      2.00000
    524       5.5809      2.00000
    525       5.5810      2.00000
    526       5.5810      2.00000
    527       5.5810      2.00000
    528       5.5810      2.00000
    529       5.5811      2.00000
    530       5.5811      2.00000
    531       5.6179      2.00000
    532       5.6179      2.00000
    533       6.1711      2.00000
    534       6.1711      2.00000
    535       6.1712      2.00000
    536       6.1712      2.00000
    537       6.1712      2.00000
    538       6.1712      2.00000
    539       6.1713      2.00000
    540       6.1713      2.00000
    541       6.6802      2.00000
    542       6.6802      2.00000
    543       6.6802      2.00000
    544       6.6802      2.00000
    545       6.6803      2.00000
    546       6.6803      2.00000
    547       6.6803      2.00000
    548       6.6803      2.00000
    549       6.8346      2.00000
    550       6.8346      2.00000
    551       6.8347      2.00000
    552       6.8347      2.00000
    553       6.9165      2.00000
    554       6.9166      2.00000
    555       6.9219      2.00000
    556       6.9220      2.00000
    557       6.9306      2.00000
    558       6.9306      2.00000
    559       6.9306      2.00000
    560       6.9306      2.00000
    561       6.9307      2.00000
    562       6.9307      2.00000
    563       6.9307      2.00000
    564       6.9307      2.00000
    565       7.0661      2.00000
    566       7.0662      2.00000
    567       7.0662      2.00000
    568       7.0662      2.00000
    569       7.0663      2.00000
    570       7.0663      2.00000
    571       7.0663      2.00000
    572       7.0663      2.00000
    573       7.1367      2.00000
    574       7.1368      2.00000
    575       7.1368      2.00000
    576       7.1368      2.00000
    577       7.1369      2.00000
    578       7.1369      2.00000
    579       7.1369      2.00000
    580       7.1369      2.00000
    581       7.1369      2.00000
    582       7.1370      2.00000
    583       7.1370      2.00000
    584       7.1370      2.00000
    585       7.1370      2.00000
    586       7.1370      2.00000
    587       7.1371      2.00000
    588       7.1371      2.00000
    589       7.3566      2.00000
    590       7.3566      2.00000
    591       7.3567      2.00000
    592       7.3567      2.00000
    593       7.3567      2.00000
    594       7.3567      2.00000
    595       7.3567      2.00000
    596       7.3567      2.00000
    597       7.4136      2.00000
    598       7.4138      2.00000
    599       7.4138      2.00000
    600       7.4138      2.00000
    601       7.4139      2.00000
    602       7.4139      2.00000
    603       7.4139      2.00000
    604       7.4140      2.00000
    605       7.4533      2.00000
    606       7.4533      2.00000
    607       7.5869      2.00000
    608       7.5870      2.00000
    609       7.5870      2.00000
    610       7.5871      2.00000
    611       7.5871      2.00000
    612       7.5872      2.00000
    613       7.5872      2.00000
    614       7.5873      2.00000
    615       7.5962      2.00000
    616       7.5963      2.00000
    617       7.5963      2.00000
    618       7.5963      2.00000
    619       7.5963      2.00000
    620       7.5964      2.00000
    621       7.5964      2.00000
    622       7.5964      2.00000
    623       7.5964      2.00000
    624       7.5964      2.00000
    625       7.5964      2.00000
    626       7.5964      2.00000
    627       7.5964      2.00000
    628       7.5965      2.00000
    629       7.5965      2.00000
    630       7.5965      2.00000
    631       7.7426      2.00000
    632       7.7426      2.00000
    633       7.7427      2.00000
    634       7.7427      2.00000
    635       7.7427      2.00000
    636       7.7427      2.00000
    637       7.7428      2.00000
    638       7.7428      2.00000
    639       8.0896      2.00000
    640       8.0896      2.00000
    641       8.0896      2.00000
    642       8.0896      2.00000
    643       8.0896      2.00000
    644       8.0896      2.00000
    645       8.0896      2.00000
    646       8.0896      2.00000
    647       8.1970      2.00000
    648       8.1970      2.00000
    649       8.2086      2.00000
    650       8.2086      2.00000
    651       8.2087      2.00000
    652       8.2087      2.00000
    653       8.2087      2.00000
    654       8.2087      2.00000
    655       8.2088      2.00000
    656       8.2088      2.00000
    657       8.2872      2.00000
    658       8.2872      2.00000
    659       8.2873      2.00000
    660       8.2873      2.00000
    661       8.4524      2.00000
    662       8.4524      2.00000
    663       8.4524      2.00000
    664       8.4524      2.00000
    665       8.4670      2.00000
    666       8.4670      2.00000
    667       8.4670      2.00000
    668       8.4670      2.00000
    669       8.4671      2.00000
    670       8.4671      2.00000
    671       8.4671      2.00000
    672       8.4671      2.00000
    673       8.5612      2.00000
    674       8.5612      2.00000
    675       8.5612      2.00000
    676       8.5612      2.00000
    677       8.5612      2.00000
    678       8.5613      2.00000
    679       8.5613      2.00000
    680       8.5613      2.00000
    681       8.5613      2.00000
    682       8.5613      2.00000
    683       8.5613      2.00000
    684       8.5613      2.00000
    685       8.5613      2.00000
    686       8.5613      2.00000
    687       8.5614      2.00000
    688       8.5614      2.00000
    689       8.5747      2.00000
    690       8.5747      2.00000
    691       8.5748      2.00000
    692       8.5748      2.00000
    693       8.7728      2.00000
    694       8.7728      2.00000
    695       8.7728      2.00000
    696       8.7728      2.00000
    697       8.7728      2.00000
    698       8.7728      2.00000
    699       8.7728      2.00000
    700       8.7728      2.00000
    701       8.8077      2.00000
    702       8.8077      2.00000
    703       8.8077      2.00000
    704       8.8077      2.00000
    705       8.8078      2.00000
    706       8.8078      2.00000
    707       8.8078      2.00000
    708       8.8078      2.00000
    709       8.8532      2.00000
    710       8.8532      2.00000
    711       8.8533      2.00000
    712       8.8533      2.00000
    713       8.8533      2.00000
    714       8.8533      2.00000
    715       8.8533      2.00000
    716       8.8534      2.00000
    717       8.9096      2.00000
    718       8.9096      2.00000
    719       8.9096      2.00000
    720       8.9097      2.00000
    721       8.9097      2.00000
    722       8.9097      2.00000
    723       8.9097      2.00000
    724       8.9097      2.00000
    725       8.9097      2.00000
    726       8.9097      2.00000
    727       8.9097      2.00000
    728       8.9097      2.00000
    729       8.9097      2.00000
    730       8.9097      2.00000
    731       8.9098      2.00000
    732       8.9098      2.00000
    733       8.9872      2.00000
    734       8.9872      2.00000
    735       8.9872      2.00000
    736       8.9872      2.00000
    737       8.9872      2.00000
    738       8.9872      2.00000
    739       8.9872      2.00000
    740       8.9872      2.00000
    741       9.0713      2.00001
    742       9.0713      2.00001
    743       9.0713      2.00001
    744       9.0713      2.00001
    745       9.0714      2.00001
    746       9.0714      2.00001
    747       9.0714      2.00001
    748       9.0714      2.00001
    749       9.1095      2.00004
    750       9.1095      2.00004
    751       9.1095      2.00004
    752       9.1095      2.00004
    753       9.1400      2.00011
    754       9.1400      2.00011
    755       9.1400      2.00011
    756       9.1400      2.00011
    757       9.1400      2.00011
    758       9.1401      2.00011
    759       9.1401      2.00011
    760       9.1401      2.00011
    761       9.1806      2.00033
    762       9.1806      2.00033
    763       9.1807      2.00033
    764       9.1807      2.00033
    765       9.1807      2.00033
    766       9.1807      2.00033
    767       9.1807      2.00033
    768       9.1807      2.00033
    769       9.2473      2.00173
    770       9.2473      2.00173
    771       9.2474      2.00173
    772       9.2474      2.00173
    773       9.2474      2.00173
    774       9.2474      2.00173
    775       9.2475      2.00173
    776       9.2475      2.00173
    777       9.4302      2.04154
    778       9.4302      2.04154
    779       9.4302      2.04155
    780       9.4302      2.04155
    781       9.4303      2.04157
    782       9.4303      2.04158
    783       9.4303      2.04159
    784       9.4303      2.04159
    785       9.5039      2.06999
    786       9.5039      2.07000
    787       9.5039      2.07000
    788       9.5039      2.07000
    789       9.5039      2.07000
    790       9.5039      2.07000
    791       9.5040      2.07001
    792       9.5040      2.07001
    793       9.5040      2.07001
    794       9.5040      2.07001
    795       9.5040      2.07001
    796       9.5040      2.07002
    797       9.5040      2.07002
    798       9.5040      2.07002
    799       9.5041      2.07002
    800       9.5041      2.07003
    801       9.5134      2.07089
    802       9.5134      2.07089
    803       9.5134      2.07089
    804       9.5134      2.07089
    805       9.5134      2.07089
    806       9.5134      2.07089
    807       9.5134      2.07089
    808       9.5134      2.07089
    809       9.5134      2.07089
    810       9.5134      2.07089
    811       9.5134      2.07089
    812       9.5134      2.07089
    813       9.5134      2.07089
    814       9.5134      2.07089
    815       9.5134      2.07089
    816       9.5135      2.07089
    817       9.6753      1.65160
    818       9.6753      1.65158
    819       9.6754      1.65143
    820       9.6754      1.65141
    821       9.6754      1.65140
    822       9.6754      1.65138
    823       9.6754      1.65122
    824       9.6754      1.65121
    825       9.7528      1.06294
    826       9.7528      1.06255
    827       9.7528      1.06244
    828       9.7529      1.06229
    829       9.7529      1.06215
    830       9.7529      1.06207
    831       9.7529      1.06186
    832       9.7529      1.06163
    833       9.7755      0.87149
    834       9.7755      0.87147
    835       9.7755      0.87119
    836       9.7755      0.87113
    837       9.7755      0.87108
    838       9.7755      0.87106
    839       9.7755      0.87078
    840       9.7755      0.87073
    841       9.8123      0.57530
    842       9.8123      0.57528
    843       9.8123      0.57524
    844       9.8123      0.57521
    845       9.8124      0.57496
    846       9.8124      0.57494
    847       9.8124      0.57489
    848       9.8124      0.57488
    849       9.9568     -0.04656
    850       9.9569     -0.04659
    851       9.9569     -0.04661
    852       9.9569     -0.04664
    853       9.9569     -0.04665
    854       9.9569     -0.04668
    855       9.9569     -0.04669
    856       9.9570     -0.04673
    857      10.0546     -0.05778
    858      10.0546     -0.05778
    859      10.0546     -0.05778
    860      10.0546     -0.05778
    861      10.0546     -0.05776
    862      10.0546     -0.05776
    863      10.0546     -0.05776
    864      10.0546     -0.05776
    865      10.1584     -0.01647
    866      10.1584     -0.01647
    867      10.1585     -0.01645
    868      10.1585     -0.01645
    869      10.2591     -0.00238
    870      10.2591     -0.00238
    871      10.2667     -0.00200
    872      10.2667     -0.00200
    873      10.2667     -0.00200
    874      10.2667     -0.00200
    875      10.2901     -0.00116
    876      10.2902     -0.00115
    877      10.4993     -0.00000
    878      10.4993     -0.00000
    879      10.4993     -0.00000
    880      10.4993     -0.00000
    881      10.4993     -0.00000
    882      10.4993     -0.00000
    883      10.4993     -0.00000
    884      10.4993     -0.00000
    885      10.8018     -0.00000
    886      10.8018     -0.00000
    887      10.8019     -0.00000
    888      10.8019     -0.00000
    889      10.9844     -0.00000
    890      10.9844     -0.00000
    891      10.9844     -0.00000
    892      10.9844     -0.00000
    893      10.9845     -0.00000
    894      10.9845     -0.00000
    895      10.9845     -0.00000
    896      10.9845     -0.00000
    897      11.1046     -0.00000
    898      11.1046     -0.00000
    899      11.1046     -0.00000
    900      11.1047     -0.00000
    901      11.1047     -0.00000
    902      11.1047     -0.00000
    903      11.1047     -0.00000
    904      11.1047     -0.00000
    905      11.1175     -0.00000
    906      11.1175     -0.00000
    907      11.2435     -0.00000
    908      11.2435     -0.00000
    909      11.2435     -0.00000
    910      11.2435     -0.00000
    911      11.3231     -0.00000
    912      11.3231     -0.00000
    913      11.3231     -0.00000
    914      11.3231     -0.00000
    915      11.3231     -0.00000
    916      11.3231     -0.00000
    917      11.3231     -0.00000
    918      11.3231     -0.00000
    919      11.4546     -0.00000
    920      11.4546     -0.00000
    921      11.4546     -0.00000
    922      11.4547     -0.00000
    923      11.4547     -0.00000
    924      11.4547     -0.00000
    925      11.4547     -0.00000
    926      11.4547     -0.00000
    927      11.5162     -0.00000
    928      11.5163     -0.00000
    929      11.5163     -0.00000
    930      11.5163     -0.00000
    931      11.5163     -0.00000
    932      11.5164     -0.00000
    933      11.5164     -0.00000
    934      11.5164     -0.00000
    935      11.6753     -0.00000
    936      11.6753     -0.00000
    937      11.6754     -0.00000
    938      11.6754     -0.00000
    939      11.6754     -0.00000
    940      11.6754     -0.00000
    941      11.6754     -0.00000
    942      11.6754     -0.00000
    943      11.6754     -0.00000
    944      11.6754     -0.00000
    945      11.6755     -0.00000
    946      11.6755     -0.00000
    947      11.6755     -0.00000
    948      11.6755     -0.00000
    949      11.6755     -0.00000
    950      11.6755     -0.00000
    951      11.7466     -0.00000
    952      11.7466     -0.00000
    953      11.7466     -0.00000
    954      11.7466     -0.00000
    955      11.7466     -0.00000
    956      11.7466     -0.00000
    957      11.7467     -0.00000
    958      11.7467     -0.00000
    959      11.8021     -0.00000
    960      11.8021     -0.00000
    961      11.8021     -0.00000
    962      11.8021     -0.00000
    963      11.8021     -0.00000
    964      11.8022     -0.00000
    965      11.8022     -0.00000
    966      11.8022     -0.00000
    967      11.9337     -0.00000
    968      11.9338     -0.00000
    969      11.9421     -0.00000
    970      11.9421     -0.00000
    971      11.9422     -0.00000
    972      11.9422     -0.00000
    973      11.9422     -0.00000
    974      11.9423     -0.00000
    975      11.9424     -0.00000
    976      11.9424     -0.00000
    977      11.9600     -0.00000
    978      11.9600     -0.00000
    979      11.9600     -0.00000
    980      11.9600     -0.00000
    981      11.9601     -0.00000
    982      11.9601     -0.00000
    983      11.9601     -0.00000
    984      11.9605     -0.00000
    985      12.0382     -0.00000
    986      12.0384     -0.00000
    987      12.0388     -0.00000
    988      12.0393     -0.00000
    989      12.0396     -0.00000
    990      12.0421     -0.00000
    991      12.0438     -0.00000
    992      12.0479     -0.00000
    993      12.0705     -0.00000
    994      12.0707     -0.00000
    995      12.0712     -0.00000
    996      12.0720     -0.00000
    997      12.0736     -0.00000
    998      12.0783     -0.00000
    999      12.0824     -0.00000
   1000      12.0880     -0.00000

 k-point     3 :       0.5000    0.5000    0.0000
  band No.  band energies     occupation 
      1     -53.9111      2.00000
      2     -53.9109      2.00000
      3     -53.9107      2.00000
      4     -53.9106      2.00000
      5     -53.8611      2.00000
      6     -53.8610      2.00000
      7     -53.8610      2.00000
      8     -53.8608      2.00000
      9     -53.8607      2.00000
     10     -53.8606      2.00000
     11     -53.8606      2.00000
     12     -53.8605      2.00000
     13     -53.8156      2.00000
     14     -53.8156      2.00000
     15     -53.8155      2.00000
     16     -53.8155      2.00000
     17     -53.8154      2.00000
     18     -53.8154      2.00000
     19     -53.8153      2.00000
     20     -53.8153      2.00000
     21     -53.7898      2.00000
     22     -53.7898      2.00000
     23     -53.7897      2.00000
     24     -53.7897      2.00000
     25     -53.7897      2.00000
     26     -53.7897      2.00000
     27     -53.7896      2.00000
     28     -53.7896      2.00000
     29     -53.7896      2.00000
     30     -53.7896      2.00000
     31     -53.7895      2.00000
     32     -53.7895      2.00000
     33     -53.7895      2.00000
     34     -53.7894      2.00000
     35     -53.7894      2.00000
     36     -53.7893      2.00000
     37     -53.7683      2.00000
     38     -53.7683      2.00000
     39     -53.7683      2.00000
     40     -53.7683      2.00000
     41     -53.7530      2.00000
     42     -53.7530      2.00000
     43     -53.7529      2.00000
     44     -53.7529      2.00000
     45     -53.7529      2.00000
     46     -53.7529      2.00000
     47     -53.7528      2.00000
     48     -53.7528      2.00000
     49     -53.7511      2.00000
     50     -53.7511      2.00000
     51     -53.7510      2.00000
     52     -53.7510      2.00000
     53     -53.7508      2.00000
     54     -53.7507      2.00000
     55     -53.7507      2.00000
     56     -53.7507      2.00000
     57     -53.7390      2.00000
     58     -53.7390      2.00000
     59     -53.7390      2.00000
     60     -53.7390      2.00000
     61     -53.7389      2.00000
     62     -53.7389      2.00000
     63     -53.7389      2.00000
     64     -53.7388      2.00000
     65     -53.7387      2.00000
     66     -53.7386      2.00000
     67     -53.7386      2.00000
     68     -53.7386      2.00000
     69     -53.7386      2.00000
     70     -53.7385      2.00000
     71     -53.7385      2.00000
     72     -53.7385      2.00000
     73     -53.7279      2.00000
     74     -53.7279      2.00000
     75     -53.7278      2.00000
     76     -53.7277      2.00000
     77     -53.7275      2.00000
     78     -53.7275      2.00000
     79     -53.7274      2.00000
     80     -53.7274      2.00000
     81     -53.7190      2.00000
     82     -53.7190      2.00000
     83     -53.7190      2.00000
     84     -53.7189      2.00000
     85     -53.7180      2.00000
     86     -53.7180      2.00000
     87     -53.7180      2.00000
     88     -53.7180      2.00000
     89     -53.7179      2.00000
     90     -53.7179      2.00000
     91     -53.7179      2.00000
     92     -53.7178      2.00000
     93     -53.7052      2.00000
     94     -53.7052      2.00000
     95     -53.7051      2.00000
     96     -53.7051      2.00000
     97     -53.7051      2.00000
     98     -53.7051      2.00000
     99     -53.7050      2.00000
    100     -53.7050      2.00000
    101     -53.7050      2.00000
    102     -53.7049      2.00000
    103     -53.7049      2.00000
    104     -53.7048      2.00000
    105     -53.7048      2.00000
    106     -53.7048      2.00000
    107     -53.7047      2.00000
    108     -53.7047      2.00000
    109     -53.6957      2.00000
    110     -53.6957      2.00000
    111     -53.6956      2.00000
    112     -53.6956      2.00000
    113     -53.6955      2.00000
    114     -53.6955      2.00000
    115     -53.6954      2.00000
    116     -53.6954      2.00000
    117     -53.6564      2.00000
    118     -53.6563      2.00000
    119     -53.6562      2.00000
    120     -53.6561      2.00000
    121     -53.6560      2.00000
    122     -53.6559      2.00000
    123     -53.6559      2.00000
    124     -53.6558      2.00000
    125     -53.6223      2.00000
    126     -53.6222      2.00000
    127     -53.6220      2.00000
    128     -53.6219      2.00000
    129     -28.1183      2.00000
    130     -28.1183      2.00000
    131     -28.1183      2.00000
    132     -28.1183      2.00000
    133     -28.0878      2.00000
    134     -28.0878      2.00000
    135     -28.0878      2.00000
    136     -28.0878      2.00000
    137     -28.0877      2.00000
    138     -28.0877      2.00000
    139     -28.0877      2.00000
    140     -28.0877      2.00000
    141     -28.0875      2.00000
    142     -28.0874      2.00000
    143     -28.0874      2.00000
    144     -28.0874      2.00000
    145     -28.0874      2.00000
    146     -28.0874      2.00000
    147     -28.0873      2.00000
    148     -28.0873      2.00000
    149     -28.0311      2.00000
    150     -28.0311      2.00000
    151     -28.0311      2.00000
    152     -28.0310      2.00000
    153     -28.0213      2.00000
    154     -28.0213      2.00000
    155     -28.0213      2.00000
    156     -28.0213      2.00000
    157     -28.0212      2.00000
    158     -28.0212      2.00000
    159     -28.0212      2.00000
    160     -28.0212      2.00000
    161     -28.0211      2.00000
    162     -28.0211      2.00000
    163     -28.0211      2.00000
    164     -28.0211      2.00000
    165     -28.0210      2.00000
    166     -28.0210      2.00000
    167     -28.0209      2.00000
    168     -28.0209      2.00000
    169     -27.9884      2.00000
    170     -27.9884      2.00000
    171     -27.9883      2.00000
    172     -27.9883      2.00000
    173     -27.9883      2.00000
    174     -27.9883      2.00000
    175     -27.9882      2.00000
    176     -27.9882      2.00000
    177     -27.9880      2.00000
    178     -27.9880      2.00000
    179     -27.9879      2.00000
    180     -27.9879      2.00000
    181     -27.9879      2.00000
    182     -27.9879      2.00000
    183     -27.9878      2.00000
    184     -27.9878      2.00000
    185     -27.9413      2.00000
    186     -27.9412      2.00000
    187     -27.9412      2.00000
    188     -27.9412      2.00000
    189     -27.9410      2.00000
    190     -27.9410      2.00000
    191     -27.9410      2.00000
    192     -27.9409      2.00000
    193     -27.9206      2.00000
    194     -27.9206      2.00000
    195     -27.9206      2.00000
    196     -27.9206      2.00000
    197     -27.9206      2.00000
    198     -27.9205      2.00000
    199     -27.9205      2.00000
    200     -27.9205      2.00000
    201     -27.9168      2.00000
    202     -27.9168      2.00000
    203     -27.9167      2.00000
    204     -27.9167      2.00000
    205     -27.9166      2.00000
    206     -27.9166      2.00000
    207     -27.9165      2.00000
    208     -27.9165      2.00000
    209     -27.9142      2.00000
    210     -27.9142      2.00000
    211     -27.9142      2.00000
    212     -27.9142      2.00000
    213     -27.8959      2.00000
    214     -27.8959      2.00000
    215     -27.8958      2.00000
    216     -27.8958      2.00000
    217     -27.8958      2.00000
    218     -27.8958      2.00000
    219     -27.8957      2.00000
    220     -27.8957      2.00000
    221     -27.8957      2.00000
    222     -27.8957      2.00000
    223     -27.8956      2.00000
    224     -27.8956      2.00000
    225     -27.8956      2.00000
    226     -27.8956      2.00000
    227     -27.8955      2.00000
    228     -27.8955      2.00000
    229     -27.8881      2.00000
    230     -27.8881      2.00000
    231     -27.8881      2.00000
    232     -27.8880      2.00000
    233     -27.8879      2.00000
    234     -27.8879      2.00000
    235     -27.8878      2.00000
    236     -27.8878      2.00000
    237     -27.8231      2.00000
    238     -27.8229      2.00000
    239     -27.8227      2.00000
    240     -27.8226      2.00000
    241     -27.8120      2.00000
    242     -27.8120      2.00000
    243     -27.8120      2.00000
    244     -27.8119      2.00000
    245     -27.8119      2.00000
    246     -27.8119      2.00000
    247     -27.8118      2.00000
    248     -27.8118      2.00000
    249     -27.7837      2.00000
    250     -27.7837      2.00000
    251     -27.7837      2.00000
    252     -27.7837      2.00000
    253     -27.7407      2.00000
    254     -27.7407      2.00000
    255     -27.7407      2.00000
    256     -27.7407      2.00000
    257     -27.7406      2.00000
    258     -27.7406      2.00000
    259     -27.7406      2.00000
    260     -27.7406      2.00000
    261     -27.7053      2.00000
    262     -27.7053      2.00000
    263     -27.7052      2.00000
    264     -27.7052      2.00000
    265     -27.7052      2.00000
    266     -27.7052      2.00000
    267     -27.7051      2.00000
    268     -27.7051      2.00000
    269     -27.6919      2.00000
    270     -27.6919      2.00000
    271     -27.6918      2.00000
    272     -27.6918      2.00000
    273     -27.6918      2.00000
    274     -27.6918      2.00000
    275     -27.6918      2.00000
    276     -27.6918      2.00000
    277     -27.6918      2.00000
    278     -27.6918      2.00000
    279     -27.6917      2.00000
    280     -27.6917      2.00000
    281     -27.6917      2.00000
    282     -27.6917      2.00000
    283     -27.6916      2.00000
    284     -27.6916      2.00000
    285     -27.6783      2.00000
    286     -27.6783      2.00000
    287     -27.6783      2.00000
    288     -27.6783      2.00000
    289     -27.6783      2.00000
    290     -27.6782      2.00000
    291     -27.6782      2.00000
    292     -27.6782      2.00000
    293     -27.6594      2.00000
    294     -27.6594      2.00000
    295     -27.6593      2.00000
    296     -27.6593      2.00000
    297     -27.6592      2.00000
    298     -27.6592      2.00000
    299     -27.6591      2.00000
    300     -27.6591      2.00000
    301     -27.6105      2.00000
    302     -27.6105      2.00000
    303     -27.6105      2.00000
    304     -27.6105      2.00000
    305     -27.6103      2.00000
    306     -27.6103      2.00000
    307     -27.6103      2.00000
    308     -27.6103      2.00000
    309     -27.6052      2.00000
    310     -27.6052      2.00000
    311     -27.6052      2.00000
    312     -27.6051      2.00000
    313     -27.6051      2.00000
    314     -27.6051      2.00000
    315     -27.6051      2.00000
    316     -27.6050      2.00000
    317     -27.5837      2.00000
    318     -27.5837      2.00000
    319     -27.5837      2.00000
    320     -27.5837      2.00000
    321     -27.5776      2.00000
    322     -27.5776      2.00000
    323     -27.5776      2.00000
    324     -27.5776      2.00000
    325     -27.5775      2.00000
    326     -27.5775      2.00000
    327     -27.5775      2.00000
    328     -27.5775      2.00000
    329     -27.5723      2.00000
    330     -27.5723      2.00000
    331     -27.5723      2.00000
    332     -27.5723      2.00000
    333     -27.5722      2.00000
    334     -27.5722      2.00000
    335     -27.5722      2.00000
    336     -27.5722      2.00000
    337     -27.5645      2.00000
    338     -27.5645      2.00000
    339     -27.5645      2.00000
    340     -27.5645      2.00000
    341     -27.5644      2.00000
    342     -27.5644      2.00000
    343     -27.5644      2.00000
    344     -27.5644      2.00000
    345     -27.5642      2.00000
    346     -27.5642      2.00000
    347     -27.5642      2.00000
    348     -27.5642      2.00000
    349     -27.5641      2.00000
    350     -27.5641      2.00000
    351     -27.5641      2.00000
    352     -27.5641      2.00000
    353     -27.5248      2.00000
    354     -27.5248      2.00000
    355     -27.5248      2.00000
    356     -27.5248      2.00000
    357     -27.5247      2.00000
    358     -27.5247      2.00000
    359     -27.5247      2.00000
    360     -27.5247      2.00000
    361     -27.4920      2.00000
    362     -27.4920      2.00000
    363     -27.4919      2.00000
    364     -27.4919      2.00000
    365     -27.4665      2.00000
    366     -27.4665      2.00000
    367     -27.4664      2.00000
    368     -27.4664      2.00000
    369     -27.4664      2.00000
    370     -27.4664      2.00000
    371     -27.4663      2.00000
    372     -27.4663      2.00000
    373     -27.4663      2.00000
    374     -27.4663      2.00000
    375     -27.4662      2.00000
    376     -27.4662      2.00000
    377     -27.4662      2.00000
    378     -27.4662      2.00000
    379     -27.4661      2.00000
    380     -27.4661      2.00000
    381     -27.4622      2.00000
    382     -27.4622      2.00000
    383     -27.4621      2.00000
    384     -27.4621      2.00000
    385     -27.4620      2.00000
    386     -27.4620      2.00000
    387     -27.4620      2.00000
    388     -27.4620      2.00000
    389     -27.4391      2.00000
    390     -27.4391      2.00000
    391     -27.4390      2.00000
    392     -27.4389      2.00000
    393     -27.4388      2.00000
    394     -27.4388      2.00000
    395     -27.4387      2.00000
    396     -27.4387      2.00000
    397     -27.4111      2.00000
    398     -27.4111      2.00000
    399     -27.4110      2.00000
    400     -27.4110      2.00000
    401     -27.4110      2.00000
    402     -27.4110      2.00000
    403     -27.4110      2.00000
    404     -27.4110      2.00000
    405     -27.4109      2.00000
    406     -27.4109      2.00000
    407     -27.4109      2.00000
    408     -27.4109      2.00000
    409     -27.4108      2.00000
    410     -27.4108      2.00000
    411     -27.4108      2.00000
    412     -27.4108      2.00000
    413     -27.4074      2.00000
    414     -27.4074      2.00000
    415     -27.4074      2.00000
    416     -27.4074      2.00000
    417     -27.4073      2.00000
    418     -27.4073      2.00000
    419     -27.4072      2.00000
    420     -27.4072      2.00000
    421     -27.3872      2.00000
    422     -27.3872      2.00000
    423     -27.3872      2.00000
    424     -27.3872      2.00000
    425     -27.3760      2.00000
    426     -27.3760      2.00000
    427     -27.3760      2.00000
    428     -27.3760      2.00000
    429     -27.3759      2.00000
    430     -27.3759      2.00000
    431     -27.3759      2.00000
    432     -27.3759      2.00000
    433     -27.3548      2.00000
    434     -27.3548      2.00000
    435     -27.3547      2.00000
    436     -27.3547      2.00000
    437     -27.3547      2.00000
    438     -27.3547      2.00000
    439     -27.3546      2.00000
    440     -27.3546      2.00000
    441     -27.3530      2.00000
    442     -27.3530      2.00000
    443     -27.3530      2.00000
    444     -27.3530      2.00000
    445     -27.3530      2.00000
    446     -27.3529      2.00000
    447     -27.3529      2.00000
    448     -27.3529      2.00000
    449     -27.3480      2.00000
    450     -27.3480      2.00000
    451     -27.3480      2.00000
    452     -27.3480      2.00000
    453     -27.3417      2.00000
    454     -27.3417      2.00000
    455     -27.3417      2.00000
    456     -27.3417      2.00000
    457     -27.3416      2.00000
    458     -27.3416      2.00000
    459     -27.3416      2.00000
    460     -27.3416      2.00000
    461     -27.3008      2.00000
    462     -27.3008      2.00000
    463     -27.3008      2.00000
    464     -27.3008      2.00000
    465     -27.3007      2.00000
    466     -27.3007      2.00000
    467     -27.3007      2.00000
    468     -27.3007      2.00000
    469     -27.3005      2.00000
    470     -27.3005      2.00000
    471     -27.3004      2.00000
    472     -27.3004      2.00000
    473     -27.3004      2.00000
    474     -27.3004      2.00000
    475     -27.3004      2.00000
    476     -27.3004      2.00000
    477     -27.2961      2.00000
    478     -27.2961      2.00000
    479     -27.2961      2.00000
    480     -27.2961      2.00000
    481     -27.2960      2.00000
    482     -27.2960      2.00000
    483     -27.2960      2.00000
    484     -27.2960      2.00000
    485     -27.2959      2.00000
    486     -27.2959      2.00000
    487     -27.2959      2.00000
    488     -27.2959      2.00000
    489     -27.2958      2.00000
    490     -27.2958      2.00000
    491     -27.2958      2.00000
    492     -27.2958      2.00000
    493     -27.2912      2.00000
    494     -27.2911      2.00000
    495     -27.2909      2.00000
    496     -27.2908      2.00000
    497     -27.2814      2.00000
    498     -27.2814      2.00000
    499     -27.2813      2.00000
    500     -27.2813      2.00000
    501     -27.2812      2.00000
    502     -27.2812      2.00000
    503     -27.2812      2.00000
    504     -27.2812      2.00000
    505     -27.2536      2.00000
    506     -27.2536      2.00000
    507     -27.2536      2.00000
    508     -27.2536      2.00000
    509     -27.2492      2.00000
    510     -27.2491      2.00000
    511     -27.2491      2.00000
    512     -27.2491      2.00000
    513       3.7742      2.00000
    514       3.7743      2.00000
    515       3.7746      2.00000
    516       3.7747      2.00000
    517       4.8820      2.00000
    518       4.8821      2.00000
    519       4.8821      2.00000
    520       4.8823      2.00000
    521       4.8824      2.00000
    522       4.8825      2.00000
    523       4.8825      2.00000
    524       4.8826      2.00000
    525       5.7966      2.00000
    526       5.7966      2.00000
    527       5.7967      2.00000
    528       5.7967      2.00000
    529       5.7968      2.00000
    530       5.7968      2.00000
    531       5.7969      2.00000
    532       5.7970      2.00000
    533       6.4336      2.00000
    534       6.4337      2.00000
    535       6.4338      2.00000
    536       6.4338      2.00000
    537       6.4338      2.00000
    538       6.4338      2.00000
    539       6.4339      2.00000
    540       6.4339      2.00000
    541       6.4339      2.00000
    542       6.4339      2.00000
    543       6.4340      2.00000
    544       6.4340      2.00000
    545       6.4340      2.00000
    546       6.4340      2.00000
    547       6.4341      2.00000
    548       6.4341      2.00000
    549       6.4565      2.00000
    550       6.4565      2.00000
    551       6.4565      2.00000
    552       6.4565      2.00000
    553       6.9404      2.00000
    554       6.9404      2.00000
    555       6.9405      2.00000
    556       6.9405      2.00000
    557       6.9406      2.00000
    558       6.9406      2.00000
    559       6.9406      2.00000
    560       6.9406      2.00000
    561       6.9408      2.00000
    562       6.9408      2.00000
    563       6.9408      2.00000
    564       6.9408      2.00000
    565       6.9409      2.00000
    566       6.9409      2.00000
    567       6.9409      2.00000
    568       6.9409      2.00000
    569       6.9898      2.00000
    570       6.9899      2.00000
    571       6.9899      2.00000
    572       6.9899      2.00000
    573       7.0625      2.00000
    574       7.0626      2.00000
    575       7.0629      2.00000
    576       7.0630      2.00000
    577       7.0682      2.00000
    578       7.0682      2.00000
    579       7.0684      2.00000
    580       7.0684      2.00000
    581       7.0686      2.00000
    582       7.0686      2.00000
    583       7.0687      2.00000
    584       7.0687      2.00000
    585       7.1092      2.00000
    586       7.1093      2.00000
    587       7.1095      2.00000
    588       7.1096      2.00000
    589       7.4990      2.00000
    590       7.4990      2.00000
    591       7.4990      2.00000
    592       7.4990      2.00000
    593       7.4991      2.00000
    594       7.4991      2.00000
    595       7.4991      2.00000
    596       7.4992      2.00000
    597       7.5291      2.00000
    598       7.5291      2.00000
    599       7.5292      2.00000
    600       7.5292      2.00000
    601       7.5293      2.00000
    602       7.5293      2.00000
    603       7.5294      2.00000
    604       7.5294      2.00000
    605       7.6086      2.00000
    606       7.6086      2.00000
    607       7.6086      2.00000
    608       7.6086      2.00000
    609       7.6087      2.00000
    610       7.6087      2.00000
    611       7.6087      2.00000
    612       7.6088      2.00000
    613       7.6088      2.00000
    614       7.6088      2.00000
    615       7.6089      2.00000
    616       7.6089      2.00000
    617       7.6089      2.00000
    618       7.6089      2.00000
    619       7.6090      2.00000
    620       7.6090      2.00000
    621       7.6408      2.00000
    622       7.6409      2.00000
    623       7.6410      2.00000
    624       7.6411      2.00000
    625       7.6412      2.00000
    626       7.6413      2.00000
    627       7.6413      2.00000
    628       7.6414      2.00000
    629       7.6503      2.00000
    630       7.6504      2.00000
    631       7.6504      2.00000
    632       7.6505      2.00000
    633       7.6506      2.00000
    634       7.6507      2.00000
    635       7.6508      2.00000
    636       7.6509      2.00000
    637       7.8082      2.00000
    638       7.8083      2.00000
    639       7.8083      2.00000
    640       7.8083      2.00000
    641       7.8083      2.00000
    642       7.8084      2.00000
    643       7.8084      2.00000
    644       7.8084      2.00000
    645       8.1415      2.00000
    646       8.1415      2.00000
    647       8.1416      2.00000
    648       8.1416      2.00000
    649       8.1416      2.00000
    650       8.1416      2.00000
    651       8.1416      2.00000
    652       8.1416      2.00000
    653       8.2693      2.00000
    654       8.2694      2.00000
    655       8.2695      2.00000
    656       8.2695      2.00000
    657       8.2696      2.00000
    658       8.2696      2.00000
    659       8.2697      2.00000
    660       8.2697      2.00000
    661       8.5903      2.00000
    662       8.5903      2.00000
    663       8.5903      2.00000
    664       8.5903      2.00000
    665       8.5904      2.00000
    666       8.5904      2.00000
    667       8.5904      2.00000
    668       8.5904      2.00000
    669       8.6049      2.00000
    670       8.6049      2.00000
    671       8.6049      2.00000
    672       8.6049      2.00000
    673       8.6049      2.00000
    674       8.6050      2.00000
    675       8.6050      2.00000
    676       8.6050      2.00000
    677       8.6695      2.00000
    678       8.6695      2.00000
    679       8.6695      2.00000
    680       8.6696      2.00000
    681       8.6696      2.00000
    682       8.6696      2.00000
    683       8.6696      2.00000
    684       8.6696      2.00000
    685       8.7124      2.00000
    686       8.7124      2.00000
    687       8.7125      2.00000
    688       8.7125      2.00000
    689       8.7125      2.00000
    690       8.7125      2.00000
    691       8.7126      2.00000
    692       8.7126      2.00000
    693       8.7126      2.00000
    694       8.7126      2.00000
    695       8.7127      2.00000
    696       8.7127      2.00000
    697       8.7127      2.00000
    698       8.7127      2.00000
    699       8.7128      2.00000
    700       8.7128      2.00000
    701       8.7176      2.00000
    702       8.7176      2.00000
    703       8.7176      2.00000
    704       8.7177      2.00000
    705       8.7178      2.00000
    706       8.7178      2.00000
    707       8.7178      2.00000
    708       8.7178      2.00000
    709       8.7180      2.00000
    710       8.7180      2.00000
    711       8.7180      2.00000
    712       8.7180      2.00000
    713       8.7181      2.00000
    714       8.7181      2.00000
    715       8.7181      2.00000
    716       8.7181      2.00000
    717       8.8311      2.00000
    718       8.8311      2.00000
    719       8.8311      2.00000
    720       8.8312      2.00000
    721       8.8766      2.00000
    722       8.8766      2.00000
    723       8.8767      2.00000
    724       8.8767      2.00000
    725       8.8769      2.00000
    726       8.8769      2.00000
    727       8.8770      2.00000
    728       8.8770      2.00000
    729       9.0106      2.00000
    730       9.0106      2.00000
    731       9.0107      2.00000
    732       9.0107      2.00000
    733       9.0109      2.00000
    734       9.0109      2.00000
    735       9.0110      2.00000
    736       9.0110      2.00000
    737       9.0342      2.00000
    738       9.0342      2.00000
    739       9.0342      2.00000
    740       9.0342      2.00000
    741       9.0343      2.00000
    742       9.0343      2.00000
    743       9.0343      2.00000
    744       9.0343      2.00000
    745       9.0343      2.00000
    746       9.0343      2.00000
    747       9.0344      2.00000
    748       9.0344      2.00000
    749       9.0344      2.00000
    750       9.0344      2.00000
    751       9.0345      2.00000
    752       9.0345      2.00000
    753       9.0909      2.00002
    754       9.0909      2.00002
    755       9.0909      2.00002
    756       9.0910      2.00002
    757       9.0910      2.00002
    758       9.0910      2.00002
    759       9.0910      2.00002
    760       9.0910      2.00002
    761       9.1329      2.00009
    762       9.1329      2.00009
    763       9.1329      2.00009
    764       9.1329      2.00009
    765       9.2842      2.00389
    766       9.2842      2.00389
    767       9.2842      2.00389
    768       9.2843      2.00390
    769       9.2843      2.00390
    770       9.2843      2.00390
    771       9.2843      2.00390
    772       9.2843      2.00390
    773       9.4072      2.03162
    774       9.4072      2.03162
    775       9.4072      2.03162
    776       9.4072      2.03163
    777       9.4073      2.03164
    778       9.4073      2.03165
    779       9.4073      2.03165
    780       9.4073      2.03165
    781       9.4073      2.03167
    782       9.4073      2.03167
    783       9.4073      2.03167
    784       9.4073      2.03168
    785       9.4074      2.03169
    786       9.4074      2.03170
    787       9.4074      2.03170
    788       9.4074      2.03170
    789       9.4876      2.06606
    790       9.4876      2.06606
    791       9.4876      2.06607
    792       9.4876      2.06607
    793       9.4876      2.06608
    794       9.4877      2.06608
    795       9.4877      2.06609
    796       9.4877      2.06609
    797       9.4877      2.06609
    798       9.4877      2.06610
    799       9.4877      2.06610
    800       9.4877      2.06610
    801       9.4878      2.06611
    802       9.4878      2.06611
    803       9.4878      2.06612
    804       9.4878      2.06612
    805       9.6165      1.93247
    806       9.6165      1.93237
    807       9.6165      1.93231
    808       9.6166      1.93221
    809       9.6166      1.93195
    810       9.6167      1.93188
    811       9.6167      1.93178
    812       9.6167      1.93170
    813       9.6550      1.76839
    814       9.6550      1.76834
    815       9.6550      1.76810
    816       9.6550      1.76804
    817       9.6550      1.76797
    818       9.6551      1.76792
    819       9.6551      1.76774
    820       9.6551      1.76755
    821       9.7065      1.43686
    822       9.7065      1.43683
    823       9.7065      1.43673
    824       9.7065      1.43671
    825       9.7065      1.43656
    826       9.7066      1.43656
    827       9.7066      1.43646
    828       9.7066      1.43642
    829       9.7733      0.88997
    830       9.7733      0.88985
    831       9.7733      0.88947
    832       9.7733      0.88934
    833       9.7734      0.88911
    834       9.7734      0.88896
    835       9.7734      0.88858
    836       9.7734      0.88847
    837       9.7854      0.78880
    838       9.7854      0.78870
    839       9.7854      0.78862
    840       9.7854      0.78860
    841       9.8782      0.16936
    842       9.8782      0.16933
    843       9.8782      0.16927
    844       9.8782      0.16917
    845       9.8782      0.16893
    846       9.8782      0.16893
    847       9.8783      0.16880
    848       9.8783      0.16874
    849       9.9218      0.01602
    850       9.9218      0.01597
    851       9.9218      0.01592
    852       9.9218      0.01586
    853      10.0926     -0.04048
    854      10.0927     -0.04043
    855      10.0929     -0.04033
    856      10.0930     -0.04030
    857      10.1744     -0.01262
    858      10.1744     -0.01262
    859      10.1745     -0.01262
    860      10.1745     -0.01262
    861      10.1745     -0.01261
    862      10.1745     -0.01260
    863      10.1745     -0.01260
    864      10.1746     -0.01260
    865      10.1747     -0.01257
    866      10.1747     -0.01257
    867      10.1747     -0.01256
    868      10.1747     -0.01256
    869      10.1747     -0.01256
    870      10.1748     -0.01255
    871      10.1748     -0.01255
    872      10.1748     -0.01255
    873      10.2759     -0.00162
    874      10.2759     -0.00162
    875      10.2759     -0.00162
    876      10.2760     -0.00162
    877      10.6204     -0.00000
    878      10.6204     -0.00000
    879      10.6204     -0.00000
    880      10.6204     -0.00000
    881      10.6271     -0.00000
    882      10.6271     -0.00000
    883      10.6272     -0.00000
    884      10.6272     -0.00000
    885      10.6272     -0.00000
    886      10.6273     -0.00000
    887      10.6273     -0.00000
    888      10.6273     -0.00000
    889      10.6406     -0.00000
    890      10.6406     -0.00000
    891      10.6407     -0.00000
    892      10.6407     -0.00000
    893      10.6407     -0.00000
    894      10.6407     -0.00000
    895      10.6407     -0.00000
    896      10.6407     -0.00000
    897      11.0323     -0.00000
    898      11.0323     -0.00000
    899      11.0323     -0.00000
    900      11.0323     -0.00000
    901      11.0323     -0.00000
    902      11.0324     -0.00000
    903      11.0324     -0.00000
    904      11.0324     -0.00000
    905      11.1577     -0.00000
    906      11.1577     -0.00000
    907      11.1577     -0.00000
    908      11.1577     -0.00000
    909      11.1578     -0.00000
    910      11.1578     -0.00000
    911      11.1579     -0.00000
    912      11.1579     -0.00000
    913      11.2204     -0.00000
    914      11.2204     -0.00000
    915      11.2205     -0.00000
    916      11.2205     -0.00000
    917      11.2206     -0.00000
    918      11.2206     -0.00000
    919      11.2207     -0.00000
    920      11.2207     -0.00000
    921      11.5304     -0.00000
    922      11.5304     -0.00000
    923      11.5305     -0.00000
    924      11.5305     -0.00000
    925      11.5306     -0.00000
    926      11.5306     -0.00000
    927      11.5306     -0.00000
    928      11.5306     -0.00000
    929      11.6576     -0.00000
    930      11.6576     -0.00000
    931      11.6576     -0.00000
    932      11.6576     -0.00000
    933      11.6577     -0.00000
    934      11.6577     -0.00000
    935      11.6577     -0.00000
    936      11.6577     -0.00000
    937      11.6578     -0.00000
    938      11.6578     -0.00000
    939      11.6578     -0.00000
    940      11.6578     -0.00000
    941      11.6579     -0.00000
    942      11.6579     -0.00000
    943      11.6579     -0.00000
    944      11.6579     -0.00000
    945      11.6580     -0.00000
    946      11.6580     -0.00000
    947      11.6580     -0.00000
    948      11.6580     -0.00000
    949      11.6846     -0.00000
    950      11.6846     -0.00000
    951      11.6846     -0.00000
    952      11.6846     -0.00000
    953      11.6847     -0.00000
    954      11.6847     -0.00000
    955      11.6847     -0.00000
    956      11.6847     -0.00000
    957      11.6848     -0.00000
    958      11.6849     -0.00000
    959      11.6849     -0.00000
    960      11.6850     -0.00000
    961      11.6852     -0.00000
    962      11.6852     -0.00000
    963      11.6852     -0.00000
    964      11.6853     -0.00000
    965      11.8038     -0.00000
    966      11.8038     -0.00000
    967      11.8038     -0.00000
    968      11.8038     -0.00000
    969      11.8039     -0.00000
    970      11.8039     -0.00000
    971      11.8039     -0.00000
    972      11.8039     -0.00000
    973      11.8040     -0.00000
    974      11.8040     -0.00000
    975      11.8040     -0.00000
    976      11.8040     -0.00000
    977      11.8041     -0.00000
    978      11.8041     -0.00000
    979      11.8041     -0.00000
    980      11.8041     -0.00000
    981      11.9401     -0.00000
    982      11.9403     -0.00000
    983      11.9405     -0.00000
    984      11.9406     -0.00000
    985      12.0965     -0.00000
    986      12.0965     -0.00000
    987      12.0966     -0.00000
    988      12.0966     -0.00000
    989      12.0966     -0.00000
    990      12.0967     -0.00000
    991      12.0968     -0.00000
    992      12.0968     -0.00000
    993      12.0970     -0.00000
    994      12.0973     -0.00000
    995      12.0981     -0.00000
    996      12.0986     -0.00000
    997      12.1050     -0.00000
    998      12.1100     -0.00000
    999      12.1150     -0.00000
   1000      12.1210     -0.00000

 k-point     4 :       0.5000    0.5000    0.5000
  band No.  band energies     occupation 
      1     -53.8977      2.00000
      2     -53.8977      2.00000
      3     -53.8977      2.00000
      4     -53.8975      2.00000
      5     -53.8974      2.00000
      6     -53.8973      2.00000
      7     -53.8973      2.00000
      8     -53.8971      2.00000
      9     -53.8087      2.00000
     10     -53.8087      2.00000
     11     -53.8087      2.00000
     12     -53.8087      2.00000
     13     -53.8086      2.00000
     14     -53.8086      2.00000
     15     -53.8086      2.00000
     16     -53.8086      2.00000
     17     -53.8085      2.00000
     18     -53.8085      2.00000
     19     -53.8085      2.00000
     20     -53.8085      2.00000
     21     -53.8085      2.00000
     22     -53.8084      2.00000
     23     -53.8084      2.00000
     24     -53.8084      2.00000
     25     -53.8083      2.00000
     26     -53.8083      2.00000
     27     -53.8083      2.00000
     28     -53.8083      2.00000
     29     -53.8082      2.00000
     30     -53.8082      2.00000
     31     -53.8082      2.00000
     32     -53.8081      2.00000
     33     -53.7646      2.00000
     34     -53.7646      2.00000
     35     -53.7645      2.00000
     36     -53.7645      2.00000
     37     -53.7645      2.00000
     38     -53.7645      2.00000
     39     -53.7645      2.00000
     40     -53.7644      2.00000
     41     -53.7644      2.00000
     42     -53.7644      2.00000
     43     -53.7644      2.00000
     44     -53.7644      2.00000
     45     -53.7644      2.00000
     46     -53.7644      2.00000
     47     -53.7643      2.00000
     48     -53.7643      2.00000
     49     -53.7643      2.00000
     50     -53.7643      2.00000
     51     -53.7643      2.00000
     52     -53.7642      2.00000
     53     -53.7642      2.00000
     54     -53.7642      2.00000
     55     -53.7641      2.00000
     56     -53.7641      2.00000
     57     -53.7392      2.00000
     58     -53.7392      2.00000
     59     -53.7392      2.00000
     60     -53.7392      2.00000
     61     -53.7391      2.00000
     62     -53.7391      2.00000
     63     -53.7391      2.00000
     64     -53.7391      2.00000
     65     -53.7208      2.00000
     66     -53.7208      2.00000
     67     -53.7208      2.00000
     68     -53.7208      2.00000
     69     -53.7207      2.00000
     70     -53.7207      2.00000
     71     -53.7207      2.00000
     72     -53.7207      2.00000
     73     -53.7185      2.00000
     74     -53.7185      2.00000
     75     -53.7185      2.00000
     76     -53.7185      2.00000
     77     -53.7185      2.00000
     78     -53.7184      2.00000
     79     -53.7184      2.00000
     80     -53.7184      2.00000
     81     -53.7184      2.00000
     82     -53.7184      2.00000
     83     -53.7183      2.00000
     84     -53.7183      2.00000
     85     -53.7183      2.00000
     86     -53.7183      2.00000
     87     -53.7183      2.00000
     88     -53.7183      2.00000
     89     -53.7182      2.00000
     90     -53.7182      2.00000
     91     -53.7182      2.00000
     92     -53.7182      2.00000
     93     -53.7182      2.00000
     94     -53.7181      2.00000
     95     -53.7181      2.00000
     96     -53.7181      2.00000
     97     -53.6979      2.00000
     98     -53.6979      2.00000
     99     -53.6979      2.00000
    100     -53.6978      2.00000
    101     -53.6978      2.00000
    102     -53.6978      2.00000
    103     -53.6977      2.00000
    104     -53.6977      2.00000
    105     -53.6977      2.00000
    106     -53.6977      2.00000
    107     -53.6977      2.00000
    108     -53.6977      2.00000
    109     -53.6976      2.00000
    110     -53.6976      2.00000
    111     -53.6975      2.00000
    112     -53.6975      2.00000
    113     -53.6975      2.00000
    114     -53.6975      2.00000
    115     -53.6975      2.00000
    116     -53.6975      2.00000
    117     -53.6974      2.00000
    118     -53.6974      2.00000
    119     -53.6973      2.00000
    120     -53.6973      2.00000
    121     -53.6311      2.00000
    122     -53.6310      2.00000
    123     -53.6310      2.00000
    124     -53.6309      2.00000
    125     -53.6307      2.00000
    126     -53.6307      2.00000
    127     -53.6306      2.00000
    128     -53.6305      2.00000
    129     -28.0845      2.00000
    130     -28.0845      2.00000
    131     -28.0844      2.00000
    132     -28.0844      2.00000
    133     -28.0844      2.00000
    134     -28.0844      2.00000
    135     -28.0844      2.00000
    136     -28.0844      2.00000
    137     -28.0843      2.00000
    138     -28.0843      2.00000
    139     -28.0843      2.00000
    140     -28.0843      2.00000
    141     -28.0843      2.00000
    142     -28.0843      2.00000
    143     -28.0842      2.00000
    144     -28.0842      2.00000
    145     -28.0842      2.00000
    146     -28.0842      2.00000
    147     -28.0842      2.00000
    148     -28.0842      2.00000
    149     -28.0841      2.00000
    150     -28.0841      2.00000
    151     -28.0841      2.00000
    152     -28.0841      2.00000
    153     -28.0185      2.00000
    154     -28.0185      2.00000
    155     -28.0184      2.00000
    156     -28.0184      2.00000
    157     -28.0184      2.00000
    158     -28.0184      2.00000
    159     -28.0184      2.00000
    160     -28.0184      2.00000
    161     -28.0184      2.00000
    162     -28.0183      2.00000
    163     -28.0183      2.00000
    164     -28.0183      2.00000
    165     -28.0183      2.00000
    166     -28.0183      2.00000
    167     -28.0183      2.00000
    168     -28.0182      2.00000
    169     -28.0182      2.00000
    170     -28.0182      2.00000
    171     -28.0182      2.00000
    172     -28.0182      2.00000
    173     -28.0181      2.00000
    174     -28.0181      2.00000
    175     -28.0181      2.00000
    176     -28.0181      2.00000
    177     -27.9567      2.00000
    178     -27.9567      2.00000
    179     -27.9567      2.00000
    180     -27.9566      2.00000
    181     -27.9566      2.00000
    182     -27.9566      2.00000
    183     -27.9566      2.00000
    184     -27.9566      2.00000
    185     -27.9472      2.00000
    186     -27.9472      2.00000
    187     -27.9472      2.00000
    188     -27.9472      2.00000
    189     -27.9471      2.00000
    190     -27.9471      2.00000
    191     -27.9471      2.00000
    192     -27.9471      2.00000
    193     -27.9471      2.00000
    194     -27.9471      2.00000
    195     -27.9471      2.00000
    196     -27.9470      2.00000
    197     -27.9470      2.00000
    198     -27.9470      2.00000
    199     -27.9470      2.00000
    200     -27.9470      2.00000
    201     -27.9469      2.00000
    202     -27.9469      2.00000
    203     -27.9469      2.00000
    204     -27.9469      2.00000
    205     -27.9469      2.00000
    206     -27.9469      2.00000
    207     -27.9469      2.00000
    208     -27.9468      2.00000
    209     -27.8878      2.00000
    210     -27.8878      2.00000
    211     -27.8878      2.00000
    212     -27.8878      2.00000
    213     -27.8877      2.00000
    214     -27.8877      2.00000
    215     -27.8877      2.00000
    216     -27.8876      2.00000
    217     -27.8876      2.00000
    218     -27.8875      2.00000
    219     -27.8875      2.00000
    220     -27.8874      2.00000
    221     -27.8874      2.00000
    222     -27.8874      2.00000
    223     -27.8874      2.00000
    224     -27.8874      2.00000
    225     -27.8454      2.00000
    226     -27.8454      2.00000
    227     -27.8453      2.00000
    228     -27.8453      2.00000
    229     -27.8453      2.00000
    230     -27.8453      2.00000
    231     -27.8453      2.00000
    232     -27.8453      2.00000
    233     -27.8453      2.00000
    234     -27.8453      2.00000
    235     -27.8452      2.00000
    236     -27.8452      2.00000
    237     -27.8452      2.00000
    238     -27.8452      2.00000
    239     -27.8452      2.00000
    240     -27.8452      2.00000
    241     -27.7668      2.00000
    242     -27.7668      2.00000
    243     -27.7667      2.00000
    244     -27.7667      2.00000
    245     -27.7667      2.00000
    246     -27.7667      2.00000
    247     -27.7667      2.00000
    248     -27.7667      2.00000
    249     -27.7666      2.00000
    250     -27.7666      2.00000
    251     -27.7666      2.00000
    252     -27.7666      2.00000
    253     -27.7666      2.00000
    254     -27.7666      2.00000
    255     -27.7665      2.00000
    256     -27.7665      2.00000
    257     -27.7665      2.00000
    258     -27.7665      2.00000
    259     -27.7665      2.00000
    260     -27.7665      2.00000
    261     -27.7664      2.00000
    262     -27.7664      2.00000
    263     -27.7664      2.00000
    264     -27.7664      2.00000
    265     -27.7061      2.00000
    266     -27.7060      2.00000
    267     -27.7060      2.00000
    268     -27.7060      2.00000
    269     -27.7059      2.00000
    270     -27.7059      2.00000
    271     -27.7059      2.00000
    272     -27.7059      2.00000
    273     -27.7008      2.00000
    274     -27.7008      2.00000
    275     -27.7008      2.00000
    276     -27.7008      2.00000
    277     -27.7008      2.00000
    278     -27.7008      2.00000
    279     -27.7008      2.00000
    280     -27.7008      2.00000
    281     -27.7008      2.00000
    282     -27.7008      2.00000
    283     -27.7008      2.00000
    284     -27.7008      2.00000
    285     -27.7008      2.00000
    286     -27.7007      2.00000
    287     -27.7007      2.00000
    288     -27.7007      2.00000
    289     -27.7007      2.00000
    290     -27.7007      2.00000
    291     -27.7007      2.00000
    292     -27.7007      2.00000
    293     -27.7007      2.00000
    294     -27.7007      2.00000
    295     -27.7007      2.00000
    296     -27.7007      2.00000
    297     -27.6342      2.00000
    298     -27.6342      2.00000
    299     -27.6342      2.00000
    300     -27.6342      2.00000
    301     -27.6341      2.00000
    302     -27.6341      2.00000
    303     -27.6341      2.00000
    304     -27.6341      2.00000
    305     -27.6341      2.00000
    306     -27.6341      2.00000
    307     -27.6340      2.00000
    308     -27.6340      2.00000
    309     -27.6340      2.00000
    310     -27.6340      2.00000
    311     -27.6340      2.00000
    312     -27.6340      2.00000
    313     -27.6340      2.00000
    314     -27.6340      2.00000
    315     -27.6340      2.00000
    316     -27.6339      2.00000
    317     -27.6339      2.00000
    318     -27.6339      2.00000
    319     -27.6339      2.00000
    320     -27.6339      2.00000
    321     -27.5135      2.00000
    322     -27.5135      2.00000
    323     -27.5135      2.00000
    324     -27.5135      2.00000
    325     -27.5135      2.00000
    326     -27.5135      2.00000
    327     -27.5135      2.00000
    328     -27.5135      2.00000
    329     -27.5135      2.00000
    330     -27.5134      2.00000
    331     -27.5134      2.00000
    332     -27.5134      2.00000
    333     -27.5134      2.00000
    334     -27.5134      2.00000
    335     -27.5134      2.00000
    336     -27.5134      2.00000
    337     -27.5054      2.00000
    338     -27.5054      2.00000
    339     -27.5053      2.00000
    340     -27.5053      2.00000
    341     -27.5053      2.00000
    342     -27.5053      2.00000
    343     -27.5053      2.00000
    344     -27.5053      2.00000
    345     -27.5052      2.00000
    346     -27.5052      2.00000
    347     -27.5052      2.00000
    348     -27.5052      2.00000
    349     -27.5052      2.00000
    350     -27.5052      2.00000
    351     -27.5051      2.00000
    352     -27.5051      2.00000
    353     -27.5051      2.00000
    354     -27.5051      2.00000
    355     -27.5051      2.00000
    356     -27.5051      2.00000
    357     -27.5051      2.00000
    358     -27.5050      2.00000
    359     -27.5050      2.00000
    360     -27.5050      2.00000
    361     -27.5030      2.00000
    362     -27.5030      2.00000
    363     -27.5030      2.00000
    364     -27.5030      2.00000
    365     -27.5029      2.00000
    366     -27.5029      2.00000
    367     -27.5029      2.00000
    368     -27.5029      2.00000
    369     -27.5029      2.00000
    370     -27.5029      2.00000
    371     -27.5029      2.00000
    372     -27.5029      2.00000
    373     -27.5029      2.00000
    374     -27.5028      2.00000
    375     -27.5028      2.00000
    376     -27.5028      2.00000
    377     -27.5028      2.00000
    378     -27.5028      2.00000
    379     -27.5028      2.00000
    380     -27.5028      2.00000
    381     -27.5028      2.00000
    382     -27.5028      2.00000
    383     -27.5027      2.00000
    384     -27.5027      2.00000
    385     -27.4633      2.00000
    386     -27.4632      2.00000
    387     -27.4632      2.00000
    388     -27.4632      2.00000
    389     -27.4631      2.00000
    390     -27.4631      2.00000
    391     -27.4631      2.00000
    392     -27.4630      2.00000
    393     -27.4464      2.00000
    394     -27.4464      2.00000
    395     -27.4464      2.00000
    396     -27.4464      2.00000
    397     -27.4464      2.00000
    398     -27.4464      2.00000
    399     -27.4464      2.00000
    400     -27.4464      2.00000
    401     -27.4464      2.00000
    402     -27.4463      2.00000
    403     -27.4463      2.00000
    404     -27.4463      2.00000
    405     -27.4463      2.00000
    406     -27.4463      2.00000
    407     -27.4463      2.00000
    408     -27.4463      2.00000
    409     -27.4463      2.00000
    410     -27.4463      2.00000
    411     -27.4463      2.00000
    412     -27.4463      2.00000
    413     -27.4463      2.00000
    414     -27.4463      2.00000
    415     -27.4462      2.00000
    416     -27.4462      2.00000
    417     -27.3981      2.00000
    418     -27.3981      2.00000
    419     -27.3980      2.00000
    420     -27.3980      2.00000
    421     -27.3980      2.00000
    422     -27.3980      2.00000
    423     -27.3980      2.00000
    424     -27.3980      2.00000
    425     -27.3424      2.00000
    426     -27.3423      2.00000
    427     -27.3423      2.00000
    428     -27.3423      2.00000
    429     -27.3423      2.00000
    430     -27.3423      2.00000
    431     -27.3422      2.00000
    432     -27.3422      2.00000
    433     -27.3422      2.00000
    434     -27.3422      2.00000
    435     -27.3422      2.00000
    436     -27.3422      2.00000
    437     -27.3422      2.00000
    438     -27.3421      2.00000
    439     -27.3421      2.00000
    440     -27.3421      2.00000
    441     -27.3421      2.00000
    442     -27.3421      2.00000
    443     -27.3421      2.00000
    444     -27.3421      2.00000
    445     -27.3420      2.00000
    446     -27.3420      2.00000
    447     -27.3420      2.00000
    448     -27.3420      2.00000
    449     -27.3295      2.00000
    450     -27.3295      2.00000
    451     -27.3295      2.00000
    452     -27.3295      2.00000
    453     -27.3295      2.00000
    454     -27.3295      2.00000
    455     -27.3295      2.00000
    456     -27.3295      2.00000
    457     -27.3295      2.00000
    458     -27.3295      2.00000
    459     -27.3294      2.00000
    460     -27.3294      2.00000
    461     -27.3294      2.00000
    462     -27.3294      2.00000
    463     -27.3294      2.00000
    464     -27.3294      2.00000
    465     -27.3294      2.00000
    466     -27.3294      2.00000
    467     -27.3294      2.00000
    468     -27.3294      2.00000
    469     -27.3293      2.00000
    470     -27.3293      2.00000
    471     -27.3293      2.00000
    472     -27.3293      2.00000
    473     -27.2856      2.00000
    474     -27.2856      2.00000
    475     -27.2855      2.00000
    476     -27.2855      2.00000
    477     -27.2855      2.00000
    478     -27.2855      2.00000
    479     -27.2854      2.00000
    480     -27.2854      2.00000
    481     -27.2854      2.00000
    482     -27.2854      2.00000
    483     -27.2854      2.00000
    484     -27.2853      2.00000
    485     -27.2853      2.00000
    486     -27.2853      2.00000
    487     -27.2853      2.00000
    488     -27.2853      2.00000
    489     -27.2853      2.00000
    490     -27.2853      2.00000
    491     -27.2852      2.00000
    492     -27.2852      2.00000
    493     -27.2852      2.00000
    494     -27.2852      2.00000
    495     -27.2851      2.00000
    496     -27.2851      2.00000
    497     -27.2732      2.00000
    498     -27.2732      2.00000
    499     -27.2732      2.00000
    500     -27.2732      2.00000
    501     -27.2731      2.00000
    502     -27.2731      2.00000
    503     -27.2731      2.00000
    504     -27.2730      2.00000
    505     -27.2730      2.00000
    506     -27.2730      2.00000
    507     -27.2729      2.00000
    508     -27.2729      2.00000
    509     -27.2729      2.00000
    510     -27.2728      2.00000
    511     -27.2728      2.00000
    512     -27.2728      2.00000
    513       4.0683      2.00000
    514       4.0683      2.00000
    515       4.0684      2.00000
    516       4.0685      2.00000
    517       4.0687      2.00000
    518       4.0687      2.00000
    519       4.0688      2.00000
    520       4.0690      2.00000
    521       5.9999      2.00000
    522       5.9999      2.00000
    523       6.0000      2.00000
    524       6.0000      2.00000
    525       6.0000      2.00000
    526       6.0001      2.00000
    527       6.0001      2.00000
    528       6.0001      2.00000
    529       6.0001      2.00000
    530       6.0001      2.00000
    531       6.0002      2.00000
    532       6.0002      2.00000
    533       6.0002      2.00000
    534       6.0002      2.00000
    535       6.0003      2.00000
    536       6.0003      2.00000
    537       6.0003      2.00000
    538       6.0003      2.00000
    539       6.0004      2.00000
    540       6.0004      2.00000
    541       6.0004      2.00000
    542       6.0005      2.00000
    543       6.0005      2.00000
    544       6.0005      2.00000
    545       6.7399      2.00000
    546       6.7399      2.00000
    547       6.7399      2.00000
    548       6.7399      2.00000
    549       6.7400      2.00000
    550       6.7400      2.00000
    551       6.7400      2.00000
    552       6.7400      2.00000
    553       6.7400      2.00000
    554       6.7400      2.00000
    555       6.7401      2.00000
    556       6.7401      2.00000
    557       6.7401      2.00000
    558       6.7401      2.00000
    559       6.7401      2.00000
    560       6.7402      2.00000
    561       6.7402      2.00000
    562       6.7402      2.00000
    563       6.7402      2.00000
    564       6.7402      2.00000
    565       6.7403      2.00000
    566       6.7403      2.00000
    567       6.7403      2.00000
    568       6.7403      2.00000
    569       7.2349      2.00000
    570       7.2349      2.00000
    571       7.2350      2.00000
    572       7.2350      2.00000
    573       7.2350      2.00000
    574       7.2350      2.00000
    575       7.2350      2.00000
    576       7.2351      2.00000
    577       7.2351      2.00000
    578       7.2351      2.00000
    579       7.2351      2.00000
    580       7.2352      2.00000
    581       7.2352      2.00000
    582       7.2352      2.00000
    583       7.2352      2.00000
    584       7.2352      2.00000
    585       7.2352      2.00000
    586       7.2353      2.00000
    587       7.2353      2.00000
    588       7.2353      2.00000
    589       7.2353      2.00000
    590       7.2353      2.00000
    591       7.2354      2.00000
    592       7.2354      2.00000
    593       7.2495      2.00000
    594       7.2495      2.00000
    595       7.2495      2.00000
    596       7.2495      2.00000
    597       7.2496      2.00000
    598       7.2496      2.00000
    599       7.2497      2.00000
    600       7.2497      2.00000
    601       7.2498      2.00000
    602       7.2498      2.00000
    603       7.2499      2.00000
    604       7.2499      2.00000
    605       7.2500      2.00000
    606       7.2500      2.00000
    607       7.2501      2.00000
    608       7.2501      2.00000
    609       7.7034      2.00000
    610       7.7035      2.00000
    611       7.7035      2.00000
    612       7.7035      2.00000
    613       7.7036      2.00000
    614       7.7036      2.00000
    615       7.7036      2.00000
    616       7.7036      2.00000
    617       7.7036      2.00000
    618       7.7036      2.00000
    619       7.7037      2.00000
    620       7.7037      2.00000
    621       7.7037      2.00000
    622       7.7037      2.00000
    623       7.7038      2.00000
    624       7.7038      2.00000
    625       7.7038      2.00000
    626       7.7038      2.00000
    627       7.7038      2.00000
    628       7.7038      2.00000
    629       7.7039      2.00000
    630       7.7039      2.00000
    631       7.7040      2.00000
    632       7.7040      2.00000
    633       8.0641      2.00000
    634       8.0641      2.00000
    635       8.0642      2.00000
    636       8.0642      2.00000
    637       8.0642      2.00000
    638       8.0642      2.00000
    639       8.0642      2.00000
    640       8.0642      2.00000
    641       8.2406      2.00000
    642       8.2406      2.00000
    643       8.2406      2.00000
    644       8.2406      2.00000
    645       8.2407      2.00000
    646       8.2407      2.00000
    647       8.2407      2.00000
    648       8.2407      2.00000
    649       8.2407      2.00000
    650       8.2408      2.00000
    651       8.2408      2.00000
    652       8.2408      2.00000
    653       8.2408      2.00000
    654       8.2408      2.00000
    655       8.2409      2.00000
    656       8.2409      2.00000
    657       8.2409      2.00000
    658       8.2409      2.00000
    659       8.2410      2.00000
    660       8.2410      2.00000
    661       8.2410      2.00000
    662       8.2410      2.00000
    663       8.2411      2.00000
    664       8.2411      2.00000
    665       8.3975      2.00000
    666       8.3975      2.00000
    667       8.3975      2.00000
    668       8.3976      2.00000
    669       8.3976      2.00000
    670       8.3976      2.00000
    671       8.3976      2.00000
    672       8.3976      2.00000
    673       8.5116      2.00000
    674       8.5116      2.00000
    675       8.5117      2.00000
    676       8.5117      2.00000
    677       8.5117      2.00000
    678       8.5117      2.00000
    679       8.5117      2.00000
    680       8.5117      2.00000
    681       8.5117      2.00000
    682       8.5117      2.00000
    683       8.5118      2.00000
    684       8.5118      2.00000
    685       8.5118      2.00000
    686       8.5118      2.00000
    687       8.5118      2.00000
    688       8.5118      2.00000
    689       8.7575      2.00000
    690       8.7575      2.00000
    691       8.7575      2.00000
    692       8.7575      2.00000
    693       8.7575      2.00000
    694       8.7576      2.00000
    695       8.7576      2.00000
    696       8.7576      2.00000
    697       8.7576      2.00000
    698       8.7576      2.00000
    699       8.7577      2.00000
    700       8.7577      2.00000
    701       8.7577      2.00000
    702       8.7577      2.00000
    703       8.7577      2.00000
    704       8.7577      2.00000
    705       8.7577      2.00000
    706       8.7578      2.00000
    707       8.7578      2.00000
    708       8.7578      2.00000
    709       8.7578      2.00000
    710       8.7578      2.00000
    711       8.7579      2.00000
    712       8.7579      2.00000
    713       8.8725      2.00000
    714       8.8725      2.00000
    715       8.8725      2.00000
    716       8.8725      2.00000
    717       8.8725      2.00000
    718       8.8725      2.00000
    719       8.8725      2.00000
    720       8.8725      2.00000
    721       8.8725      2.00000
    722       8.8725      2.00000
    723       8.8726      2.00000
    724       8.8726      2.00000
    725       8.8726      2.00000
    726       8.8726      2.00000
    727       8.8726      2.00000
    728       8.8726      2.00000
    729       8.9491      2.00000
    730       8.9491      2.00000
    731       8.9492      2.00000
    732       8.9492      2.00000
    733       8.9492      2.00000
    734       8.9492      2.00000
    735       8.9492      2.00000
    736       8.9492      2.00000
    737       8.9492      2.00000
    738       8.9493      2.00000
    739       8.9493      2.00000
    740       8.9493      2.00000
    741       8.9493      2.00000
    742       8.9493      2.00000
    743       8.9493      2.00000
    744       8.9493      2.00000
    745       8.9494      2.00000
    746       8.9494      2.00000
    747       8.9494      2.00000
    748       8.9494      2.00000
    749       8.9494      2.00000
    750       8.9494      2.00000
    751       8.9495      2.00000
    752       8.9495      2.00000
    753       9.3610      2.01618
    754       9.3610      2.01618
    755       9.3610      2.01619
    756       9.3610      2.01619
    757       9.3610      2.01620
    758       9.3610      2.01620
    759       9.3610      2.01620
    760       9.3610      2.01620
    761       9.3611      2.01621
    762       9.3611      2.01621
    763       9.3611      2.01621
    764       9.3611      2.01621
    765       9.3611      2.01622
    766       9.3611      2.01622
    767       9.3611      2.01622
    768       9.3611      2.01623
    769       9.3611      2.01623
    770       9.3611      2.01623
    771       9.3611      2.01623
    772       9.3612      2.01623
    773       9.3612      2.01624
    774       9.3612      2.01624
    775       9.3612      2.01624
    776       9.3612      2.01625
    777       9.6406      1.83850
    778       9.6406      1.83845
    779       9.6406      1.83843
    780       9.6406      1.83834
    781       9.6406      1.83828
    782       9.6406      1.83820
    783       9.6406      1.83818
    784       9.6406      1.83815
    785       9.6406      1.83811
    786       9.6406      1.83809
    787       9.6407      1.83802
    788       9.6407      1.83800
    789       9.6407      1.83795
    790       9.6407      1.83791
    791       9.6407      1.83787
    792       9.6407      1.83781
    793       9.6407      1.83779
    794       9.6407      1.83776
    795       9.6407      1.83770
    796       9.6407      1.83767
    797       9.6408      1.83761
    798       9.6408      1.83757
    799       9.6408      1.83753
    800       9.6408      1.83746
    801       9.6464      1.81144
    802       9.6464      1.81138
    803       9.6464      1.81131
    804       9.6464      1.81124
    805       9.6465      1.81098
    806       9.6465      1.81095
    807       9.6465      1.81088
    808       9.6465      1.81086
    809       9.6465      1.81082
    810       9.6465      1.81078
    811       9.6465      1.81074
    812       9.6465      1.81062
    813       9.6466      1.81046
    814       9.6466      1.81040
    815       9.6466      1.81034
    816       9.6466      1.81030
    817       9.6466      1.81025
    818       9.6466      1.81022
    819       9.6466      1.81018
    820       9.6467      1.81012
    821       9.6467      1.80984
    822       9.6467      1.80982
    823       9.6467      1.80973
    824       9.6467      1.80965
    825       9.8453      0.34714
    826       9.8453      0.34708
    827       9.8453      0.34690
    828       9.8454      0.34683
    829       9.8454      0.34668
    830       9.8454      0.34663
    831       9.8454      0.34659
    832       9.8454      0.34654
    833       9.8454      0.34646
    834       9.8454      0.34639
    835       9.8454      0.34631
    836       9.8455      0.34622
    837       9.8455      0.34613
    838       9.8455      0.34608
    839       9.8455      0.34601
    840       9.8455      0.34592
    841       9.8455      0.34584
    842       9.8455      0.34580
    843       9.8455      0.34578
    844       9.8455      0.34574
    845       9.8456      0.34552
    846       9.8456      0.34551
    847       9.8456      0.34531
    848       9.8456      0.34524
    849       9.8469      0.33738
    850       9.8469      0.33728
    851       9.8469      0.33715
    852       9.8469      0.33705
    853       9.8470      0.33692
    854       9.8470      0.33668
    855       9.8470      0.33658
    856       9.8471      0.33618
    857       9.8471      0.33603
    858       9.8471      0.33575
    859       9.8472      0.33549
    860       9.8472      0.33531
    861       9.8472      0.33519
    862       9.8473      0.33511
    863       9.8473      0.33481
    864       9.8473      0.33476
    865      10.1156     -0.03068
    866      10.1156     -0.03068
    867      10.1156     -0.03067
    868      10.1156     -0.03067
    869      10.1156     -0.03066
    870      10.1156     -0.03066
    871      10.1156     -0.03066
    872      10.1156     -0.03065
    873      10.1156     -0.03065
    874      10.1157     -0.03065
    875      10.1157     -0.03065
    876      10.1157     -0.03064
    877      10.1157     -0.03064
    878      10.1157     -0.03064
    879      10.1157     -0.03063
    880      10.1157     -0.03063
    881      10.1157     -0.03063
    882      10.1157     -0.03062
    883      10.1157     -0.03062
    884      10.1157     -0.03062
    885      10.1157     -0.03061
    886      10.1158     -0.03061
    887      10.1158     -0.03061
    888      10.1158     -0.03060
    889      10.9596     -0.00000
    890      10.9596     -0.00000
    891      10.9597     -0.00000
    892      10.9597     -0.00000
    893      10.9597     -0.00000
    894      10.9598     -0.00000
    895      10.9598     -0.00000
    896      10.9598     -0.00000
    897      11.2686     -0.00000
    898      11.2686     -0.00000
    899      11.2686     -0.00000
    900      11.2686     -0.00000
    901      11.2687     -0.00000
    902      11.2687     -0.00000
    903      11.2687     -0.00000
    904      11.2687     -0.00000
    905      11.2687     -0.00000
    906      11.2687     -0.00000
    907      11.2688     -0.00000
    908      11.2688     -0.00000
    909      11.2688     -0.00000
    910      11.2688     -0.00000
    911      11.2688     -0.00000
    912      11.2688     -0.00000
    913      11.2689     -0.00000
    914      11.2689     -0.00000
    915      11.2689     -0.00000
    916      11.2689     -0.00000
    917      11.2689     -0.00000
    918      11.2689     -0.00000
    919      11.2689     -0.00000
    920      11.2689     -0.00000
    921      11.5218     -0.00000
    922      11.5218     -0.00000
    923      11.5219     -0.00000
    924      11.5219     -0.00000
    925      11.5219     -0.00000
    926      11.5219     -0.00000
    927      11.5219     -0.00000
    928      11.5219     -0.00000
    929      11.5219     -0.00000
    930      11.5219     -0.00000
    931      11.5219     -0.00000
    932      11.5219     -0.00000
    933      11.5219     -0.00000
    934      11.5219     -0.00000
    935      11.5219     -0.00000
    936      11.5219     -0.00000
    937      11.5220     -0.00000
    938      11.5220     -0.00000
    939      11.5220     -0.00000
    940      11.5220     -0.00000
    941      11.5220     -0.00000
    942      11.5220     -0.00000
    943      11.5220     -0.00000
    944      11.5220     -0.00000
    945      11.5522     -0.00000
    946      11.5522     -0.00000
    947      11.5522     -0.00000
    948      11.5522     -0.00000
    949      11.5523     -0.00000
    950      11.5523     -0.00000
    951      11.5523     -0.00000
    952      11.5523     -0.00000
    953      11.8515     -0.00000
    954      11.8515     -0.00000
    955      11.8515     -0.00000
    956      11.8515     -0.00000
    957      11.8515     -0.00000
    958      11.8516     -0.00000
    959      11.8516     -0.00000
    960      11.8516     -0.00000
    961      11.8516     -0.00000
    962      11.8516     -0.00000
    963      11.8516     -0.00000
    964      11.8517     -0.00000
    965      11.8517     -0.00000
    966      11.8517     -0.00000
    967      11.8517     -0.00000
    968      11.8517     -0.00000
    969      11.8517     -0.00000
    970      11.8517     -0.00000
    971      11.8517     -0.00000
    972      11.8517     -0.00000
    973      11.8518     -0.00000
    974      11.8518     -0.00000
    975      11.8518     -0.00000
    976      11.8518     -0.00000
    977      12.0631     -0.00000
    978      12.0631     -0.00000
    979      12.0633     -0.00000
    980      12.0634     -0.00000
    981      12.0635     -0.00000
    982      12.0636     -0.00000
    983      12.0637     -0.00000
    984      12.0637     -0.00000
    985      12.0637     -0.00000
    986      12.0639     -0.00000
    987      12.0645     -0.00000
    988      12.0654     -0.00000
    989      12.0665     -0.00000
    990      12.0682     -0.00000
    991      12.0708     -0.00000
    992      12.0730     -0.00000
    993      12.1457     -0.00000
    994      12.1463     -0.00000
    995      12.1475     -0.00000
    996      12.1478     -0.00000
    997      12.1481     -0.00000
    998      12.1492     -0.00000
    999      12.1500     -0.00000
   1000      12.1508     -0.00000


--------------------------------------------------------------------------------------------------------


 soft charge-density along one line, spin component            1
         0         1         2         3         4         5         6         7         8         9
 total charge-density along one line
 
 pseudopotential strength for first ion, spin component:            1
-18.202  10.657  -0.000  -0.000  -0.000   0.000   0.000   0.000
 10.657   3.232   0.000   0.000   0.000  -0.000  -0.000  -0.000
 -0.000   0.000 -27.398  -0.000  -0.000   7.459   0.000   0.000
 -0.000   0.000  -0.000 -27.398   0.000   0.000   7.459  -0.000
 -0.000   0.000  -0.000   0.000 -27.398   0.000  -0.000   7.459
  0.000  -0.000   7.459   0.000   0.000   5.820  -0.000  -0.000
  0.000  -0.000   0.000   7.459  -0.000  -0.000   5.820   0.000
  0.000  -0.000   0.000  -0.000   7.459  -0.000   0.000   5.820
 -0.000   0.000  -0.000  -0.000  -0.000   0.000   0.000   0.000
 -0.000   0.000  -0.000  -0.000  -0.000   0.000   0.000   0.000
  0.000  -0.000   0.000  -0.000   0.000  -0.000   0.000  -0.000
  0.000  -0.000  -0.000  -0.000  -0.000   0.000   0.000   0.000
 -0.000   0.000   0.000  -0.000  -0.000  -0.000   0.000   0.000
 -0.000   0.000  -0.000  -0.000  -0.000   0.000   0.000   0.000
 -0.000   0.000  -0.000  -0.000  -0.000   0.000   0.000   0.000
  0.000  -0.000   0.000  -0.000   0.000  -0.000   0.000  -0.000
  0.000  -0.000  -0.000  -0.000  -0.000   0.000   0.000   0.000
 -0.000   0.000   0.000  -0.000  -0.000  -0.000   0.000   0.000
 total augmentation occupancy for first ion, spin component:            1
  1.995  -0.051   0.000  -0.000  -0.000  -0.000   0.000   0.000   0.000   0.000   0.000  -0.000   0.000  -0.000  -0.000  -0.000
 -0.051   1.715  -0.000  -0.000   0.000   0.000  -0.000   0.000  -0.000  -0.000  -0.000   0.000  -0.000   0.000   0.000   0.000
  0.000  -0.000   1.986  -0.000  -0.000  -0.045   0.000   0.000   0.000   0.000  -0.000   0.000   0.000  -0.000  -0.000   0.000
 -0.000  -0.000  -0.000   1.986   0.000   0.000  -0.045  -0.000   0.000   0.000   0.000   0.000   0.000  -0.000  -0.000   0.000
 -0.000   0.000  -0.000   0.000   1.986   0.000  -0.000  -0.045   0.000   0.000   0.000   0.000  -0.000  -0.000   0.000  -0.000
 -0.000   0.000  -0.045   0.000   0.000   0.125  -0.000  -0.000  -0.000   0.000   0.000   0.000   0.000   0.000  -0.000   0.000
  0.000  -0.000   0.000  -0.045  -0.000  -0.000   0.125   0.000   0.000   0.000   0.000   0.000  -0.000   0.000   0.000   0.000
  0.000   0.000   0.000  -0.000  -0.045  -0.000   0.000   0.125  -0.000   0.000   0.000   0.000  -0.000  -0.000   0.000   0.000
  0.000  -0.000  -0.000   0.000   0.000  -0.000  -0.000  -0.000   4.004   0.000   0.000  -0.000   0.000  -2.042  -0.000  -0.000
  0.000  -0.000  -0.000   0.000  -0.000   0.000   0.000   0.000   0.000   4.004  -0.000  -0.000   0.000  -0.000  -2.042   0.000
  0.000  -0.000  -0.000   0.000   0.000   0.000  -0.000  -0.000   0.000  -0.000   4.197   0.000   0.000  -0.000   0.000  -2.357
 -0.000   0.000  -0.000  -0.000   0.000   0.000   0.000   0.000  -0.000  -0.000   0.000   4.004   0.000   0.000   0.000  -0.000
  0.000  -0.000  -0.000   0.000  -0.000  -0.000   0.000  -0.000   0.000   0.000   0.000   0.000   4.197  -0.000  -0.000  -0.000
 -0.000   0.000  -0.000  -0.000  -0.000   0.000   0.000  -0.000  -2.042  -0.000  -0.000   0.000  -0.000   1.091   0.000   0.000
 -0.000   0.000   0.000  -0.000  -0.000  -0.000   0.000  -0.000  -0.000  -2.042   0.000   0.000  -0.000   0.000   1.091  -0.000
 -0.000   0.000  -0.000  -0.000   0.000  -0.000  -0.000   0.000  -0.000   0.000  -2.357  -0.000  -0.000   0.000  -0.000   1.351
  0.000  -0.000  -0.000   0.000   0.000   0.000  -0.000  -0.000   0.000   0.000  -0.000  -2.042  -0.000  -0.000  -0.000   0.000
 -0.000   0.000   0.000   0.000   0.000  -0.000  -0.000  -0.000  -0.000  -0.000  -0.000  -0.000  -2.357   0.000   0.000   0.000


------------------------ aborting loop because EDIFF is reached ----------------------------------------


    CHARGE:  cpu time      0.4735: real time      0.3299
    FORLOC:  cpu time      0.0184: real time      0.0012
    FORNL :  cpu time      1.0006: real time      0.7819
    STRESS:  cpu time      2.5312: real time      1.9706
    FORCOR:  cpu time      0.0359: real time      0.0070
    FORHAR:  cpu time      0.0020: real time      0.0019
    MIXING:  cpu time      0.0405: real time      0.0037
    OFIELD:  cpu time      0.0002: real time      0.0000

  FORCE on cell =-STRESS in cart. coord.  units (eV):
  Direction    XX          YY          ZZ          XY          YZ          ZX
  --------------------------------------------------------------------------------------
  Alpha Z 11655.14079 11655.14079 11655.14079
  Ewald  -63106.47202-63106.47265-63106.47177     0.00033     0.00057    -0.00059
  Hartree 16722.20510 16722.20614 16722.20469     0.00002     0.00003    -0.00004
  E(xc)   -9293.30448 -9293.30445 -9293.30449    -0.00000    -0.00000     0.00000
  Local   15094.66490 15094.66196 15094.66605    -0.00013    -0.00022     0.00023
  n-local -4726.32141 -4722.75415 -4721.20358    -0.00002    -0.00004     0.00004
  augment  9435.01483  9435.01567  9435.01450    -0.00006    -0.00011     0.00011
  Kinetic 24212.12955 24214.21136 24210.81639     0.00003     0.00007    -0.00007
  Fock        0.00000     0.00000     0.00000     0.00000     0.00000     0.00000
  -------------------------------------------------------------------------------------
  Total      -3.79183    -3.79183    -3.79183     0.00000     0.00000    -0.00000
  in kB      -3.53716    -3.53716    -3.53716     0.00000     0.00000    -0.00000
  external pressure =       -3.54 kB  Pullay stress =        0.00 kB


 VOLUME and BASIS-vectors are now :
 -----------------------------------------------------------------------------
  energy-cutoff  :      350.00
  volume of cell :     1717.53
      direct lattice vectors                 reciprocal lattice vectors
    11.975713352 -0.000000046  0.000000088     0.083502333  0.000000000 -0.000000001
    -0.000000056 11.975714087 -0.000000096     0.000000000  0.083502328  0.000000001
     0.000000093 -0.000000082 11.975713066    -0.000000001  0.000000001  0.083502335

  length of vectors
    11.975713352 11.975714087 11.975713066     0.083502333  0.083502328  0.083502335


 FORCES acting on ions
    electron-ion (+dipol)            ewald-force                    non-local-force                 convergence-correction
 -----------------------------------------------------------------------------------------------
   -.254E-02 -.305E-02 -.122E-02   -.787E-04 -.405E-02 0.127E-02   -.265E-20 -.238E-20 0.195E-19   -.377E-05 0.413E-04 -.158E-04
   -.199E-02 0.744E-03 -.212E-02   0.199E-02 0.963E-03 -.234E-03   0.183E-19 -.206E-20 0.577E-20   -.138E-04 0.312E-05 0.212E-05
   -.106E-03 0.310E-02 0.281E-02   -.165E-02 0.375E-02 0.158E-02   0.172E-19 0.204E-20 0.328E-20   0.477E-05 -.521E-05 -.236E-05
   -.170E-02 -.281E-02 -.168E-02   -.357E-02 -.412E-03 0.495E-03   -.132E-19 0.948E-20 0.908E-20   -.485E-05 0.248E-04 0.952E-05
   0.442E-02 0.238E-03 0.203E-02   0.189E-02 0.411E-02 0.185E-02   -.245E-19 -.572E-20 0.821E-21   0.121E-04 -.326E-04 0.958E-05
   -.540E-03 -.271E-02 -.103E-03   -.113E-02 -.333E-02 -.118E-02   0.388E-20 0.979E-20 0.606E-20   -.609E-05 0.264E-04 0.119E-04
   0.109E-02 0.192E-02 0.202E-02   0.112E-03 0.300E-02 0.394E-02   -.431E-20 -.570E-20 0.159E-21   0.128E-04 -.317E-04 -.920E-05
   0.124E-02 0.420E-02 -.236E-03   -.102E-02 0.244E-02 -.330E-03   -.826E-20 0.995E-20 -.254E-19   0.131E-04 0.250E-05 -.149E-04
   0.241E-02 0.479E-03 -.220E-02   0.252E-02 0.390E-02 -.405E-02   -.152E-20 -.551E-20 -.212E-21   -.128E-04 -.408E-04 0.171E-04
   -.225E-02 0.265E-02 0.906E-03   -.295E-02 -.959E-03 0.254E-02   -.798E-20 0.116E-19 -.725E-20   -.547E-05 -.249E-04 0.938E-05
   0.129E-02 -.345E-02 0.708E-03   0.157E-02 -.405E-02 -.801E-03   0.151E-19 -.771E-20 -.218E-19   -.127E-04 0.495E-05 0.154E-04
   -.356E-02 0.227E-02 -.949E-03   -.437E-02 -.396E-02 0.260E-02   -.171E-19 0.826E-20 0.799E-20   0.610E-05 0.283E-04 -.995E-05
   -.169E-02 -.316E-03 0.187E-02   -.312E-02 -.168E-03 0.181E-02   -.669E-20 0.635E-21 -.111E-20   0.505E-05 -.254E-04 0.100E-04
   -.274E-02 -.106E-02 -.482E-03   -.371E-02 0.133E-02 -.118E-02   -.647E-22 -.805E-20 -.908E-20   0.538E-05 -.266E-04 -.138E-04
   0.279E-02 0.412E-03 0.567E-02   0.199E-02 0.227E-02 0.510E-02   0.152E-19 0.132E-20 0.609E-20   -.120E-04 -.405E-04 -.321E-05
   -.279E-02 0.120E-02 -.418E-02   -.197E-02 0.518E-02 -.286E-02   -.678E-20 0.529E-21 -.124E-19   0.442E-05 -.424E-04 0.293E-05
   0.132E-03 0.138E-02 0.408E-03   0.130E-02 0.104E-02 0.495E-03   0.102E-19 0.214E-19 -.180E-20   -.480E-05 -.437E-05 -.272E-05
   0.112E-02 0.111E-02 0.403E-03   0.268E-02 -.118E-02 0.990E-03   -.366E-20 -.894E-20 0.334E-20   -.111E-04 0.321E-04 0.996E-05
   0.158E-02 -.194E-02 0.950E-04   0.397E-03 -.360E-02 -.208E-02   0.213E-20 0.675E-20 -.158E-19   -.430E-05 0.407E-04 0.157E-04
   0.234E-03 -.241E-02 -.468E-02   0.178E-02 -.439E-02 -.163E-02   0.574E-20 0.116E-20 -.402E-20   0.111E-04 0.407E-04 -.107E-05
   -.140E-02 0.454E-02 -.993E-03   -.323E-02 0.657E-02 -.184E-02   -.652E-20 0.408E-20 -.162E-19   0.140E-04 -.422E-04 0.300E-05
   0.226E-02 0.790E-03 -.357E-02   0.546E-02 0.150E-02 -.610E-02   0.906E-20 0.961E-20 -.815E-20   -.126E-04 -.267E-04 0.138E-04
   -.992E-04 -.161E-02 0.209E-03   0.272E-03 -.137E-02 0.210E-02   -.554E-20 0.969E-20 0.200E-19   -.124E-04 -.331E-05 -.168E-04
   -.396E-03 -.835E-03 0.413E-03   0.996E-03 -.533E-02 0.202E-02   -.769E-20 0.176E-19 -.170E-19   0.119E-04 0.281E-04 -.916E-05
   -.117E-02 -.177E-03 0.166E-02   -.232E-02 -.240E-02 0.379E-03   0.211E-19 0.167E-19 -.911E-20   -.111E-04 0.405E-04 -.157E-05
   -.368E-02 -.145E-03 -.479E-02   -.507E-02 -.303E-02 -.430E-02   -.182E-19 0.113E-19 0.773E-20   0.567E-05 0.271E-04 0.124E-04
   0.409E-02 0.127E-02 0.241E-02   0.489E-02 -.420E-02 0.454E-02   0.774E-20 -.318E-20 0.115E-19   -.115E-04 0.278E-04 -.997E-05
   0.206E-02 0.480E-03 0.384E-02   0.519E-02 0.134E-02 0.509E-02   0.296E-20 0.203E-19 0.809E-20   -.124E-04 -.311E-04 -.101E-04
   0.385E-02 -.997E-03 0.325E-02   0.327E-02 -.121E-02 0.254E-02   0.105E-21 -.434E-20 -.163E-19   0.114E-04 0.252E-04 0.951E-05
   0.534E-03 0.174E-02 -.860E-03   0.790E-03 0.178E-02 0.523E-03   0.773E-20 -.123E-19 -.541E-20   0.397E-05 0.331E-05 0.177E-05
   -.191E-02 0.365E-02 -.317E-02   -.126E-02 0.437E-02 -.318E-02   -.137E-20 -.258E-20 -.108E-19   0.128E-04 -.412E-04 0.165E-04
   -.180E-02 0.175E-02 -.476E-02   -.260E-02 0.129E-02 -.231E-02   0.251E-20 0.551E-20 -.169E-19   -.580E-05 -.260E-04 -.130E-04
   -.442E-02 0.185E-02 -.496E-02   -.619E-02 -.213E-03 -.343E-02   0.326E-20 0.180E-20 0.176E-20   0.612E-05 0.316E-04 0.114E-04
   0.149E-03 0.226E-02 -.379E-02   0.142E-02 0.299E-02 -.189E-02   -.114E-19 -.155E-19 0.376E-20   0.121E-04 -.320E-04 -.136E-04
   -.320E-03 -.418E-02 0.302E-02   0.520E-03 -.271E-02 0.498E-02   -.512E-20 -.103E-19 -.472E-20   -.430E-05 -.240E-05 -.175E-04
   0.668E-02 -.773E-03 0.963E-03   0.438E-02 -.154E-02 -.184E-02   0.882E-20 0.368E-20 0.112E-19   -.111E-04 0.315E-04 -.123E-04
   0.181E-02 -.638E-03 -.219E-02   0.218E-02 -.118E-02 -.624E-03   0.732E-20 0.265E-21 -.699E-20   -.132E-04 -.312E-05 0.281E-05
   -.582E-03 -.261E-02 0.690E-04   0.591E-03 -.632E-02 0.204E-02   -.435E-20 -.529E-20 0.873E-20   0.377E-05 0.423E-04 0.123E-05
   -.137E-02 0.107E-02 -.401E-02   -.181E-02 0.387E-02 -.291E-03   -.662E-20 -.736E-20 -.577E-20   -.532E-05 -.323E-04 -.140E-04
   0.589E-03 -.327E-02 0.176E-02   -.529E-03 -.357E-02 0.663E-03   0.743E-20 -.515E-20 0.402E-20   0.454E-05 0.524E-05 -.170E-05
   0.214E-02 -.460E-03 0.315E-03   -.138E-03 -.266E-02 -.639E-03   0.164E-19 0.672E-20 0.773E-20   0.431E-05 0.410E-04 -.116E-05
   0.587E-05 -.312E-02 0.363E-02   -.716E-03 -.131E-02 0.337E-02   -.641E-20 -.133E-19 0.208E-19   0.124E-04 -.248E-05 -.163E-04
   0.652E-03 0.136E-02 0.189E-02   0.398E-03 0.177E-02 0.112E-02   0.831E-20 0.138E-20 -.688E-21   -.396E-05 0.226E-05 0.214E-05
   -.295E-02 -.213E-02 -.205E-02   -.345E-02 -.165E-02 -.253E-02   -.299E-20 0.635E-21 0.697E-20   -.526E-05 0.260E-04 -.122E-04
   -.196E-02 -.114E-02 -.261E-03   0.482E-03 -.250E-02 0.187E-02   -.196E-20 0.963E-20 -.135E-19   0.122E-04 0.318E-04 -.876E-05
   -.171E-03 0.260E-02 0.462E-02   -.771E-04 0.309E-02 0.408E-02   0.173E-19 -.900E-20 0.286E-20   -.663E-05 -.320E-04 -.933E-05
   0.792E-03 -.196E-03 -.383E-02   0.173E-02 0.196E-02 -.345E-02   -.511E-20 -.101E-19 -.122E-20   0.124E-04 -.265E-04 -.126E-04
   -.191E-02 0.481E-03 0.342E-02   -.175E-02 0.293E-02 0.155E-02   -.126E-19 0.108E-19 -.464E-20   0.457E-05 -.318E-04 0.104E-04
   -.272E-02 -.347E-03 -.995E-03   -.371E-02 -.380E-02 0.204E-02   -.296E-20 -.291E-20 -.498E-20   -.534E-05 0.328E-04 0.919E-05
   -.258E-03 -.239E-02 0.365E-03   0.147E-02 -.502E-02 0.176E-02   0.817E-20 0.113E-19 0.265E-20   -.130E-04 0.419E-04 0.165E-05
   -.852E-03 0.705E-03 -.134E-02   0.385E-02 0.390E-02 -.698E-02   -.754E-20 -.132E-19 -.163E-20   -.124E-04 -.316E-04 0.149E-04
   0.981E-03 0.238E-02 -.559E-02   0.351E-02 0.526E-02 -.441E-02   0.356E-20 0.455E-20 -.148E-19   -.140E-04 -.419E-04 0.326E-05
   -.330E-02 -.362E-03 -.356E-02   -.302E-02 -.344E-02 -.540E-02   -.149E-19 -.191E-20 -.850E-20   -.573E-05 0.323E-04 -.112E-04
   0.129E-02 -.118E-02 0.146E-02   -.298E-03 -.439E-02 -.465E-03   0.152E-19 0.113E-19 -.146E-19   -.119E-04 0.408E-04 0.151E-04
   0.899E-03 0.219E-02 0.282E-02   -.317E-02 0.275E-02 0.220E-02   -.173E-20 -.741E-20 0.121E-19   0.138E-04 0.246E-05 0.178E-05
   -.620E-03 -.245E-02 -.258E-02   0.220E-02 -.381E-02 -.324E-02   -.258E-20 0.350E-19 0.948E-20   -.116E-04 0.266E-04 0.130E-04
   -.452E-02 -.160E-02 -.346E-02   -.869E-03 -.505E-02 -.167E-02   0.219E-19 -.166E-19 -.135E-19   -.122E-04 0.415E-04 -.151E-04
   -.168E-02 -.168E-02 0.439E-02   -.131E-02 -.165E-02 0.216E-02   -.337E-20 0.741E-20 -.852E-20   0.446E-05 0.253E-04 0.103E-04
   0.299E-02 0.591E-02 -.184E-02   0.162E-02 0.586E-02 -.281E-02   -.492E-20 -.529E-22 -.249E-20   -.444E-05 -.417E-04 0.333E-05
   0.368E-03 0.103E-02 -.274E-02   0.105E-02 0.192E-02 -.590E-03   -.799E-20 0.634E-20 -.233E-20   0.112E-04 -.443E-05 -.233E-05
   -.122E-02 0.138E-02 -.130E-02   -.270E-02 0.222E-02 0.837E-03   -.458E-20 0.302E-20 -.232E-19   0.493E-05 -.312E-04 -.148E-04
   -.500E-02 -.186E-02 -.112E-03   -.701E-02 -.208E-02 0.337E-02   0.305E-20 -.341E-20 -.127E-20   0.651E-05 0.309E-04 -.951E-05
   -.171E-02 0.157E-02 -.214E-02   -.100E-03 0.132E-02 -.206E-02   -.147E-19 0.768E-20 -.170E-19   0.121E-04 -.438E-05 0.162E-04
   -.196E-03 0.366E-02 0.406E-02   -.656E-03 0.306E-02 0.268E-02   0.694E-20 0.863E-20 -.471E-20   -.112E-04 -.515E-05 -.275E-05
   -.205E-02 -.359E-02 -.374E-03   -.156E-02 -.403E-02 0.489E-03   -.236E-19 0.106E-21 -.741E-21   0.441E-05 0.512E-05 0.141E-04
   0.523E-03 -.205E-03 0.571E-03   -.452E-04 0.487E-03 0.132E-02   0.135E-19 -.609E-20 -.151E-19   0.429E-05 -.338E-05 -.156E-04
   0.254E-02 0.169E-02 -.652E-03   0.845E-03 0.154E-02 -.171E-02   0.913E-20 -.162E-19 0.503E-20   0.409E-05 0.342E-05 -.142E-04
   0.393E-02 -.311E-02 -.134E-02   0.124E-02 -.621E-02 -.304E-02   -.117E-19 0.646E-20 -.110E-19   0.379E-05 0.420E-04 -.139E-04
   -.139E-02 0.596E-03 -.102E-02   0.896E-03 0.889E-03 -.102E-03   0.188E-20 0.638E-20 0.450E-20   -.131E-04 0.332E-05 -.155E-04
   -.147E-02 -.190E-02 -.931E-03   -.187E-02 -.133E-02 -.623E-03   -.555E-20 -.101E-19 0.169E-20   0.127E-04 0.440E-05 0.148E-04
   0.309E-02 -.433E-02 0.177E-03   -.324E-03 -.676E-02 -.115E-02   -.122E-19 0.172E-19 0.356E-20   0.122E-04 0.417E-04 -.146E-04
   -.523E-02 0.359E-02 -.125E-02   -.271E-02 0.384E-02 -.252E-02   -.229E-19 0.794E-21 -.688E-20   0.472E-05 -.510E-05 0.155E-04
   -.137E-02 -.166E-02 -.421E-02   0.656E-03 -.250E-02 -.879E-03   0.460E-20 0.789E-20 0.212E-21   -.431E-05 0.403E-04 -.148E-05
   -.846E-03 -.321E-02 0.240E-03   0.309E-03 -.435E-02 0.101E-02   -.594E-20 -.254E-19 0.635E-20   0.119E-04 0.411E-04 0.145E-04
   -.668E-03 0.238E-02 0.215E-02   0.170E-02 0.547E-02 0.333E-02   0.866E-20 0.126E-19 0.111E-19   -.132E-04 -.415E-04 -.172E-04
   -.180E-02 0.974E-03 -.151E-02   -.334E-02 0.527E-02 0.741E-03   0.686E-21 -.222E-20 0.167E-19   -.497E-05 -.328E-04 0.970E-05
   0.720E-02 -.143E-02 0.331E-02   0.668E-02 -.125E-02 0.455E-02   -.495E-20 -.810E-20 0.409E-20   -.117E-04 0.312E-04 -.958E-05
   -.113E-02 0.123E-02 0.357E-02   -.258E-02 -.121E-02 0.172E-02   -.226E-20 0.148E-20 -.776E-20   0.492E-05 0.319E-04 0.989E-05
   0.124E-03 0.140E-02 0.384E-02   -.470E-03 0.396E-02 0.407E-02   0.131E-19 -.129E-19 -.371E-20   -.710E-05 -.277E-04 -.898E-05
   0.417E-02 0.258E-02 -.294E-02   0.107E-02 0.201E-02 -.470E-02   0.941E-20 0.123E-19 -.172E-19   -.475E-05 -.421E-05 0.175E-04
   0.220E-02 -.226E-02 0.727E-03   0.191E-02 -.159E-02 -.223E-02   -.909E-20 -.130E-19 0.244E-20   -.442E-05 0.422E-05 0.161E-04
   0.157E-02 0.123E-02 -.476E-02   0.440E-02 -.155E-02 -.371E-02   0.763E-20 -.985E-20 0.139E-19   -.118E-04 0.317E-04 0.119E-04
   -.301E-02 0.828E-03 0.525E-02   -.321E-02 0.249E-02 0.376E-02   0.475E-20 -.271E-20 -.152E-19   0.499E-05 -.410E-04 -.288E-05
   -.402E-02 0.101E-02 -.385E-02   -.384E-02 0.423E-02 -.319E-02   -.213E-19 -.159E-21 -.961E-20   0.483E-05 -.413E-04 0.158E-04
   -.224E-02 0.315E-02 -.971E-03   -.711E-03 0.148E-02 0.152E-02   0.571E-20 -.577E-20 -.150E-19   -.409E-05 0.240E-05 -.161E-04
   -.124E-02 0.137E-03 -.206E-02   0.205E-02 -.158E-02 -.334E-02   -.623E-20 0.159E-20 -.770E-20   0.113E-04 0.265E-04 -.117E-04
   -.681E-03 0.121E-02 -.591E-03   0.319E-02 0.352E-02 0.258E-03   0.858E-20 -.831E-20 -.157E-19   -.117E-04 -.320E-04 0.105E-04
   0.277E-03 0.150E-02 0.162E-02   -.113E-02 -.114E-02 -.361E-03   -.114E-19 0.318E-20 0.193E-20   0.488E-05 0.266E-04 -.128E-04
   -.424E-02 -.324E-03 -.254E-02   -.485E-02 0.205E-02 -.708E-02   -.535E-20 -.429E-20 -.135E-19   0.587E-05 -.315E-04 0.144E-04
   0.175E-02 0.316E-02 0.283E-02   -.709E-03 0.571E-02 0.345E-02   0.331E-20 0.651E-20 0.171E-20   0.132E-04 -.417E-04 -.166E-04
   -.797E-03 -.574E-03 0.186E-02   0.681E-03 0.473E-02 0.287E-02   -.824E-20 0.461E-20 0.207E-19   0.131E-04 -.282E-04 -.881E-05
   0.159E-03 -.146E-02 0.474E-02   -.872E-04 -.222E-02 0.375E-02   0.112E-19 -.212E-21 0.191E-19   -.695E-05 0.321E-04 -.882E-05
   0.227E-02 0.728E-03 -.205E-02   0.304E-02 0.175E-02 0.163E-02   0.467E-20 0.601E-20 0.438E-20   -.117E-04 -.315E-04 -.152E-04
   -.305E-02 0.110E-02 0.106E-02   -.521E-02 0.208E-02 0.489E-02   0.183E-22 -.840E-20 0.662E-20   0.623E-05 -.309E-04 -.100E-04
   0.899E-03 -.387E-02 0.510E-02   0.340E-03 -.422E-02 0.161E-02   -.104E-20 0.969E-20 0.656E-20   -.375E-05 0.417E-04 0.153E-05
   0.281E-02 0.138E-02 0.146E-02   0.145E-02 0.442E-03 0.309E-02   -.766E-20 -.318E-21 -.572E-20   0.123E-04 -.253E-04 0.921E-05
   0.256E-02 -.279E-03 0.339E-02   0.358E-02 -.331E-02 0.331E-02   -.865E-20 -.905E-20 -.557E-20   0.116E-04 0.327E-04 0.913E-05
   -.198E-02 -.285E-02 -.214E-02   0.224E-02 -.353E-02 -.573E-02   -.980E-20 -.566E-20 -.131E-19   0.115E-04 0.321E-04 -.107E-04
   0.192E-02 0.117E-02 0.406E-03   0.121E-02 0.271E-02 -.250E-02   -.191E-19 0.386E-20 -.137E-19   0.130E-04 -.270E-04 0.122E-04
   0.122E-02 0.901E-03 0.949E-03   0.127E-02 0.199E-02 0.243E-02   0.107E-19 -.156E-20 -.794E-21   -.504E-05 -.403E-04 -.331E-05
   0.292E-02 0.416E-02 -.199E-02   0.174E-02 0.447E-02 -.414E-02   0.952E-20 -.103E-19 0.158E-19   -.120E-04 -.494E-05 0.168E-04
   0.205E-03 0.161E-02 0.269E-02   -.593E-03 0.426E-02 0.227E-02   0.144E-20 0.196E-20 0.254E-20   0.459E-05 -.420E-04 -.158E-04
   0.512E-02 -.220E-02 -.167E-02   0.404E-02 -.438E-02 -.120E-02   -.274E-20 0.556E-20 0.888E-20   0.121E-04 0.269E-04 0.113E-04
   -.117E-02 -.310E-02 0.105E-02   -.163E-02 -.314E-02 -.805E-03   -.677E-20 -.995E-20 -.283E-20   0.132E-04 -.245E-05 0.235E-05
   -.103E-02 0.109E-02 0.108E-02   0.439E-05 0.326E-02 0.148E-02   -.123E-19 -.686E-20 -.118E-19   0.120E-04 -.408E-04 -.298E-05
   -.280E-03 -.396E-02 0.235E-02   0.406E-04 -.302E-02 0.111E-02   0.139E-19 -.324E-21 -.217E-20   -.119E-04 0.516E-05 -.206E-05
   0.391E-02 -.384E-03 0.103E-02   0.252E-02 -.195E-02 -.258E-03   0.152E-19 0.529E-20 0.625E-20   -.109E-04 0.261E-04 -.133E-04
   -.189E-02 -.108E-02 0.104E-02   -.380E-03 -.413E-02 0.165E-02   -.213E-19 0.267E-20 0.784E-20   0.429E-05 0.413E-04 0.139E-04
   0.172E-02 -.312E-02 -.450E-03   0.804E-03 -.335E-02 -.816E-03   0.115E-19 -.778E-20 -.154E-19   -.424E-05 -.227E-05 0.275E-05
   -.336E-04 -.279E-02 0.402E-02   -.150E-02 -.487E-02 0.325E-02   0.205E-19 0.699E-20 0.196E-20   -.651E-05 0.276E-04 -.918E-05
   -.143E-02 -.210E-02 0.189E-02   -.359E-02 -.251E-02 -.156E-02   -.117E-19 -.725E-20 -.907E-21   0.531E-05 0.312E-04 -.118E-04
   -.125E-04 0.291E-02 0.971E-03   -.120E-02 0.534E-02 -.450E-02   0.284E-20 0.688E-20 -.498E-20   -.628E-05 -.324E-04 0.137E-04
   0.539E-02 0.159E-02 -.571E-03   0.226E-02 0.395E-02 -.392E-02   -.975E-20 -.728E-20 0.259E-20   0.128E-04 -.323E-04 0.132E-04
   0.554E-02 -.691E-03 0.534E-02   0.608E-02 0.404E-02 0.528E-02   0.136E-19 0.813E-20 -.551E-20   -.127E-04 -.279E-04 -.976E-05
   -.404E-03 -.336E-02 -.937E-03   0.160E-02 -.185E-02 -.105E-02   0.341E-20 0.120E-19 -.202E-19   -.110E-04 0.249E-04 0.103E-04
   -.476E-02 -.152E-02 0.231E-02   -.625E-02 0.396E-02 0.471E-02   0.126E-19 -.169E-20 -.830E-20   0.666E-05 -.284E-04 -.959E-05
   -.498E-02 -.137E-02 -.357E-02   -.566E-02 0.119E-02 -.529E-02   -.925E-20 -.155E-19 0.292E-20   0.633E-05 -.272E-04 0.134E-04
   -.245E-02 -.521E-03 -.240E-02   -.141E-02 -.654E-03 -.436E-03   -.609E-20 0.566E-20 -.794E-21   0.422E-05 -.329E-05 0.241E-05
   0.164E-03 -.147E-02 -.293E-03   -.627E-03 -.322E-02 -.399E-03   0.103E-19 -.932E-20 0.114E-19   -.656E-05 0.325E-04 0.108E-04
   -.155E-02 -.197E-03 -.130E-02   -.283E-03 -.427E-03 -.390E-03   -.801E-21 -.336E-20 0.120E-19   -.456E-05 0.438E-05 -.210E-05
   -.153E-02 0.406E-02 0.265E-02   -.428E-03 0.530E-02 0.518E-02   0.329E-20 0.159E-21 0.818E-20   -.462E-05 -.413E-04 -.179E-04
   0.356E-02 0.161E-02 -.209E-02   0.261E-02 0.318E-02 -.492E-02   -.453E-21 -.320E-20 0.159E-20   -.487E-05 -.407E-04 0.178E-04
   0.700E-03 0.157E-02 0.306E-03   -.102E-02 0.129E-02 -.422E-02   -.113E-19 0.201E-20 0.296E-20   -.677E-05 -.265E-04 0.126E-04
   0.112E-02 0.506E-03 -.167E-02   0.802E-03 -.680E-03 -.128E-02   -.106E-19 -.707E-20 -.551E-20   0.119E-04 0.446E-05 -.174E-05
   0.256E-02 -.411E-03 -.106E-02   0.237E-02 -.221E-02 0.544E-03   -.148E-19 -.737E-20 0.414E-20   0.122E-04 0.324E-04 0.103E-04
   0.750E-03 0.103E-02 0.246E-03   0.454E-02 -.500E-03 0.196E-02   0.472E-20 -.948E-20 0.900E-20   -.119E-04 -.249E-04 0.102E-04
   0.681E-04 -.404E-02 0.411E-02   -.241E-02 -.623E-02 0.170E-02   -.636E-21 0.145E-19 0.189E-19   0.130E-04 0.421E-04 0.111E-05
   0.349E-02 0.820E-03 -.187E-02   0.454E-02 0.181E-02 -.110E-02   0.245E-19 0.222E-20 0.417E-20   -.120E-04 -.261E-04 -.142E-04
 -----------------------------------------------------------------------------------------------
   -.957E-10 0.309E-09 -.998E-10   -.669E-12 0.730E-12 0.473E-11   -.418E-19 0.355E-19 -.157E-18   -.659E-11 0.483E-11 -.152E-10
 
 
 POSITION                                       TOTAL-FORCE (eV/Angst)
 -----------------------------------------------------------------------------------
      4.49089      1.49697      7.48482         0.000000      0.000000     -0.000000
      1.49696      4.49089     10.47875         0.000000      0.000000      0.000000
     10.47875     10.47875      4.49089        -0.000000     -0.000000     -0.000000
      0.00000      0.00000      2.99393        -0.000000      0.000000      0.000000
      8.98178      8.98178      2.99393         0.000000     -0.000000     -0.000000
      0.00000      0.00000      0.00000        -0.000000      0.000000     -0.000000
      8.98178      8.98178      8.98178        -0.000000      0.000000      0.000000
      7.48482      4.49089      7.48482         0.000000      0.000000     -0.000000
      1.49696      7.48482      1.49697         0.000000     -0.000000      0.000000
      0.00000      5.98786      2.99393         0.000000     -0.000000      0.000000
      1.49696      4.49090      1.49696        -0.000000      0.000000     -0.000000
      5.98786     11.97571      8.98178         0.000000     -0.000000     -0.000000
      5.98786      5.98786      2.99393        -0.000000      0.000000     -0.000000
      5.98786      5.98786      5.98786         0.000000      0.000000      0.000000
      1.49696      7.48482      4.49089        -0.000000      0.000000     -0.000000
     10.47875      7.48482     10.47875         0.000000     -0.000000     -0.000000
      4.49089     10.47875      4.49089         0.000000      0.000000     -0.000000
      2.99393      2.99393      2.99393        -0.000000     -0.000000      0.000000
      4.49089      1.49697      1.49696         0.000000     -0.000000      0.000000
      7.48482      1.49697      4.49090        -0.000000      0.000000      0.000000
      7.48482      7.48482     10.47875         0.000000      0.000000      0.000000
      2.99393      5.98786      0.00000        -0.000000      0.000000     -0.000000
      1.49696     10.47875      7.48482         0.000000     -0.000000      0.000000
      8.98179      0.00000      8.98178         0.000000      0.000000      0.000000
      1.49697      1.49696      4.49089        -0.000000     -0.000000      0.000000
      5.98786      0.00000      0.00000         0.000000      0.000000      0.000000
      2.99392      0.00000      8.98178         0.000000     -0.000000      0.000000
      2.99393      8.98178      8.98178         0.000000      0.000000      0.000000
      8.98178      0.00000      2.99393        -0.000000      0.000000     -0.000000
     10.47875      4.49089     10.47875         0.000000      0.000000     -0.000000
      7.48482      7.48482      1.49697        -0.000000     -0.000000      0.000000
      0.00000      5.98786      5.98786        -0.000000      0.000000     -0.000000
      5.98786      2.99393      0.00000         0.000000     -0.000000      0.000000
      8.98178      8.98178      5.98786         0.000000     -0.000000     -0.000000
      4.49089     10.47875      7.48482         0.000000      0.000000     -0.000000
      2.99392      2.99393      5.98786         0.000000      0.000000     -0.000000
      1.49696     10.47875     10.47875        -0.000000     -0.000000      0.000000
     10.47875      1.49697     10.47875         0.000000      0.000000      0.000000
      0.00000      8.98178      5.98786        -0.000000     -0.000000     -0.000000
     10.47875      4.49090      4.49089         0.000000     -0.000000     -0.000000
     10.47875      1.49697      4.49089         0.000000     -0.000000      0.000000
      7.48482     10.47875      7.48482         0.000000     -0.000000     -0.000000
      4.49089      4.49089     10.47875         0.000000      0.000000     -0.000000
      0.00000      0.00000      5.98786         0.000000      0.000000      0.000000
      8.98179      2.99393      8.98178        -0.000000      0.000000      0.000000
      0.00000      8.98178      8.98178        -0.000000     -0.000000      0.000000
      8.98178      5.98786      5.98786         0.000000     -0.000000     -0.000000
      5.98786      8.98178      2.99393        -0.000000     -0.000000      0.000000
      0.00000      2.99393      2.99393         0.000000     -0.000000      0.000000
      1.49696      1.49697     10.47875        -0.000000      0.000000     -0.000000
      2.99393      8.98178      0.00000         0.000000     -0.000000     -0.000000
      1.49696      7.48482     10.47875         0.000000      0.000000      0.000000
      0.00000      2.99393      5.98786        -0.000000     -0.000000      0.000000
      1.49696      1.49697      1.49696        -0.000000      0.000000     -0.000000
      7.48482      4.49089     10.47875         0.000000     -0.000000      0.000000
      2.99393      0.00000      0.00000        -0.000000      0.000000     -0.000000
      1.49697      1.49697      7.48482        -0.000000      0.000000     -0.000000
      5.98786      0.00000      2.99393        -0.000000     -0.000000     -0.000000
      4.49089      7.48482     10.47875         0.000000      0.000000     -0.000000
      7.48482     10.47875      4.49089        -0.000000      0.000000      0.000000
      5.98786      8.98178      5.98786        -0.000000      0.000000     -0.000000
      5.98786      2.99393      8.98178         0.000000      0.000000      0.000000
      7.48482     10.47875      1.49697        -0.000000      0.000000     -0.000000
      1.49696     10.47875      4.49089        -0.000000     -0.000000      0.000000
     10.47875      4.49090      1.49696        -0.000000      0.000000     -0.000000
     10.47875     10.47875      7.48482         0.000000     -0.000000     -0.000000
     10.47875      4.49089      7.48482         0.000000      0.000000     -0.000000
     10.47875      1.49697      7.48482         0.000000      0.000000     -0.000000
      1.49696      4.49089      7.48482        -0.000000     -0.000000     -0.000000
      7.48482      4.49089      1.49696        -0.000000     -0.000000     -0.000000
      7.48482      1.49697      7.48482         0.000000      0.000000     -0.000000
     10.47875     10.47875      1.49697        -0.000000      0.000000      0.000000
      4.49089      1.49697      4.49090         0.000000     -0.000000     -0.000000
      7.48482      1.49697      1.49696        -0.000000     -0.000000      0.000000
      1.49696      7.48482      7.48482         0.000000      0.000000      0.000000
      0.00000      8.98178      2.99393        -0.000000     -0.000000     -0.000000
      2.99392      2.99393      8.98178         0.000000      0.000000     -0.000000
      5.98786      2.99393      2.99393        -0.000000     -0.000000     -0.000000
      0.00000      5.98786      8.98178         0.000000     -0.000000     -0.000000
      4.49089     10.47875      1.49697        -0.000000      0.000000      0.000000
      4.49089      4.49089      1.49696        -0.000000     -0.000000      0.000000
      2.99393      2.99393      0.00000         0.000000      0.000000     -0.000000
     10.47875      7.48482      4.49089         0.000000      0.000000     -0.000000
     10.47875      7.48482      1.49697         0.000000     -0.000000     -0.000000
      4.49089      4.49089      7.48482         0.000000     -0.000000      0.000000
      8.98179      0.00000      5.98786         0.000000      0.000000     -0.000000
      2.99393      8.98178      2.99393        -0.000000     -0.000000     -0.000000
      5.98786     11.97571      5.98786        -0.000000     -0.000000     -0.000000
      5.98786      8.98179      0.00000         0.000000     -0.000000      0.000000
      7.48482      7.48482      7.48482         0.000000      0.000000     -0.000000
      8.98179      5.98786      8.98178        -0.000000     -0.000000      0.000000
     11.97571      2.99393      8.98178        -0.000000      0.000000     -0.000000
      2.99393      8.98178      5.98786         0.000000     -0.000000      0.000000
      5.98786      8.98178      8.98178        -0.000000      0.000000     -0.000000
      4.49089      1.49697     10.47875        -0.000000      0.000000      0.000000
      8.98178      5.98786      2.99393         0.000000      0.000000      0.000000
      8.98178      2.99393      2.99393        -0.000000     -0.000000      0.000000
      8.98179      2.99393      5.98786         0.000000      0.000000      0.000000
      8.98178      5.98786      0.00000        -0.000000     -0.000000      0.000000
      4.49089      7.48482      4.49089         0.000000      0.000000     -0.000000
      1.49696     10.47875      1.49697         0.000000     -0.000000      0.000000
     10.47875      7.48482      7.48482        -0.000000     -0.000000     -0.000000
      8.98178      0.00000      0.00000         0.000000      0.000000      0.000000
      7.48482     10.47875     10.47875         0.000000     -0.000000      0.000000
      7.48482      7.48482      4.49089        -0.000000     -0.000000      0.000000
      1.49696      4.49090      4.49089        -0.000000      0.000000      0.000000
      2.99393      0.00000      5.98786         0.000000      0.000000     -0.000000
     10.47875      1.49697      1.49696         0.000000      0.000000     -0.000000
      4.49089     10.47875     10.47875        -0.000000     -0.000000     -0.000000
      0.00000      0.00000      8.98178         0.000000     -0.000000      0.000000
      5.98786      2.99393      5.98786         0.000000     -0.000000      0.000000
      0.00000      8.98178      0.00000        -0.000000     -0.000000     -0.000000
      8.98178      8.98178      0.00000         0.000000     -0.000000      0.000000
      2.99392      5.98786      8.98178         0.000000      0.000000      0.000000
      2.99393      0.00000      2.99393        -0.000000      0.000000      0.000000
      5.98786      5.98786      8.98178         0.000000      0.000000     -0.000000
      5.98786      5.98786      0.00000        -0.000000     -0.000000      0.000000
     10.47875     10.47875     10.47875         0.000000     -0.000000      0.000000
      0.00000      2.99393      0.00000        -0.000000     -0.000000     -0.000000
      4.49089      4.49089      4.49089        -0.000000     -0.000000     -0.000000
      4.49089      7.48482      7.48482         0.000000      0.000000      0.000000
      4.49089      7.48482      1.49697        -0.000000      0.000000      0.000000
     11.97571      5.98786      0.00000        -0.000000     -0.000000     -0.000000
      7.48482      4.49089      4.49089        -0.000000      0.000000      0.000000
      8.98178      2.99393      0.00000        -0.000000     -0.000000     -0.000000
      2.99393      5.98786      2.99393        -0.000000     -0.000000     -0.000000
      7.48482      1.49697     10.47875        -0.000000     -0.000000      0.000000
      2.99393      5.98786      5.98786         0.000000      0.000000     -0.000000
 -----------------------------------------------------------------------------------
    total drift:                               -0.000000      0.000000     -0.000000


--------------------------------------------------------------------------------------------------------



  FREE ENERGIE OF THE ION-ELECTRON SYSTEM (eV)
  ---------------------------------------------------
  free  energy   TOTEN  =     -1150.82266721 eV

  energy  without entropy=    -1150.39315471  energy(sigma->0) =    -1150.67949638
 d Force = 0.0000000E+00[ 0.000E+00, 0.000E+00]  d Energy = 0.1648379E-02-0.165E-02
 d Force = 0.0000000E+00[ 0.000E+00, 0.000E+00]  d Ewald  =-0.2518109E+03 0.252E+03
 


--------------------------------------------------------------------------------------------------------


    POTLOK:  cpu time      0.1220: real time      0.0241


--------------------------------------------------------------------------------------------------------


 Steepest descent step on ions:
 trial-energy change:   -0.001648  1 .order    0.000524   -0.014082    0.015130
  (g-gl).g = 0.141E-01      g.g   = 0.141E-01  gl.gl    = 0.000E+00
 g(Force)  = 0.120E-37   g(Stress)= 0.141E-01 ortho     = 0.000E+00
 gamma     =   0.00000
 trial     =   1.00000
 opt step  =   0.59000  (harmonic =   0.48206) maximal distance =0.00000000
 next E    = -1150.825619   (d E  =  -0.00460)


--------------------------------------------------------------------------------------------------------


      MLFF:  cpu time      0.0351: real time      0.0658
    WAVPRE:  cpu time      0.2901: real time      0.0996
    FEWALD:  cpu time      0.1702: real time      0.1696
    GENKIN:  cpu time      0.0044: real time      0.0044
    ORTHCH:  cpu time      0.5005: real time      0.5002
     LOOP+:  cpu time     34.3404: real time     30.4640


--------------------------------------- Ionic step        3  -------------------------------------------




--------------------------------------- Iteration      3(   1)  ---------------------------------------


    POTLOK:  cpu time      0.0063: real time      0.0059
    SETDIJ:  cpu time      0.0851: real time      0.0057
     EDDAV:  cpu time      3.1948: real time      3.1422
       DOS:  cpu time      0.0013: real time      0.0013
    CHARGE:  cpu time      0.4049: real time      0.2629
    MIXING:  cpu time      0.0317: real time      0.0025
    --------------------------------------------
      LOOP:  cpu time      3.7241: real time      3.4206

 eigenvalue-minimisations  :  8208
 total energy-change (2. order) :-0.8058466E-01  (-0.1747764E+00)
 number of electron    1664.0022188 magnetization 
 augmentation part      603.7832740 magnetization 

 Broyden mixing:
  rms(total) = 0.29838E+00    rms(broyden)= 0.29827E+00
  rms(prec ) = 0.32141E+00
  weight for this iteration     100.00

 Free energy of the ion-electron system (eV)
  ---------------------------------------------------
  alpha Z        PSCENC =     11674.20431497
  Ewald energy   TEWEN  =   -189420.92671210
  -Hartree energ DENC   =    -50194.05089576
  -exchange      EXHF   =         0.00000000
  -V(xc)+E(xc)   XCENC  =      8956.62197179
  PAW double counting   =    248792.51887569  -251159.47508585
  entropy T*S    EENTRO =        -0.43864506
  eigenvalues    EBANDS =    -29662.33660432
  atomic energy  EATOM  =    249862.97952924
  Solvation  Ediel_sol  =         0.00000000
  ---------------------------------------------------
  free energy    TOTEN  =     -1150.90325138 eV

  energy without entropy =    -1150.46460632  energy(sigma->0) =    -1150.75703636


--------------------------------------------------------------------------------------------------------




--------------------------------------- Iteration      3(   2)  ---------------------------------------


    POTLOK:  cpu time      0.0371: real time      0.0102
    SETDIJ:  cpu time      0.0871: real time      0.0059
     EDDAV:  cpu time      3.2311: real time      3.1785
       DOS:  cpu time      0.0013: real time      0.0013
    CHARGE:  cpu time      0.4130: real time      0.2650
    MIXING:  cpu time      0.0354: real time      0.0026
    --------------------------------------------
      LOOP:  cpu time      3.8050: real time      3.4636

 eigenvalue-minimisations  :  8328
 total energy-change (2. order) : 0.7683501E-01  (-0.4444821E-01)
 number of electron    1664.0022218 magnetization 
 augmentation part      605.0560372 magnetization 

 Broyden mixing:
  rms(total) = 0.58162E-01    rms(broyden)= 0.58097E-01
  rms(prec ) = 0.59658E-01
  weight for this iteration     100.00

 eigenvalues of (default mixing * dielectric matrix)
  average eigenvalue GAMMA=   0.8928
  0.8928

 Free energy of the ion-electron system (eV)
  ---------------------------------------------------
  alpha Z        PSCENC =     11674.20431497
  Ewald energy   TEWEN  =   -189420.92671210
  -Hartree energ DENC   =    -50114.16560479
  -exchange      EXHF   =         0.00000000
  -V(xc)+E(xc)   XCENC  =      8952.67209309
  PAW double counting   =    249145.69429199  -251512.04842631
  entropy T*S    EENTRO =        -0.42761552
  eigenvalues    EBANDS =    -29738.80828695
  atomic energy  EATOM  =    249862.97952924
  Solvation  Ediel_sol  =         0.00000000
  ---------------------------------------------------
  free energy    TOTEN  =     -1150.82641637 eV

  energy without entropy =    -1150.39880085  energy(sigma->0) =    -1150.68387786


--------------------------------------------------------------------------------------------------------




--------------------------------------- Iteration      3(   3)  ---------------------------------------


    POTLOK:  cpu time      0.0384: real time      0.0165
    SETDIJ:  cpu time      0.0852: real time      0.0057
     EDDAV:  cpu time      3.3014: real time      3.2479
       DOS:  cpu time      0.0013: real time      0.0013
    CHARGE:  cpu time      0.4092: real time      0.2628
    MIXING:  cpu time      0.0380: real time      0.0029
    --------------------------------------------
      LOOP:  cpu time      3.8737: real time      3.5371

 eigenvalue-minimisations  :  8544
 total energy-change (2. order) : 0.5114751E-03  (-0.3948519E-03)
 number of electron    1664.0022220 magnetization 
 augmentation part      605.0593858 magnetization 

 Broyden mixing:
  rms(total) = 0.36034E-01    rms(broyden)= 0.36033E-01
  rms(prec ) = 0.37157E-01
  weight for this iteration     100.00

 eigenvalues of (default mixing * dielectric matrix)
  average eigenvalue GAMMA=   1.7057
  0.9965  2.4148

 Free energy of the ion-electron system (eV)
  ---------------------------------------------------
  alpha Z        PSCENC =     11674.20431497
  Ewald energy   TEWEN  =   -189420.92671210
  -Hartree energ DENC   =    -50115.80676349
  -exchange      EXHF   =         0.00000000
  -V(xc)+E(xc)   XCENC  =      8952.75520103
  PAW double counting   =    249134.42522609  -251501.34291356
  entropy T*S    EENTRO =        -0.42721570
  eigenvalues    EBANDS =    -29736.68657138
  atomic energy  EATOM  =    249862.97952924
  Solvation  Ediel_sol  =         0.00000000
  ---------------------------------------------------
  free energy    TOTEN  =     -1150.82590489 eV

  energy without entropy =    -1150.39868920  energy(sigma->0) =    -1150.68349966


--------------------------------------------------------------------------------------------------------




--------------------------------------- Iteration      3(   4)  ---------------------------------------


    POTLOK:  cpu time      0.0354: real time      0.0141
    SETDIJ:  cpu time      0.0858: real time      0.0059
     EDDAV:  cpu time      3.2069: real time      3.1544
       DOS:  cpu time      0.0013: real time      0.0013
    CHARGE:  cpu time      0.4136: real time      0.2635
    MIXING:  cpu time      0.0402: real time      0.0030
    --------------------------------------------
      LOOP:  cpu time      3.7833: real time      3.4421

 eigenvalue-minimisations  :  8240
 total energy-change (2. order) : 0.3758016E-03  (-0.1244176E-03)
 number of electron    1664.0022220 magnetization 
 augmentation part      605.0311649 magnetization 

 Broyden mixing:
  rms(total) = 0.58125E-02    rms(broyden)= 0.58053E-02
  rms(prec ) = 0.59919E-02
  weight for this iteration     100.00

 eigenvalues of (default mixing * dielectric matrix)
  average eigenvalue GAMMA=   1.6023
  2.4590  1.0499  1.2981

 Free energy of the ion-electron system (eV)
  ---------------------------------------------------
  alpha Z        PSCENC =     11674.20431497
  Ewald energy   TEWEN  =   -189420.92671210
  -Hartree energ DENC   =    -50119.49380103
  -exchange      EXHF   =         0.00000000
  -V(xc)+E(xc)   XCENC  =      8952.93812561
  PAW double counting   =    249114.10822775  -251481.49410785
  entropy T*S    EENTRO =        -0.42682108
  eigenvalues    EBANDS =    -29732.71428461
  atomic energy  EATOM  =    249862.97952924
  Solvation  Ediel_sol  =         0.00000000
  ---------------------------------------------------
  free energy    TOTEN  =     -1150.82552909 eV

  energy without entropy =    -1150.39870801  energy(sigma->0) =    -1150.68325540


--------------------------------------------------------------------------------------------------------




--------------------------------------- Iteration      3(   5)  ---------------------------------------


    POTLOK:  cpu time      0.0354: real time      0.0118
    SETDIJ:  cpu time      0.0847: real time      0.0057
     EDDAV:  cpu time      3.3224: real time      3.2689
       DOS:  cpu time      0.0014: real time      0.0013
    CHARGE:  cpu time      0.4100: real time      0.2635
    MIXING:  cpu time      0.0442: real time      0.0032
    --------------------------------------------
      LOOP:  cpu time      3.8980: real time      3.5544

 eigenvalue-minimisations  :  8632
 total energy-change (2. order) : 0.2850554E-04  (-0.2185379E-04)
 number of electron    1664.0022220 magnetization 
 augmentation part      605.0585661 magnetization 

 Broyden mixing:
  rms(total) = 0.17044E-02    rms(broyden)= 0.17043E-02
  rms(prec ) = 0.19846E-02
  weight for this iteration     100.00

 eigenvalues of (default mixing * dielectric matrix)
  average eigenvalue GAMMA=   1.7782
  0.9576  0.9576  2.5987  2.5987

 Free energy of the ion-electron system (eV)
  ---------------------------------------------------
  alpha Z        PSCENC =     11674.20431497
  Ewald energy   TEWEN  =   -189420.92671210
  -Hartree energ DENC   =    -50118.19635563
  -exchange      EXHF   =         0.00000000
  -V(xc)+E(xc)   XCENC  =      8952.87298525
  PAW double counting   =    249119.71249534  -251486.85951056
  entropy T*S    EENTRO =        -0.42657020
  eigenvalues    EBANDS =    -29734.18567691
  atomic energy  EATOM  =    249862.97952924
  Solvation  Ediel_sol  =         0.00000000
  ---------------------------------------------------
  free energy    TOTEN  =     -1150.82550059 eV

  energy without entropy =    -1150.39893039  energy(sigma->0) =    -1150.68331052


--------------------------------------------------------------------------------------------------------




--------------------------------------- Iteration      3(   6)  ---------------------------------------


    POTLOK:  cpu time      0.0406: real time      0.0206
    SETDIJ:  cpu time      0.0857: real time      0.0058
     EDDAV:  cpu time      3.2849: real time      3.2318
       DOS:  cpu time      0.0013: real time      0.0013
    CHARGE:  cpu time      0.4091: real time      0.2636
    MIXING:  cpu time      0.0484: real time      0.0035
    --------------------------------------------
      LOOP:  cpu time      3.8700: real time      3.5266

 eigenvalue-minimisations  :  8480
 total energy-change (2. order) : 0.2537813E-04  (-0.2143140E-05)
 number of electron    1664.0022220 magnetization 
 augmentation part      605.0504648 magnetization 

 Broyden mixing:
  rms(total) = 0.40565E-03    rms(broyden)= 0.40360E-03
  rms(prec ) = 0.41583E-03
  weight for this iteration     100.00

 eigenvalues of (default mixing * dielectric matrix)
  average eigenvalue GAMMA=   1.5449
  2.4895  2.4895  0.9732  0.8863  0.8863

 Free energy of the ion-electron system (eV)
  ---------------------------------------------------
  alpha Z        PSCENC =     11674.20431497
  Ewald energy   TEWEN  =   -189420.92671210
  -Hartree energ DENC   =    -50118.94773772
  -exchange      EXHF   =         0.00000000
  -V(xc)+E(xc)   XCENC  =      8952.90899976
  PAW double counting   =    249117.73158902  -251484.66672903
  entropy T*S    EENTRO =        -0.42664306
  eigenvalues    EBANDS =    -29733.68208630
  atomic energy  EATOM  =    249862.97952924
  Solvation  Ediel_sol  =         0.00000000
  ---------------------------------------------------
  free energy    TOTEN  =     -1150.82547521 eV

  energy without entropy =    -1150.39883215  energy(sigma->0) =    -1150.68326086


--------------------------------------------------------------------------------------------------------




--------------------------------------- Iteration      3(   7)  ---------------------------------------


    POTLOK:  cpu time      0.0353: real time      0.0158
    SETDIJ:  cpu time      0.0859: real time      0.0058
     EDDAV:  cpu time      2.2106: real time      2.1646
       DOS:  cpu time      0.0014: real time      0.0014
    CHARGE:  cpu time      0.4086: real time      0.2638
    MIXING:  cpu time      0.0517: real time      0.0037
    --------------------------------------------
      LOOP:  cpu time      2.7935: real time      2.4550

 eigenvalue-minimisations  :  4624
 total energy-change (2. order) :-0.2282162E-05  (-0.4778812E-07)
 number of electron    1664.0022220 magnetization 
 augmentation part      605.0500790 magnetization 

 Broyden mixing:
  rms(total) = 0.10996E-03    rms(broyden)= 0.10946E-03
  rms(prec ) = 0.12892E-03
  weight for this iteration     100.00

 eigenvalues of (default mixing * dielectric matrix)
  average eigenvalue GAMMA=   1.7171
  2.5792  2.5792  2.2957  0.9929  0.9929  0.8627

 Free energy of the ion-electron system (eV)
  ---------------------------------------------------
  alpha Z        PSCENC =     11674.20431497
  Ewald energy   TEWEN  =   -189420.92671210
  -Hartree energ DENC   =    -50118.95228286
  -exchange      EXHF   =         0.00000000
  -V(xc)+E(xc)   XCENC  =      8952.90933841
  PAW double counting   =    249117.69015756  -251484.64673357
  entropy T*S    EENTRO =        -0.42664354
  eigenvalues    EBANDS =    -29733.65644562
  atomic energy  EATOM  =    249862.97952924
  Solvation  Ediel_sol  =         0.00000000
  ---------------------------------------------------
  free energy    TOTEN  =     -1150.82547749 eV

  energy without entropy =    -1150.39883395  energy(sigma->0) =    -1150.68326298


--------------------------------------------------------------------------------------------------------




--------------------------------------- Iteration      3(   8)  ---------------------------------------


    POTLOK:  cpu time      0.0387: real time      0.0168
    SETDIJ:  cpu time      0.0868: real time      0.0058
     EDDAV:  cpu time      2.1297: real time      2.0842
       DOS:  cpu time      0.0014: real time      0.0014
    --------------------------------------------
      LOOP:  cpu time      2.2567: real time      2.1085

 eigenvalue-minimisations  :  4352
 total energy-change (2. order) : 0.5801558E-06  (-0.1250029E-07)
 number of electron    1664.0022220 magnetization 
 augmentation part      605.0500790 magnetization 

 Free energy of the ion-electron system (eV)
  ---------------------------------------------------
  alpha Z        PSCENC =     11674.20431497
  Ewald energy   TEWEN  =   -189420.92671210
  -Hartree energ DENC   =    -50118.97961045
  -exchange      EXHF   =         0.00000000
  -V(xc)+E(xc)   XCENC  =      8952.91059243
  PAW double counting   =    249117.99936246  -251484.94817906
  entropy T*S    EENTRO =        -0.42664500
  eigenvalues    EBANDS =    -29733.63812941
  atomic energy  EATOM  =    249862.97952924
  Solvation  Ediel_sol  =         0.00000000
  ---------------------------------------------------
  free energy    TOTEN  =     -1150.82547691 eV

  energy without entropy =    -1150.39883191  energy(sigma->0) =    -1150.68326191


--------------------------------------------------------------------------------------------------------




 average (electrostatic) potential at core
  the test charge radii are     0.9956
  (the norm of the test charge is              1.0000)
       1 -70.0634       2 -70.0638       3 -70.0632       4 -70.0633       5 -70.0635
       6 -70.0632       7 -70.0631       8 -70.0641       9 -70.0640      10 -70.0642
      11 -70.0641      12 -70.0631      13 -70.0638      14 -70.0638      15 -70.0639
      16 -70.0634      17 -70.0633      18 -70.0637      19 -70.0635      20 -70.0635
      21 -70.0633      22 -70.0637      23 -70.0634      24 -70.0633      25 -70.0636
      26 -70.0631      27 -70.0632      28 -70.0628      29 -70.0632      30 -70.0639
      31 -70.0638      32 -70.0639      33 -70.0636      34 -70.0634      35 -70.0630
      36 -70.0638      37 -70.0630      38 -70.0635      39 -70.0635      40 -70.0637
      41 -70.0632      42 -70.0633      43 -70.0632      44 -70.0633      45 -70.0641
      46 -70.0632      47 -70.0639      48 -70.0635      49 -70.0637      50 -70.0635
      51 -70.0631      52 -70.0634      53 -70.0638      54 -70.0636      55 -70.0639
      56 -70.0631      57 -70.0638      58 -70.0633      59 -70.0628      60 -70.0633
      61 -70.0634      62 -70.0638      63 -70.0634      64 -70.0635      65 -70.0640
      66 -70.0632      67 -70.0641      68 -70.0637      69 -70.0642      70 -70.0640
      71 -70.0637      72 -70.0632      73 -70.0635      74 -70.0637      75 -70.0637
      76 -70.0639      77 -70.0637      78 -70.0637      79 -70.0638      80 -70.0632
      81 -70.0637      82 -70.0636      83 -70.0637      84 -70.0638      85 -70.0637
      86 -70.0633      87 -70.0637      88 -70.0634      89 -70.0630      90 -70.0637
      91 -70.0638      92 -70.0640      93 -70.0634      94 -70.0628      95 -70.0631
      96 -70.0640      97 -70.0636      98 -70.0638      99 -70.0638     100 -70.0636
     101 -70.0634     102 -70.0637     103 -70.0632     104 -70.0630     105 -70.0637
     106 -70.0640     107 -70.0634     108 -70.0634     109 -70.0626     110 -70.0633
     111 -70.0639     112 -70.0634     113 -70.0632     114 -70.0635     115 -70.0634
     116 -70.0635     117 -70.0635     118 -70.0629     119 -70.0638     120 -70.0637
     121 -70.0633     122 -70.0636     123 -70.0640     124 -70.0639     125 -70.0639
     126 -70.0640     127 -70.0636     128 -70.0638
 
 
 
 E-fermi :   9.7805     XC(G=0): -12.9367     alpha+bet :-18.7911

 val. band max:        9.7726528031   @ k =   0.5000   0.0000   0.0000
 cond. band min:       9.7930354712   @ k =   0.5000   0.5000   0.0000
 fundamental gap:      0.0203826682
 Fermi energy:         9.7805157943

 k-point     1 :       0.0000    0.0000    0.0000
  band No.  band energies     occupation 
      1     -53.9176      2.00000
      2     -53.8606      2.00000
      3     -53.8605      2.00000
      4     -53.8605      2.00000
      5     -53.8604      2.00000
      6     -53.8604      2.00000
      7     -53.8603      2.00000
      8     -53.8170      2.00000
      9     -53.8169      2.00000
     10     -53.8169      2.00000
     11     -53.8169      2.00000
     12     -53.8169      2.00000
     13     -53.8169      2.00000
     14     -53.8169      2.00000
     15     -53.8168      2.00000
     16     -53.8168      2.00000
     17     -53.8168      2.00000
     18     -53.8167      2.00000
     19     -53.8167      2.00000
     20     -53.7838      2.00000
     21     -53.7838      2.00000
     22     -53.7837      2.00000
     23     -53.7837      2.00000
     24     -53.7837      2.00000
     25     -53.7837      2.00000
     26     -53.7836      2.00000
     27     -53.7836      2.00000
     28     -53.7324      2.00000
     29     -53.7324      2.00000
     30     -53.7324      2.00000
     31     -53.7324      2.00000
     32     -53.7323      2.00000
     33     -53.7323      2.00000
     34     -53.7235      2.00000
     35     -53.7235      2.00000
     36     -53.7235      2.00000
     37     -53.7235      2.00000
     38     -53.7235      2.00000
     39     -53.7235      2.00000
     40     -53.7235      2.00000
     41     -53.7234      2.00000
     42     -53.7234      2.00000
     43     -53.7234      2.00000
     44     -53.7234      2.00000
     45     -53.7234      2.00000
     46     -53.7234      2.00000
     47     -53.7234      2.00000
     48     -53.7234      2.00000
     49     -53.7234      2.00000
     50     -53.7233      2.00000
     51     -53.7233      2.00000
     52     -53.7233      2.00000
     53     -53.7233      2.00000
     54     -53.7233      2.00000
     55     -53.7233      2.00000
     56     -53.7232      2.00000
     57     -53.7232      2.00000
     58     -53.7156      2.00000
     59     -53.7155      2.00000
     60     -53.7155      2.00000
     61     -53.7155      2.00000
     62     -53.7155      2.00000
     63     -53.7155      2.00000
     64     -53.7154      2.00000
     65     -53.7154      2.00000
     66     -53.7154      2.00000
     67     -53.7154      2.00000
     68     -53.7154      2.00000
     69     -53.7154      2.00000
     70     -53.7153      2.00000
     71     -53.7153      2.00000
     72     -53.7153      2.00000
     73     -53.7153      2.00000
     74     -53.7153      2.00000
     75     -53.7153      2.00000
     76     -53.7153      2.00000
     77     -53.7152      2.00000
     78     -53.7152      2.00000
     79     -53.7152      2.00000
     80     -53.7152      2.00000
     81     -53.7151      2.00000
     82     -53.7149      2.00000
     83     -53.7149      2.00000
     84     -53.7149      2.00000
     85     -53.7149      2.00000
     86     -53.7149      2.00000
     87     -53.7149      2.00000
     88     -53.7076      2.00000
     89     -53.7076      2.00000
     90     -53.7075      2.00000
     91     -53.7075      2.00000
     92     -53.7075      2.00000
     93     -53.7074      2.00000
     94     -53.7074      2.00000
     95     -53.7074      2.00000
     96     -53.7074      2.00000
     97     -53.7073      2.00000
     98     -53.7073      2.00000
     99     -53.7072      2.00000
    100     -53.7003      2.00000
    101     -53.7003      2.00000
    102     -53.6636      2.00000
    103     -53.6636      2.00000
    104     -53.6635      2.00000
    105     -53.6635      2.00000
    106     -53.6635      2.00000
    107     -53.6635      2.00000
    108     -53.6634      2.00000
    109     -53.6634      2.00000
    110     -53.6468      2.00000
    111     -53.6467      2.00000
    112     -53.6467      2.00000
    113     -53.6467      2.00000
    114     -53.6467      2.00000
    115     -53.6467      2.00000
    116     -53.6466      2.00000
    117     -53.6466      2.00000
    118     -53.6466      2.00000
    119     -53.6466      2.00000
    120     -53.6465      2.00000
    121     -53.6464      2.00000
    122     -53.6198      2.00000
    123     -53.6197      2.00000
    124     -53.6197      2.00000
    125     -53.6197      2.00000
    126     -53.6196      2.00000
    127     -53.6195      2.00000
    128     -53.5760      2.00000
    129     -28.1395      2.00000
    130     -28.1395      2.00000
    131     -28.1395      2.00000
    132     -28.1395      2.00000
    133     -28.1395      2.00000
    134     -28.1395      2.00000
    135     -28.0033      2.00000
    136     -28.0033      2.00000
    137     -28.0033      2.00000
    138     -28.0033      2.00000
    139     -28.0032      2.00000
    140     -28.0032      2.00000
    141     -28.0032      2.00000
    142     -28.0032      2.00000
    143     -28.0032      2.00000
    144     -28.0032      2.00000
    145     -28.0031      2.00000
    146     -28.0031      2.00000
    147     -27.9958      2.00000
    148     -27.9958      2.00000
    149     -27.9958      2.00000
    150     -27.9958      2.00000
    151     -27.9958      2.00000
    152     -27.9958      2.00000
    153     -27.9958      2.00000
    154     -27.9958      2.00000
    155     -27.9958      2.00000
    156     -27.9957      2.00000
    157     -27.9957      2.00000
    158     -27.9957      2.00000
    159     -27.9773      2.00000
    160     -27.9773      2.00000
    161     -27.9772      2.00000
    162     -27.9772      2.00000
    163     -27.9772      2.00000
    164     -27.9772      2.00000
    165     -27.9772      2.00000
    166     -27.9772      2.00000
    167     -27.9772      2.00000
    168     -27.9772      2.00000
    169     -27.9772      2.00000
    170     -27.9771      2.00000
    171     -27.9771      2.00000
    172     -27.9771      2.00000
    173     -27.9771      2.00000
    174     -27.9771      2.00000
    175     -27.9771      2.00000
    176     -27.9771      2.00000
    177     -27.9771      2.00000
    178     -27.9771      2.00000
    179     -27.9770      2.00000
    180     -27.9770      2.00000
    181     -27.9770      2.00000
    182     -27.9770      2.00000
    183     -27.9696      2.00000
    184     -27.9696      2.00000
    185     -27.9695      2.00000
    186     -27.9695      2.00000
    187     -27.9695      2.00000
    188     -27.9695      2.00000
    189     -27.9695      2.00000
    190     -27.9695      2.00000
    191     -27.9695      2.00000
    192     -27.9695      2.00000
    193     -27.9695      2.00000
    194     -27.9694      2.00000
    195     -27.9694      2.00000
    196     -27.9694      2.00000
    197     -27.9694      2.00000
    198     -27.9694      2.00000
    199     -27.9694      2.00000
    200     -27.9694      2.00000
    201     -27.9694      2.00000
    202     -27.9693      2.00000
    203     -27.9693      2.00000
    204     -27.9693      2.00000
    205     -27.9693      2.00000
    206     -27.9693      2.00000
    207     -27.8790      2.00000
    208     -27.8790      2.00000
    209     -27.8790      2.00000
    210     -27.8790      2.00000
    211     -27.8790      2.00000
    212     -27.8790      2.00000
    213     -27.8790      2.00000
    214     -27.8790      2.00000
    215     -27.8790      2.00000
    216     -27.8789      2.00000
    217     -27.8789      2.00000
    218     -27.8789      2.00000
    219     -27.8789      2.00000
    220     -27.8789      2.00000
    221     -27.8789      2.00000
    222     -27.8789      2.00000
    223     -27.8487      2.00000
    224     -27.8487      2.00000
    225     -27.8487      2.00000
    226     -27.8436      2.00000
    227     -27.8436      2.00000
    228     -27.8436      2.00000
    229     -27.8435      2.00000
    230     -27.8435      2.00000
    231     -27.8435      2.00000
    232     -27.8224      2.00000
    233     -27.8224      2.00000
    234     -27.8224      2.00000
    235     -27.8224      2.00000
    236     -27.8224      2.00000
    237     -27.8224      2.00000
    238     -27.8223      2.00000
    239     -27.8223      2.00000
    240     -27.7531      2.00000
    241     -27.7531      2.00000
    242     -27.7531      2.00000
    243     -27.7530      2.00000
    244     -27.7530      2.00000
    245     -27.7530      2.00000
    246     -27.7530      2.00000
    247     -27.7530      2.00000
    248     -27.7530      2.00000
    249     -27.7529      2.00000
    250     -27.7529      2.00000
    251     -27.7529      2.00000
    252     -27.7098      2.00000
    253     -27.7098      2.00000
    254     -27.7098      2.00000
    255     -27.7098      2.00000
    256     -27.7098      2.00000
    257     -27.7098      2.00000
    258     -27.6917      2.00000
    259     -27.6916      2.00000
    260     -27.6916      2.00000
    261     -27.6916      2.00000
    262     -27.6916      2.00000
    263     -27.6916      2.00000
    264     -27.6916      2.00000
    265     -27.6916      2.00000
    266     -27.6916      2.00000
    267     -27.6916      2.00000
    268     -27.6915      2.00000
    269     -27.6915      2.00000
    270     -27.6816      2.00000
    271     -27.6815      2.00000
    272     -27.6815      2.00000
    273     -27.6815      2.00000
    274     -27.6815      2.00000
    275     -27.6815      2.00000
    276     -27.6815      2.00000
    277     -27.6814      2.00000
    278     -27.6814      2.00000
    279     -27.6814      2.00000
    280     -27.6814      2.00000
    281     -27.6813      2.00000
    282     -27.6783      2.00000
    283     -27.6783      2.00000
    284     -27.6783      2.00000
    285     -27.6783      2.00000
    286     -27.6783      2.00000
    287     -27.6783      2.00000
    288     -27.6023      2.00000
    289     -27.6023      2.00000
    290     -27.6023      2.00000
    291     -27.6023      2.00000
    292     -27.6023      2.00000
    293     -27.6023      2.00000
    294     -27.6022      2.00000
    295     -27.6022      2.00000
    296     -27.6022      2.00000
    297     -27.6022      2.00000
    298     -27.6022      2.00000
    299     -27.6022      2.00000
    300     -27.6022      2.00000
    301     -27.6022      2.00000
    302     -27.6022      2.00000
    303     -27.6022      2.00000
    304     -27.6022      2.00000
    305     -27.6022      2.00000
    306     -27.6022      2.00000
    307     -27.6022      2.00000
    308     -27.6022      2.00000
    309     -27.6022      2.00000
    310     -27.6022      2.00000
    311     -27.6022      2.00000
    312     -27.5943      2.00000
    313     -27.5943      2.00000
    314     -27.5942      2.00000
    315     -27.5942      2.00000
    316     -27.5942      2.00000
    317     -27.5942      2.00000
    318     -27.5942      2.00000
    319     -27.5942      2.00000
    320     -27.5942      2.00000
    321     -27.5942      2.00000
    322     -27.5941      2.00000
    323     -27.5941      2.00000
    324     -27.5453      2.00000
    325     -27.5453      2.00000
    326     -27.5453      2.00000
    327     -27.5453      2.00000
    328     -27.5453      2.00000
    329     -27.5453      2.00000
    330     -27.5453      2.00000
    331     -27.5453      2.00000
    332     -27.5452      2.00000
    333     -27.5452      2.00000
    334     -27.5452      2.00000
    335     -27.5452      2.00000
    336     -27.5266      2.00000
    337     -27.5266      2.00000
    338     -27.5266      2.00000
    339     -27.5266      2.00000
    340     -27.5266      2.00000
    341     -27.5266      2.00000
    342     -27.5266      2.00000
    343     -27.5266      2.00000
    344     -27.5266      2.00000
    345     -27.5266      2.00000
    346     -27.5266      2.00000
    347     -27.5266      2.00000
    348     -27.5179      2.00000
    349     -27.5179      2.00000
    350     -27.5179      2.00000
    351     -27.5179      2.00000
    352     -27.5179      2.00000
    353     -27.5178      2.00000
    354     -27.5178      2.00000
    355     -27.5178      2.00000
    356     -27.5178      2.00000
    357     -27.5178      2.00000
    358     -27.5178      2.00000
    359     -27.5178      2.00000
    360     -27.5177      2.00000
    361     -27.5177      2.00000
    362     -27.5177      2.00000
    363     -27.5177      2.00000
    364     -27.5177      2.00000
    365     -27.5177      2.00000
    366     -27.5177      2.00000
    367     -27.5177      2.00000
    368     -27.5176      2.00000
    369     -27.5176      2.00000
    370     -27.5176      2.00000
    371     -27.5176      2.00000
    372     -27.5093      2.00000
    373     -27.5092      2.00000
    374     -27.5092      2.00000
    375     -27.5092      2.00000
    376     -27.5092      2.00000
    377     -27.5092      2.00000
    378     -27.4040      2.00000
    379     -27.4040      2.00000
    380     -27.4039      2.00000
    381     -27.4039      2.00000
    382     -27.4039      2.00000
    383     -27.4039      2.00000
    384     -27.3952      2.00000
    385     -27.3952      2.00000
    386     -27.3952      2.00000
    387     -27.3952      2.00000
    388     -27.3952      2.00000
    389     -27.3952      2.00000
    390     -27.3951      2.00000
    391     -27.3951      2.00000
    392     -27.3678      2.00000
    393     -27.3678      2.00000
    394     -27.3678      2.00000
    395     -27.3678      2.00000
    396     -27.3678      2.00000
    397     -27.3677      2.00000
    398     -27.3677      2.00000
    399     -27.3677      2.00000
    400     -27.3677      2.00000
    401     -27.3677      2.00000
    402     -27.3677      2.00000
    403     -27.3676      2.00000
    404     -27.3591      2.00000
    405     -27.3591      2.00000
    406     -27.3591      2.00000
    407     -27.3591      2.00000
    408     -27.3590      2.00000
    409     -27.3590      2.00000
    410     -27.3590      2.00000
    411     -27.3590      2.00000
    412     -27.3590      2.00000
    413     -27.3590      2.00000
    414     -27.3589      2.00000
    415     -27.3589      2.00000
    416     -27.3343      2.00000
    417     -27.3343      2.00000
    418     -27.3343      2.00000
    419     -27.3343      2.00000
    420     -27.3343      2.00000
    421     -27.3343      2.00000
    422     -27.3343      2.00000
    423     -27.3342      2.00000
    424     -27.3342      2.00000
    425     -27.3342      2.00000
    426     -27.3342      2.00000
    427     -27.3342      2.00000
    428     -27.3342      2.00000
    429     -27.3342      2.00000
    430     -27.3342      2.00000
    431     -27.3342      2.00000
    432     -27.3259      2.00000
    433     -27.3259      2.00000
    434     -27.3259      2.00000
    435     -27.3259      2.00000
    436     -27.3259      2.00000
    437     -27.3259      2.00000
    438     -27.3259      2.00000
    439     -27.3259      2.00000
    440     -27.3258      2.00000
    441     -27.3258      2.00000
    442     -27.3258      2.00000
    443     -27.3258      2.00000
    444     -27.3258      2.00000
    445     -27.3258      2.00000
    446     -27.3258      2.00000
    447     -27.3258      2.00000
    448     -27.3258      2.00000
    449     -27.3258      2.00000
    450     -27.3257      2.00000
    451     -27.3257      2.00000
    452     -27.3257      2.00000
    453     -27.3257      2.00000
    454     -27.3257      2.00000
    455     -27.3257      2.00000
    456     -27.3174      2.00000
    457     -27.3174      2.00000
    458     -27.3173      2.00000
    459     -27.3173      2.00000
    460     -27.3173      2.00000
    461     -27.3173      2.00000
    462     -27.3173      2.00000
    463     -27.3173      2.00000
    464     -27.3173      2.00000
    465     -27.3173      2.00000
    466     -27.3173      2.00000
    467     -27.3173      2.00000
    468     -27.3173      2.00000
    469     -27.3172      2.00000
    470     -27.3172      2.00000
    471     -27.3172      2.00000
    472     -27.3172      2.00000
    473     -27.3172      2.00000
    474     -27.3172      2.00000
    475     -27.3172      2.00000
    476     -27.3172      2.00000
    477     -27.3172      2.00000
    478     -27.3171      2.00000
    479     -27.3171      2.00000
    480     -27.3101      2.00000
    481     -27.3101      2.00000
    482     -27.3101      2.00000
    483     -27.3101      2.00000
    484     -27.3100      2.00000
    485     -27.3100      2.00000
    486     -27.3100      2.00000
    487     -27.3100      2.00000
    488     -27.3100      2.00000
    489     -27.3099      2.00000
    490     -27.3099      2.00000
    491     -27.3099      2.00000
    492     -27.2295      2.00000
    493     -27.2295      2.00000
    494     -27.2295      2.00000
    495     -27.2295      2.00000
    496     -27.2295      2.00000
    497     -27.2295      2.00000
    498     -27.2263      2.00000
    499     -27.2263      2.00000
    500     -27.2263      2.00000
    501     -27.2263      2.00000
    502     -27.2263      2.00000
    503     -27.2263      2.00000
    504     -27.2263      2.00000
    505     -27.2262      2.00000
    506     -27.2262      2.00000
    507     -27.2262      2.00000
    508     -27.2262      2.00000
    509     -27.2262      2.00000
    510     -27.2234      2.00000
    511     -27.2234      2.00000
    512     -27.2234      2.00000
    513       3.1736      2.00000
    514       4.3759      2.00000
    515       4.3759      2.00000
    516       4.3760      2.00000
    517       4.3760      2.00000
    518       4.3761      2.00000
    519       4.3762      2.00000
    520       5.3288      2.00000
    521       5.3289      2.00000
    522       5.3289      2.00000
    523       5.3289      2.00000
    524       5.3289      2.00000
    525       5.3290      2.00000
    526       5.3290      2.00000
    527       5.3290      2.00000
    528       5.3291      2.00000
    529       5.3291      2.00000
    530       5.3291      2.00000
    531       5.3292      2.00000
    532       6.3070      2.00000
    533       6.3070      2.00000
    534       6.3071      2.00000
    535       6.3071      2.00000
    536       6.3071      2.00000
    537       6.3072      2.00000
    538       6.3073      2.00000
    539       6.3073      2.00000
    540       6.5875      2.00000
    541       6.5875      2.00000
    542       6.5875      2.00000
    543       6.5875      2.00000
    544       6.5875      2.00000
    545       6.5875      2.00000
    546       6.7602      2.00000
    547       6.7602      2.00000
    548       6.8676      2.00000
    549       6.8676      2.00000
    550       6.8676      2.00000
    551       6.8676      2.00000
    552       6.8676      2.00000
    553       6.8676      2.00000
    554       6.9164      2.00000
    555       6.9164      2.00000
    556       6.9164      2.00000
    557       6.9164      2.00000
    558       6.9164      2.00000
    559       6.9164      2.00000
    560       6.9165      2.00000
    561       6.9165      2.00000
    562       6.9165      2.00000
    563       6.9165      2.00000
    564       6.9165      2.00000
    565       6.9165      2.00000
    566       6.9165      2.00000
    567       6.9165      2.00000
    568       6.9165      2.00000
    569       6.9166      2.00000
    570       6.9166      2.00000
    571       6.9166      2.00000
    572       6.9166      2.00000
    573       6.9166      2.00000
    574       6.9166      2.00000
    575       6.9166      2.00000
    576       6.9167      2.00000
    577       6.9167      2.00000
    578       7.3204      2.00000
    579       7.3204      2.00000
    580       7.3204      2.00000
    581       7.3204      2.00000
    582       7.3205      2.00000
    583       7.3205      2.00000
    584       7.4279      2.00000
    585       7.4279      2.00000
    586       7.4279      2.00000
    587       7.4280      2.00000
    588       7.4280      2.00000
    589       7.4281      2.00000
    590       7.5102      2.00000
    591       7.5103      2.00000
    592       7.5103      2.00000
    593       7.5103      2.00000
    594       7.5103      2.00000
    595       7.5103      2.00000
    596       7.5103      2.00000
    597       7.5104      2.00000
    598       7.5104      2.00000
    599       7.5104      2.00000
    600       7.5104      2.00000
    601       7.5105      2.00000
    602       7.5328      2.00000
    603       7.5328      2.00000
    604       7.5329      2.00000
    605       7.5329      2.00000
    606       7.5329      2.00000
    607       7.5329      2.00000
    608       7.5329      2.00000
    609       7.5329      2.00000
    610       7.5329      2.00000
    611       7.5329      2.00000
    612       7.5330      2.00000
    613       7.5330      2.00000
    614       7.6065      2.00000
    615       7.6065      2.00000
    616       7.6065      2.00000
    617       7.6065      2.00000
    618       7.6065      2.00000
    619       7.6066      2.00000
    620       7.6066      2.00000
    621       7.6066      2.00000
    622       7.6066      2.00000
    623       7.6066      2.00000
    624       7.6066      2.00000
    625       7.6066      2.00000
    626       7.6066      2.00000
    627       7.6066      2.00000
    628       7.6066      2.00000
    629       7.6066      2.00000
    630       7.6066      2.00000
    631       7.6066      2.00000
    632       7.6067      2.00000
    633       7.6067      2.00000
    634       7.6067      2.00000
    635       7.6067      2.00000
    636       7.6067      2.00000
    637       7.6067      2.00000
    638       8.1764      2.00000
    639       8.1765      2.00000
    640       8.1765      2.00000
    641       8.1765      2.00000
    642       8.1765      2.00000
    643       8.1765      2.00000
    644       8.1766      2.00000
    645       8.1766      2.00000
    646       8.1766      2.00000
    647       8.1767      2.00000
    648       8.1767      2.00000
    649       8.1767      2.00000
    650       8.3475      2.00000
    651       8.3475      2.00000
    652       8.3475      2.00000
    653       8.3475      2.00000
    654       8.3476      2.00000
    655       8.3476      2.00000
    656       8.3476      2.00000
    657       8.3476      2.00000
    658       8.3476      2.00000
    659       8.3477      2.00000
    660       8.3477      2.00000
    661       8.3477      2.00000
    662       8.3477      2.00000
    663       8.3477      2.00000
    664       8.3478      2.00000
    665       8.3478      2.00000
    666       8.4886      2.00000
    667       8.4886      2.00000
    668       8.4886      2.00000
    669       8.4886      2.00000
    670       8.4887      2.00000
    671       8.4887      2.00000
    672       8.4887      2.00000
    673       8.4887      2.00000
    674       8.4887      2.00000
    675       8.4887      2.00000
    676       8.4887      2.00000
    677       8.4888      2.00000
    678       8.6172      2.00000
    679       8.6172      2.00000
    680       8.6173      2.00000
    681       8.6173      2.00000
    682       8.6173      2.00000
    683       8.6173      2.00000
    684       8.6173      2.00000
    685       8.6173      2.00000
    686       8.6173      2.00000
    687       8.6173      2.00000
    688       8.6173      2.00000
    689       8.6173      2.00000
    690       8.6173      2.00000
    691       8.6173      2.00000
    692       8.6173      2.00000
    693       8.6174      2.00000
    694       8.6174      2.00000
    695       8.6174      2.00000
    696       8.6174      2.00000
    697       8.6174      2.00000
    698       8.6174      2.00000
    699       8.6174      2.00000
    700       8.6174      2.00000
    701       8.6175      2.00000
    702       8.6468      2.00000
    703       8.6468      2.00000
    704       8.6468      2.00000
    705       8.6468      2.00000
    706       8.6468      2.00000
    707       8.6468      2.00000
    708       8.6600      2.00000
    709       8.6600      2.00000
    710       8.6600      2.00000
    711       8.6600      2.00000
    712       8.6600      2.00000
    713       8.6600      2.00000
    714       8.9701      2.00000
    715       8.9701      2.00000
    716       8.9701      2.00000
    717       8.9701      2.00000
    718       8.9701      2.00000
    719       8.9701      2.00000
    720       8.9701      2.00000
    721       8.9701      2.00000
    722       9.0298      2.00000
    723       9.0298      2.00000
    724       9.0298      2.00000
    725       9.0298      2.00000
    726       9.0299      2.00000
    727       9.0299      2.00000
    728       9.0299      2.00000
    729       9.0299      2.00000
    730       9.0299      2.00000
    731       9.0299      2.00000
    732       9.0299      2.00000
    733       9.0300      2.00000
    734       9.0300      2.00000
    735       9.0300      2.00000
    736       9.0300      2.00000
    737       9.0300      2.00000
    738       9.2046      2.00036
    739       9.2046      2.00036
    740       9.2046      2.00036
    741       9.2046      2.00036
    742       9.2046      2.00036
    743       9.2046      2.00036
    744       9.3076      2.00415
    745       9.3076      2.00415
    746       9.3076      2.00415
    747       9.3076      2.00415
    748       9.3076      2.00415
    749       9.3076      2.00415
    750       9.3076      2.00415
    751       9.3076      2.00415
    752       9.3076      2.00415
    753       9.3076      2.00415
    754       9.3077      2.00416
    755       9.3077      2.00416
    756       9.3077      2.00416
    757       9.3077      2.00416
    758       9.3077      2.00416
    759       9.3077      2.00416
    760       9.3077      2.00416
    761       9.3077      2.00416
    762       9.3077      2.00416
    763       9.3077      2.00416
    764       9.3077      2.00416
    765       9.3077      2.00416
    766       9.3078      2.00417
    767       9.3078      2.00417
    768       9.3339      2.00702
    769       9.3339      2.00702
    770       9.3339      2.00702
    771       9.3339      2.00702
    772       9.3340      2.00702
    773       9.3340      2.00703
    774       9.3340      2.00703
    775       9.3340      2.00703
    776       9.3340      2.00703
    777       9.3340      2.00703
    778       9.3340      2.00703
    779       9.3340      2.00703
    780       9.3340      2.00703
    781       9.3340      2.00704
    782       9.3341      2.00704
    783       9.3341      2.00704
    784       9.3341      2.00704
    785       9.3341      2.00704
    786       9.3341      2.00704
    787       9.3341      2.00705
    788       9.3342      2.00705
    789       9.3342      2.00705
    790       9.3342      2.00705
    791       9.3342      2.00705
    792       9.3686      2.01312
    793       9.3686      2.01312
    794       9.3686      2.01312
    795       9.3686      2.01313
    796       9.3686      2.01313
    797       9.3686      2.01313
    798       9.3686      2.01313
    799       9.3686      2.01314
    800       9.3686      2.01314
    801       9.3687      2.01314
    802       9.3687      2.01314
    803       9.3687      2.01315
    804       9.4478      2.04031
    805       9.4478      2.04031
    806       9.4478      2.04031
    807       9.4478      2.04031
    808       9.4478      2.04032
    809       9.4478      2.04032
    810       9.4478      2.04032
    811       9.4478      2.04032
    812       9.4478      2.04034
    813       9.4478      2.04034
    814       9.4478      2.04034
    815       9.4478      2.04034
    816       9.4479      2.04034
    817       9.4479      2.04034
    818       9.4479      2.04035
    819       9.4479      2.04035
    820       9.4479      2.04036
    821       9.4479      2.04036
    822       9.4479      2.04036
    823       9.4479      2.04037
    824       9.4479      2.04037
    825       9.4479      2.04038
    826       9.4479      2.04038
    827       9.4479      2.04038
    828       9.7605      1.16824
    829       9.7605      1.16815
    830       9.7605      1.16808
    831       9.7606      1.16800
    832       9.7606      1.16798
    833       9.7606      1.16795
    834       9.7606      1.16788
    835       9.7606      1.16782
    836       9.7606      1.16779
    837       9.7606      1.16777
    838       9.7606      1.16776
    839       9.7606      1.16761
    840       9.8839      0.24150
    841       9.8839      0.24149
    842       9.8839      0.24137
    843       9.8839      0.24129
    844       9.8840      0.24119
    845       9.8840      0.24114
    846       9.8840      0.24112
    847       9.8840      0.24109
    848       9.8840      0.24098
    849       9.8840      0.24088
    850       9.8840      0.24081
    851       9.8840      0.24073
    852      10.1708     -0.01865
    853      10.1708     -0.01864
    854      10.1708     -0.01864
    855      10.1709     -0.01863
    856      10.1709     -0.01862
    857      10.1709     -0.01862
    858      10.1709     -0.01862
    859      10.1709     -0.01862
    860      10.1709     -0.01862
    861      10.1710     -0.01860
    862      10.1710     -0.01859
    863      10.1710     -0.01859
    864      10.1985     -0.01183
    865      10.1985     -0.01183
    866      10.1985     -0.01183
    867      10.5491     -0.00000
    868      10.5491     -0.00000
    869      10.5491     -0.00000
    870      10.5491     -0.00000
    871      10.5491     -0.00000
    872      10.5491     -0.00000
    873      10.5491     -0.00000
    874      10.5491     -0.00000
    875      10.5492     -0.00000
    876      10.5492     -0.00000
    877      10.5492     -0.00000
    878      10.5492     -0.00000
    879      10.6357     -0.00000
    880      10.6357     -0.00000
    881      10.6357     -0.00000
    882      10.6357     -0.00000
    883      10.6357     -0.00000
    884      10.6357     -0.00000
    885      10.6357     -0.00000
    886      10.6357     -0.00000
    887      10.6357     -0.00000
    888      10.6357     -0.00000
    889      10.6357     -0.00000
    890      10.6357     -0.00000
    891      10.6369     -0.00000
    892      10.6369     -0.00000
    893      10.6369     -0.00000
    894      10.6369     -0.00000
    895      10.6370     -0.00000
    896      10.6370     -0.00000
    897      11.2620     -0.00000
    898      11.2620     -0.00000
    899      11.2620     -0.00000
    900      11.2620     -0.00000
    901      11.2621     -0.00000
    902      11.2621     -0.00000
    903      11.3686     -0.00000
    904      11.3686     -0.00000
    905      11.3687     -0.00000
    906      11.3687     -0.00000
    907      11.3687     -0.00000
    908      11.3687     -0.00000
    909      11.3687     -0.00000
    910      11.3687     -0.00000
    911      11.3687     -0.00000
    912      11.3687     -0.00000
    913      11.3687     -0.00000
    914      11.3687     -0.00000
    915      11.4373     -0.00000
    916      11.4373     -0.00000
    917      11.4373     -0.00000
    918      11.4373     -0.00000
    919      11.4373     -0.00000
    920      11.4373     -0.00000
    921      11.6186     -0.00000
    922      11.6186     -0.00000
    923      11.6187     -0.00000
    924      11.6187     -0.00000
    925      11.6187     -0.00000
    926      11.6187     -0.00000
    927      11.6187     -0.00000
    928      11.6187     -0.00000
    929      11.6187     -0.00000
    930      11.6187     -0.00000
    931      11.6187     -0.00000
    932      11.6187     -0.00000
    933      11.6187     -0.00000
    934      11.6187     -0.00000
    935      11.6187     -0.00000
    936      11.6187     -0.00000
    937      11.6187     -0.00000
    938      11.6187     -0.00000
    939      11.6188     -0.00000
    940      11.6188     -0.00000
    941      11.6188     -0.00000
    942      11.6188     -0.00000
    943      11.6188     -0.00000
    944      11.6188     -0.00000
    945      11.7600     -0.00000
    946      11.7600     -0.00000
    947      11.7600     -0.00000
    948      11.7600     -0.00000
    949      11.7600     -0.00000
    950      11.7600     -0.00000
    951      11.8261     -0.00000
    952      11.8261     -0.00000
    953      11.8261     -0.00000
    954      11.8262     -0.00000
    955      11.8262     -0.00000
    956      11.8262     -0.00000
    957      11.8262     -0.00000
    958      11.8262     -0.00000
    959      11.8262     -0.00000
    960      11.8262     -0.00000
    961      11.8262     -0.00000
    962      11.8262     -0.00000
    963      11.8852     -0.00000
    964      11.8852     -0.00000
    965      11.8852     -0.00000
    966      11.8852     -0.00000
    967      11.8852     -0.00000
    968      11.8852     -0.00000
    969      11.8852     -0.00000
    970      11.8852     -0.00000
    971      11.8853     -0.00000
    972      11.8853     -0.00000
    973      11.8853     -0.00000
    974      11.8853     -0.00000
    975      12.0001     -0.00000
    976      12.0001     -0.00000
    977      12.0001     -0.00000
    978      12.0001     -0.00000
    979      12.0002     -0.00000
    980      12.0002     -0.00000
    981      12.0002     -0.00000
    982      12.0002     -0.00000
    983      12.0002     -0.00000
    984      12.0002     -0.00000
    985      12.0002     -0.00000
    986      12.0002     -0.00000
    987      12.0002     -0.00000
    988      12.0002     -0.00000
    989      12.0002     -0.00000
    990      12.0002     -0.00000
    991      12.0002     -0.00000
    992      12.0003     -0.00000
    993      12.0003     -0.00000
    994      12.0003     -0.00000
    995      12.0003     -0.00000
    996      12.0003     -0.00000
    997      12.0004     -0.00000
    998      12.0005     -0.00000
    999      12.1455     -0.00000
   1000      12.1457     -0.00000

 k-point     2 :       0.5000    0.0000    0.0000
  band No.  band energies     occupation 
      1     -53.9024      2.00000
      2     -53.9023      2.00000
      3     -53.8490      2.00000
      4     -53.8489      2.00000
      5     -53.8489      2.00000
      6     -53.8488      2.00000
      7     -53.8488      2.00000
      8     -53.8487      2.00000
      9     -53.8487      2.00000
     10     -53.8486      2.00000
     11     -53.8083      2.00000
     12     -53.8082      2.00000
     13     -53.8082      2.00000
     14     -53.8081      2.00000
     15     -53.8081      2.00000
     16     -53.8081      2.00000
     17     -53.8080      2.00000
     18     -53.8080      2.00000
     19     -53.7999      2.00000
     20     -53.7999      2.00000
     21     -53.7722      2.00000
     22     -53.7722      2.00000
     23     -53.7721      2.00000
     24     -53.7721      2.00000
     25     -53.7721      2.00000
     26     -53.7721      2.00000
     27     -53.7720      2.00000
     28     -53.7720      2.00000
     29     -53.7505      2.00000
     30     -53.7505      2.00000
     31     -53.7505      2.00000
     32     -53.7505      2.00000
     33     -53.7504      2.00000
     34     -53.7504      2.00000
     35     -53.7504      2.00000
     36     -53.7504      2.00000
     37     -53.7298      2.00000
     38     -53.7297      2.00000
     39     -53.7297      2.00000
     40     -53.7297      2.00000
     41     -53.7296      2.00000
     42     -53.7296      2.00000
     43     -53.7296      2.00000
     44     -53.7296      2.00000
     45     -53.7213      2.00000
     46     -53.7213      2.00000
     47     -53.7212      2.00000
     48     -53.7212      2.00000
     49     -53.7212      2.00000
     50     -53.7212      2.00000
     51     -53.7212      2.00000
     52     -53.7211      2.00000
     53     -53.7211      2.00000
     54     -53.7211      2.00000
     55     -53.7210      2.00000
     56     -53.7210      2.00000
     57     -53.7210      2.00000
     58     -53.7210      2.00000
     59     -53.7209      2.00000
     60     -53.7209      2.00000
     61     -53.7175      2.00000
     62     -53.7175      2.00000
     63     -53.7175      2.00000
     64     -53.7175      2.00000
     65     -53.7174      2.00000
     66     -53.7174      2.00000
     67     -53.7174      2.00000
     68     -53.7174      2.00000
     69     -53.7129      2.00000
     70     -53.7129      2.00000
     71     -53.7128      2.00000
     72     -53.7128      2.00000
     73     -53.7099      2.00000
     74     -53.7099      2.00000
     75     -53.7098      2.00000
     76     -53.7098      2.00000
     77     -53.7097      2.00000
     78     -53.7097      2.00000
     79     -53.7097      2.00000
     80     -53.7097      2.00000
     81     -53.7096      2.00000
     82     -53.7096      2.00000
     83     -53.7096      2.00000
     84     -53.7096      2.00000
     85     -53.7096      2.00000
     86     -53.7096      2.00000
     87     -53.7095      2.00000
     88     -53.7095      2.00000
     89     -53.7016      2.00000
     90     -53.7016      2.00000
     91     -53.7015      2.00000
     92     -53.7015      2.00000
     93     -53.6853      2.00000
     94     -53.6853      2.00000
     95     -53.6853      2.00000
     96     -53.6853      2.00000
     97     -53.6852      2.00000
     98     -53.6852      2.00000
     99     -53.6852      2.00000
    100     -53.6852      2.00000
    101     -53.6801      2.00000
    102     -53.6801      2.00000
    103     -53.6800      2.00000
    104     -53.6800      2.00000
    105     -53.6800      2.00000
    106     -53.6800      2.00000
    107     -53.6799      2.00000
    108     -53.6799      2.00000
    109     -53.6693      2.00000
    110     -53.6693      2.00000
    111     -53.6509      2.00000
    112     -53.6509      2.00000
    113     -53.6508      2.00000
    114     -53.6508      2.00000
    115     -53.6507      2.00000
    116     -53.6507      2.00000
    117     -53.6506      2.00000
    118     -53.6506      2.00000
    119     -53.6262      2.00000
    120     -53.6261      2.00000
    121     -53.6261      2.00000
    122     -53.6261      2.00000
    123     -53.6260      2.00000
    124     -53.6260      2.00000
    125     -53.6260      2.00000
    126     -53.6259      2.00000
    127     -53.5881      2.00000
    128     -53.5880      2.00000
    129     -28.1041      2.00000
    130     -28.1041      2.00000
    131     -28.1040      2.00000
    132     -28.1040      2.00000
    133     -28.0959      2.00000
    134     -28.0959      2.00000
    135     -28.0959      2.00000
    136     -28.0959      2.00000
    137     -28.0958      2.00000
    138     -28.0958      2.00000
    139     -28.0958      2.00000
    140     -28.0958      2.00000
    141     -28.0226      2.00000
    142     -28.0226      2.00000
    143     -28.0226      2.00000
    144     -28.0226      2.00000
    145     -28.0226      2.00000
    146     -28.0226      2.00000
    147     -28.0225      2.00000
    148     -28.0225      2.00000
    149     -27.9891      2.00000
    150     -27.9890      2.00000
    151     -27.9890      2.00000
    152     -27.9890      2.00000
    153     -27.9890      2.00000
    154     -27.9890      2.00000
    155     -27.9889      2.00000
    156     -27.9889      2.00000
    157     -27.9889      2.00000
    158     -27.9889      2.00000
    159     -27.9889      2.00000
    160     -27.9889      2.00000
    161     -27.9889      2.00000
    162     -27.9888      2.00000
    163     -27.9888      2.00000
    164     -27.9888      2.00000
    165     -27.9717      2.00000
    166     -27.9717      2.00000
    167     -27.9716      2.00000
    168     -27.9716      2.00000
    169     -27.9716      2.00000
    170     -27.9716      2.00000
    171     -27.9716      2.00000
    172     -27.9716      2.00000
    173     -27.9715      2.00000
    174     -27.9715      2.00000
    175     -27.9715      2.00000
    176     -27.9715      2.00000
    177     -27.9715      2.00000
    178     -27.9715      2.00000
    179     -27.9714      2.00000
    180     -27.9714      2.00000
    181     -27.9653      2.00000
    182     -27.9653      2.00000
    183     -27.9653      2.00000
    184     -27.9653      2.00000
    185     -27.9652      2.00000
    186     -27.9652      2.00000
    187     -27.9652      2.00000
    188     -27.9652      2.00000
    189     -27.9563      2.00000
    190     -27.9563      2.00000
    191     -27.9563      2.00000
    192     -27.9563      2.00000
    193     -27.9562      2.00000
    194     -27.9562      2.00000
    195     -27.9562      2.00000
    196     -27.9562      2.00000
    197     -27.9179      2.00000
    198     -27.9179      2.00000
    199     -27.9179      2.00000
    200     -27.9179      2.00000
    201     -27.9178      2.00000
    202     -27.9178      2.00000
    203     -27.9178      2.00000
    204     -27.9178      2.00000
    205     -27.9166      2.00000
    206     -27.9166      2.00000
    207     -27.9166      2.00000
    208     -27.9166      2.00000
    209     -27.9166      2.00000
    210     -27.9166      2.00000
    211     -27.9166      2.00000
    212     -27.9166      2.00000
    213     -27.8593      2.00000
    214     -27.8593      2.00000
    215     -27.8593      2.00000
    216     -27.8593      2.00000
    217     -27.8593      2.00000
    218     -27.8593      2.00000
    219     -27.8592      2.00000
    220     -27.8592      2.00000
    221     -27.8532      2.00000
    222     -27.8532      2.00000
    223     -27.8532      2.00000
    224     -27.8532      2.00000
    225     -27.8506      2.00000
    226     -27.8505      2.00000
    227     -27.8242      2.00000
    228     -27.8242      2.00000
    229     -27.8241      2.00000
    230     -27.8241      2.00000
    231     -27.8195      2.00000
    232     -27.8195      2.00000
    233     -27.8195      2.00000
    234     -27.8195      2.00000
    235     -27.8194      2.00000
    236     -27.8194      2.00000
    237     -27.8194      2.00000
    238     -27.8194      2.00000
    239     -27.8032      2.00000
    240     -27.8032      2.00000
    241     -27.7643      2.00000
    242     -27.7643      2.00000
    243     -27.7643      2.00000
    244     -27.7642      2.00000
    245     -27.7642      2.00000
    246     -27.7642      2.00000
    247     -27.7642      2.00000
    248     -27.7642      2.00000
    249     -27.7509      2.00000
    250     -27.7509      2.00000
    251     -27.7509      2.00000
    252     -27.7509      2.00000
    253     -27.7509      2.00000
    254     -27.7509      2.00000
    255     -27.7509      2.00000
    256     -27.7509      2.00000
    257     -27.7341      2.00000
    258     -27.7341      2.00000
    259     -27.7341      2.00000
    260     -27.7340      2.00000
    261     -27.7340      2.00000
    262     -27.7340      2.00000
    263     -27.7339      2.00000
    264     -27.7339      2.00000
    265     -27.7309      2.00000
    266     -27.7309      2.00000
    267     -27.7309      2.00000
    268     -27.7309      2.00000
    269     -27.7308      2.00000
    270     -27.7308      2.00000
    271     -27.7308      2.00000
    272     -27.7308      2.00000
    273     -27.6665      2.00000
    274     -27.6664      2.00000
    275     -27.6664      2.00000
    276     -27.6664      2.00000
    277     -27.6664      2.00000
    278     -27.6663      2.00000
    279     -27.6663      2.00000
    280     -27.6663      2.00000
    281     -27.6531      2.00000
    282     -27.6531      2.00000
    283     -27.6530      2.00000
    284     -27.6530      2.00000
    285     -27.6478      2.00000
    286     -27.6478      2.00000
    287     -27.6478      2.00000
    288     -27.6478      2.00000
    289     -27.6065      2.00000
    290     -27.6065      2.00000
    291     -27.6065      2.00000
    292     -27.6065      2.00000
    293     -27.6065      2.00000
    294     -27.6065      2.00000
    295     -27.6065      2.00000
    296     -27.6064      2.00000
    297     -27.6064      2.00000
    298     -27.6064      2.00000
    299     -27.6064      2.00000
    300     -27.6064      2.00000
    301     -27.6064      2.00000
    302     -27.6064      2.00000
    303     -27.6064      2.00000
    304     -27.6063      2.00000
    305     -27.6047      2.00000
    306     -27.6047      2.00000
    307     -27.6047      2.00000
    308     -27.6047      2.00000
    309     -27.6047      2.00000
    310     -27.6047      2.00000
    311     -27.6046      2.00000
    312     -27.6046      2.00000
    313     -27.5663      2.00000
    314     -27.5663      2.00000
    315     -27.5532      2.00000
    316     -27.5532      2.00000
    317     -27.5531      2.00000
    318     -27.5531      2.00000
    319     -27.5531      2.00000
    320     -27.5531      2.00000
    321     -27.5531      2.00000
    322     -27.5531      2.00000
    323     -27.5530      2.00000
    324     -27.5530      2.00000
    325     -27.5530      2.00000
    326     -27.5530      2.00000
    327     -27.5530      2.00000
    328     -27.5530      2.00000
    329     -27.5529      2.00000
    330     -27.5529      2.00000
    331     -27.5343      2.00000
    332     -27.5343      2.00000
    333     -27.5341      2.00000
    334     -27.5341      2.00000
    335     -27.5240      2.00000
    336     -27.5240      2.00000
    337     -27.5240      2.00000
    338     -27.5240      2.00000
    339     -27.5239      2.00000
    340     -27.5239      2.00000
    341     -27.5239      2.00000
    342     -27.5239      2.00000
    343     -27.5159      2.00000
    344     -27.5159      2.00000
    345     -27.5159      2.00000
    346     -27.5159      2.00000
    347     -27.5159      2.00000
    348     -27.5159      2.00000
    349     -27.5159      2.00000
    350     -27.5158      2.00000
    351     -27.5118      2.00000
    352     -27.5118      2.00000
    353     -27.5118      2.00000
    354     -27.5118      2.00000
    355     -27.5117      2.00000
    356     -27.5117      2.00000
    357     -27.5116      2.00000
    358     -27.5116      2.00000
    359     -27.5040      2.00000
    360     -27.5040      2.00000
    361     -27.5040      2.00000
    362     -27.5040      2.00000
    363     -27.4773      2.00000
    364     -27.4773      2.00000
    365     -27.4773      2.00000
    366     -27.4773      2.00000
    367     -27.4772      2.00000
    368     -27.4772      2.00000
    369     -27.4772      2.00000
    370     -27.4772      2.00000
    371     -27.4562      2.00000
    372     -27.4562      2.00000
    373     -27.4562      2.00000
    374     -27.4562      2.00000
    375     -27.4562      2.00000
    376     -27.4562      2.00000
    377     -27.4562      2.00000
    378     -27.4562      2.00000
    379     -27.4365      2.00000
    380     -27.4365      2.00000
    381     -27.4365      2.00000
    382     -27.4365      2.00000
    383     -27.4365      2.00000
    384     -27.4365      2.00000
    385     -27.4365      2.00000
    386     -27.4365      2.00000
    387     -27.4349      2.00000
    388     -27.4349      2.00000
    389     -27.4349      2.00000
    390     -27.4349      2.00000
    391     -27.4349      2.00000
    392     -27.4349      2.00000
    393     -27.4348      2.00000
    394     -27.4348      2.00000
    395     -27.4279      2.00000
    396     -27.4279      2.00000
    397     -27.4279      2.00000
    398     -27.4279      2.00000
    399     -27.4278      2.00000
    400     -27.4278      2.00000
    401     -27.4278      2.00000
    402     -27.4278      2.00000
    403     -27.4082      2.00000
    404     -27.4082      2.00000
    405     -27.4082      2.00000
    406     -27.4082      2.00000
    407     -27.3567      2.00000
    408     -27.3567      2.00000
    409     -27.3566      2.00000
    410     -27.3566      2.00000
    411     -27.3566      2.00000
    412     -27.3566      2.00000
    413     -27.3565      2.00000
    414     -27.3565      2.00000
    415     -27.3416      2.00000
    416     -27.3416      2.00000
    417     -27.3415      2.00000
    418     -27.3415      2.00000
    419     -27.3415      2.00000
    420     -27.3415      2.00000
    421     -27.3415      2.00000
    422     -27.3415      2.00000
    423     -27.3414      2.00000
    424     -27.3414      2.00000
    425     -27.3414      2.00000
    426     -27.3414      2.00000
    427     -27.3413      2.00000
    428     -27.3413      2.00000
    429     -27.3413      2.00000
    430     -27.3413      2.00000
    431     -27.3412      2.00000
    432     -27.3412      2.00000
    433     -27.3412      2.00000
    434     -27.3411      2.00000
    435     -27.3411      2.00000
    436     -27.3411      2.00000
    437     -27.3411      2.00000
    438     -27.3411      2.00000
    439     -27.3249      2.00000
    440     -27.3248      2.00000
    441     -27.3248      2.00000
    442     -27.3248      2.00000
    443     -27.3247      2.00000
    444     -27.3247      2.00000
    445     -27.3247      2.00000
    446     -27.3246      2.00000
    447     -27.3178      2.00000
    448     -27.3178      2.00000
    449     -27.3178      2.00000
    450     -27.3178      2.00000
    451     -27.3177      2.00000
    452     -27.3177      2.00000
    453     -27.3177      2.00000
    454     -27.3177      2.00000
    455     -27.3165      2.00000
    456     -27.3165      2.00000
    457     -27.3164      2.00000
    458     -27.3164      2.00000
    459     -27.3164      2.00000
    460     -27.3164      2.00000
    461     -27.3163      2.00000
    462     -27.3163      2.00000
    463     -27.3163      2.00000
    464     -27.3163      2.00000
    465     -27.3163      2.00000
    466     -27.3163      2.00000
    467     -27.3163      2.00000
    468     -27.3163      2.00000
    469     -27.3162      2.00000
    470     -27.3162      2.00000
    471     -27.2733      2.00000
    472     -27.2732      2.00000
    473     -27.2632      2.00000
    474     -27.2632      2.00000
    475     -27.2631      2.00000
    476     -27.2631      2.00000
    477     -27.2543      2.00000
    478     -27.2542      2.00000
    479     -27.2542      2.00000
    480     -27.2542      2.00000
    481     -27.2542      2.00000
    482     -27.2542      2.00000
    483     -27.2542      2.00000
    484     -27.2541      2.00000
    485     -27.2541      2.00000
    486     -27.2541      2.00000
    487     -27.2541      2.00000
    488     -27.2541      2.00000
    489     -27.2541      2.00000
    490     -27.2541      2.00000
    491     -27.2541      2.00000
    492     -27.2541      2.00000
    493     -27.2540      2.00000
    494     -27.2540      2.00000
    495     -27.2539      2.00000
    496     -27.2539      2.00000
    497     -27.2539      2.00000
    498     -27.2538      2.00000
    499     -27.2538      2.00000
    500     -27.2538      2.00000
    501     -27.2536      2.00000
    502     -27.2536      2.00000
    503     -27.2535      2.00000
    504     -27.2535      2.00000
    505     -27.2535      2.00000
    506     -27.2535      2.00000
    507     -27.2535      2.00000
    508     -27.2534      2.00000
    509     -27.2457      2.00000
    510     -27.2457      2.00000
    511     -27.2456      2.00000
    512     -27.2456      2.00000
    513       3.4892      2.00000
    514       3.4893      2.00000
    515       4.6366      2.00000
    516       4.6367      2.00000
    517       4.6367      2.00000
    518       4.6368      2.00000
    519       4.6369      2.00000
    520       4.6369      2.00000
    521       4.6369      2.00000
    522       4.6370      2.00000
    523       5.6003      2.00000
    524       5.6004      2.00000
    525       5.6005      2.00000
    526       5.6005      2.00000
    527       5.6005      2.00000
    528       5.6005      2.00000
    529       5.6006      2.00000
    530       5.6006      2.00000
    531       5.6377      2.00000
    532       5.6377      2.00000
    533       6.1897      2.00000
    534       6.1897      2.00000
    535       6.1898      2.00000
    536       6.1898      2.00000
    537       6.1898      2.00000
    538       6.1898      2.00000
    539       6.1899      2.00000
    540       6.1899      2.00000
    541       6.6957      2.00000
    542       6.6957      2.00000
    543       6.6957      2.00000
    544       6.6957      2.00000
    545       6.6958      2.00000
    546       6.6958      2.00000
    547       6.6958      2.00000
    548       6.6958      2.00000
    549       6.8500      2.00000
    550       6.8500      2.00000
    551       6.8501      2.00000
    552       6.8501      2.00000
    553       6.9296      2.00000
    554       6.9297      2.00000
    555       6.9354      2.00000
    556       6.9356      2.00000
    557       6.9499      2.00000
    558       6.9499      2.00000
    559       6.9499      2.00000
    560       6.9499      2.00000
    561       6.9500      2.00000
    562       6.9500      2.00000
    563       6.9500      2.00000
    564       6.9500      2.00000
    565       7.0860      2.00000
    566       7.0860      2.00000
    567       7.0860      2.00000
    568       7.0860      2.00000
    569       7.0861      2.00000
    570       7.0861      2.00000
    571       7.0861      2.00000
    572       7.0861      2.00000
    573       7.1545      2.00000
    574       7.1545      2.00000
    575       7.1546      2.00000
    576       7.1546      2.00000
    577       7.1546      2.00000
    578       7.1546      2.00000
    579       7.1546      2.00000
    580       7.1546      2.00000
    581       7.1547      2.00000
    582       7.1547      2.00000
    583       7.1547      2.00000
    584       7.1547      2.00000
    585       7.1547      2.00000
    586       7.1547      2.00000
    587       7.1548      2.00000
    588       7.1548      2.00000
    589       7.3728      2.00000
    590       7.3728      2.00000
    591       7.3728      2.00000
    592       7.3728      2.00000
    593       7.3728      2.00000
    594       7.3728      2.00000
    595       7.3728      2.00000
    596       7.3728      2.00000
    597       7.4287      2.00000
    598       7.4288      2.00000
    599       7.4288      2.00000
    600       7.4288      2.00000
    601       7.4289      2.00000
    602       7.4289      2.00000
    603       7.4289      2.00000
    604       7.4290      2.00000
    605       7.4711      2.00000
    606       7.4711      2.00000
    607       7.6021      2.00000
    608       7.6022      2.00000
    609       7.6022      2.00000
    610       7.6023      2.00000
    611       7.6023      2.00000
    612       7.6024      2.00000
    613       7.6024      2.00000
    614       7.6025      2.00000
    615       7.6133      2.00000
    616       7.6134      2.00000
    617       7.6134      2.00000
    618       7.6134      2.00000
    619       7.6134      2.00000
    620       7.6134      2.00000
    621       7.6134      2.00000
    622       7.6134      2.00000
    623       7.6135      2.00000
    624       7.6135      2.00000
    625       7.6135      2.00000
    626       7.6135      2.00000
    627       7.6135      2.00000
    628       7.6135      2.00000
    629       7.6135      2.00000
    630       7.6136      2.00000
    631       7.7584      2.00000
    632       7.7584      2.00000
    633       7.7585      2.00000
    634       7.7585      2.00000
    635       7.7585      2.00000
    636       7.7586      2.00000
    637       7.7586      2.00000
    638       7.7586      2.00000
    639       8.1073      2.00000
    640       8.1073      2.00000
    641       8.1073      2.00000
    642       8.1073      2.00000
    643       8.1073      2.00000
    644       8.1073      2.00000
    645       8.1073      2.00000
    646       8.1073      2.00000
    647       8.2125      2.00000
    648       8.2125      2.00000
    649       8.2258      2.00000
    650       8.2258      2.00000
    651       8.2259      2.00000
    652       8.2259      2.00000
    653       8.2259      2.00000
    654       8.2259      2.00000
    655       8.2260      2.00000
    656       8.2261      2.00000
    657       8.3054      2.00000
    658       8.3054      2.00000
    659       8.3055      2.00000
    660       8.3055      2.00000
    661       8.4702      2.00000
    662       8.4702      2.00000
    663       8.4702      2.00000
    664       8.4702      2.00000
    665       8.4847      2.00000
    666       8.4847      2.00000
    667       8.4847      2.00000
    668       8.4847      2.00000
    669       8.4848      2.00000
    670       8.4848      2.00000
    671       8.4848      2.00000
    672       8.4848      2.00000
    673       8.5788      2.00000
    674       8.5788      2.00000
    675       8.5788      2.00000
    676       8.5788      2.00000
    677       8.5789      2.00000
    678       8.5789      2.00000
    679       8.5789      2.00000
    680       8.5789      2.00000
    681       8.5789      2.00000
    682       8.5789      2.00000
    683       8.5790      2.00000
    684       8.5790      2.00000
    685       8.5790      2.00000
    686       8.5790      2.00000
    687       8.5790      2.00000
    688       8.5790      2.00000
    689       8.5919      2.00000
    690       8.5919      2.00000
    691       8.5920      2.00000
    692       8.5920      2.00000
    693       8.7907      2.00000
    694       8.7907      2.00000
    695       8.7907      2.00000
    696       8.7907      2.00000
    697       8.7907      2.00000
    698       8.7907      2.00000
    699       8.7907      2.00000
    700       8.7907      2.00000
    701       8.8253      2.00000
    702       8.8253      2.00000
    703       8.8253      2.00000
    704       8.8253      2.00000
    705       8.8254      2.00000
    706       8.8254      2.00000
    707       8.8254      2.00000
    708       8.8254      2.00000
    709       8.8722      2.00000
    710       8.8722      2.00000
    711       8.8722      2.00000
    712       8.8722      2.00000
    713       8.8722      2.00000
    714       8.8723      2.00000
    715       8.8723      2.00000
    716       8.8723      2.00000
    717       8.9279      2.00000
    718       8.9279      2.00000
    719       8.9279      2.00000
    720       8.9279      2.00000
    721       8.9280      2.00000
    722       8.9280      2.00000
    723       8.9280      2.00000
    724       8.9280      2.00000
    725       8.9280      2.00000
    726       8.9280      2.00000
    727       8.9280      2.00000
    728       8.9280      2.00000
    729       8.9280      2.00000
    730       8.9280      2.00000
    731       8.9281      2.00000
    732       8.9281      2.00000
    733       9.0060      2.00000
    734       9.0060      2.00000
    735       9.0060      2.00000
    736       9.0060      2.00000
    737       9.0060      2.00000
    738       9.0060      2.00000
    739       9.0060      2.00000
    740       9.0060      2.00000
    741       9.0892      2.00001
    742       9.0892      2.00001
    743       9.0892      2.00001
    744       9.0892      2.00001
    745       9.0893      2.00001
    746       9.0893      2.00001
    747       9.0893      2.00001
    748       9.0893      2.00001
    749       9.1299      2.00004
    750       9.1299      2.00004
    751       9.1300      2.00004
    752       9.1300      2.00004
    753       9.1594      2.00010
    754       9.1594      2.00010
    755       9.1594      2.00010
    756       9.1594      2.00010
    757       9.1594      2.00010
    758       9.1594      2.00010
    759       9.1594      2.00010
    760       9.1594      2.00010
    761       9.1991      2.00031
    762       9.1991      2.00031
    763       9.1991      2.00031
    764       9.1991      2.00031
    765       9.1991      2.00031
    766       9.1991      2.00031
    767       9.1992      2.00031
    768       9.1992      2.00031
    769       9.2659      2.00166
    770       9.2659      2.00166
    771       9.2660      2.00166
    772       9.2660      2.00166
    773       9.2660      2.00167
    774       9.2660      2.00167
    775       9.2661      2.00167
    776       9.2661      2.00167
    777       9.4495      2.04107
    778       9.4495      2.04107
    779       9.4495      2.04108
    780       9.4495      2.04108
    781       9.4495      2.04111
    782       9.4495      2.04111
    783       9.4496      2.04112
    784       9.4496      2.04112
    785       9.5254      2.07018
    786       9.5255      2.07018
    787       9.5255      2.07019
    788       9.5255      2.07019
    789       9.5255      2.07019
    790       9.5255      2.07019
    791       9.5255      2.07019
    792       9.5255      2.07019
    793       9.5256      2.07020
    794       9.5256      2.07020
    795       9.5256      2.07020
    796       9.5256      2.07020
    797       9.5256      2.07020
    798       9.5256      2.07020
    799       9.5256      2.07021
    800       9.5257      2.07021
    801       9.5337      2.07089
    802       9.5337      2.07089
    803       9.5337      2.07089
    804       9.5337      2.07089
    805       9.5337      2.07089
    806       9.5337      2.07089
    807       9.5337      2.07089
    808       9.5337      2.07089
    809       9.5337      2.07089
    810       9.5337      2.07089
    811       9.5338      2.07089
    812       9.5338      2.07089
    813       9.5338      2.07089
    814       9.5338      2.07089
    815       9.5338      2.07089
    816       9.5338      2.07089
    817       9.6961      1.64871
    818       9.6961      1.64869
    819       9.6961      1.64854
    820       9.6961      1.64852
    821       9.6961      1.64851
    822       9.6961      1.64849
    823       9.6962      1.64833
    824       9.6962      1.64832
    825       9.7725      1.06780
    826       9.7725      1.06741
    827       9.7726      1.06731
    828       9.7726      1.06716
    829       9.7726      1.06702
    830       9.7726      1.06693
    831       9.7726      1.06672
    832       9.7727      1.06649
    833       9.7953      0.87535
    834       9.7953      0.87533
    835       9.7953      0.87505
    836       9.7953      0.87499
    837       9.7953      0.87493
    838       9.7953      0.87491
    839       9.7954      0.87464
    840       9.7954      0.87458
    841       9.8324      0.57655
    842       9.8324      0.57654
    843       9.8325      0.57649
    844       9.8325      0.57647
    845       9.8325      0.57621
    846       9.8325      0.57619
    847       9.8325      0.57614
    848       9.8325      0.57613
    849       9.9770     -0.04647
    850       9.9771     -0.04650
    851       9.9771     -0.04651
    852       9.9771     -0.04655
    853       9.9771     -0.04656
    854       9.9772     -0.04659
    855       9.9772     -0.04660
    856       9.9772     -0.04663
    857      10.0750     -0.05771
    858      10.0750     -0.05771
    859      10.0750     -0.05771
    860      10.0750     -0.05771
    861      10.0751     -0.05769
    862      10.0751     -0.05769
    863      10.0751     -0.05769
    864      10.0751     -0.05769
    865      10.1791     -0.01637
    866      10.1791     -0.01637
    867      10.1792     -0.01634
    868      10.1792     -0.01634
    869      10.2790     -0.00240
    870      10.2790     -0.00240
    871      10.2876     -0.00197
    872      10.2876     -0.00197
    873      10.2876     -0.00197
    874      10.2876     -0.00197
    875      10.3111     -0.00114
    876      10.3112     -0.00114
    877      10.5230     -0.00000
    878      10.5230     -0.00000
    879      10.5230     -0.00000
    880      10.5230     -0.00000
    881      10.5230     -0.00000
    882      10.5230     -0.00000
    883      10.5230     -0.00000
    884      10.5230     -0.00000
    885      10.8266     -0.00000
    886      10.8266     -0.00000
    887      10.8267     -0.00000
    888      10.8267     -0.00000
    889      11.0069     -0.00000
    890      11.0069     -0.00000
    891      11.0069     -0.00000
    892      11.0069     -0.00000
    893      11.0070     -0.00000
    894      11.0070     -0.00000
    895      11.0070     -0.00000
    896      11.0070     -0.00000
    897      11.1274     -0.00000
    898      11.1274     -0.00000
    899      11.1274     -0.00000
    900      11.1275     -0.00000
    901      11.1275     -0.00000
    902      11.1275     -0.00000
    903      11.1275     -0.00000
    904      11.1275     -0.00000
    905      11.1402     -0.00000
    906      11.1402     -0.00000
    907      11.2667     -0.00000
    908      11.2667     -0.00000
    909      11.2667     -0.00000
    910      11.2667     -0.00000
    911      11.3463     -0.00000
    912      11.3463     -0.00000
    913      11.3463     -0.00000
    914      11.3463     -0.00000
    915      11.3463     -0.00000
    916      11.3463     -0.00000
    917      11.3463     -0.00000
    918      11.3463     -0.00000
    919      11.4782     -0.00000
    920      11.4782     -0.00000
    921      11.4782     -0.00000
    922      11.4783     -0.00000
    923      11.4783     -0.00000
    924      11.4783     -0.00000
    925      11.4783     -0.00000
    926      11.4783     -0.00000
    927      11.5394     -0.00000
    928      11.5394     -0.00000
    929      11.5395     -0.00000
    930      11.5395     -0.00000
    931      11.5395     -0.00000
    932      11.5395     -0.00000
    933      11.5395     -0.00000
    934      11.5396     -0.00000
    935      11.6992     -0.00000
    936      11.6992     -0.00000
    937      11.6992     -0.00000
    938      11.6992     -0.00000
    939      11.6993     -0.00000
    940      11.6993     -0.00000
    941      11.6993     -0.00000
    942      11.6993     -0.00000
    943      11.6993     -0.00000
    944      11.6993     -0.00000
    945      11.6993     -0.00000
    946      11.6993     -0.00000
    947      11.6993     -0.00000
    948      11.6994     -0.00000
    949      11.6994     -0.00000
    950      11.6994     -0.00000
    951      11.7706     -0.00000
    952      11.7706     -0.00000
    953      11.7707     -0.00000
    954      11.7707     -0.00000
    955      11.7707     -0.00000
    956      11.7707     -0.00000
    957      11.7707     -0.00000
    958      11.7707     -0.00000
    959      11.8266     -0.00000
    960      11.8266     -0.00000
    961      11.8266     -0.00000
    962      11.8266     -0.00000
    963      11.8267     -0.00000
    964      11.8267     -0.00000
    965      11.8267     -0.00000
    966      11.8267     -0.00000
    967      11.9579     -0.00000
    968      11.9580     -0.00000
    969      11.9665     -0.00000
    970      11.9665     -0.00000
    971      11.9665     -0.00000
    972      11.9665     -0.00000
    973      11.9666     -0.00000
    974      11.9666     -0.00000
    975      11.9666     -0.00000
    976      11.9666     -0.00000
    977      11.9847     -0.00000
    978      11.9847     -0.00000
    979      11.9847     -0.00000
    980      11.9847     -0.00000
    981      11.9848     -0.00000
    982      11.9848     -0.00000
    983      11.9848     -0.00000
    984      11.9848     -0.00000
    985      12.0631     -0.00000
    986      12.0631     -0.00000
    987      12.0633     -0.00000
    988      12.0635     -0.00000
    989      12.0636     -0.00000
    990      12.0646     -0.00000
    991      12.0655     -0.00000
    992      12.0670     -0.00000
    993      12.0952     -0.00000
    994      12.0953     -0.00000
    995      12.0956     -0.00000
    996      12.0960     -0.00000
    997      12.0970     -0.00000
    998      12.1004     -0.00000
    999      12.1040     -0.00000
   1000      12.1121     -0.00000

 k-point     3 :       0.5000    0.5000    0.0000
  band No.  band energies     occupation 
      1     -53.8886      2.00000
      2     -53.8885      2.00000
      3     -53.8883      2.00000
      4     -53.8882      2.00000
      5     -53.8383      2.00000
      6     -53.8382      2.00000
      7     -53.8382      2.00000
      8     -53.8381      2.00000
      9     -53.8379      2.00000
     10     -53.8378      2.00000
     11     -53.8378      2.00000
     12     -53.8377      2.00000
     13     -53.7926      2.00000
     14     -53.7926      2.00000
     15     -53.7924      2.00000
     16     -53.7924      2.00000
     17     -53.7923      2.00000
     18     -53.7923      2.00000
     19     -53.7922      2.00000
     20     -53.7922      2.00000
     21     -53.7666      2.00000
     22     -53.7666      2.00000
     23     -53.7665      2.00000
     24     -53.7665      2.00000
     25     -53.7665      2.00000
     26     -53.7664      2.00000
     27     -53.7663      2.00000
     28     -53.7663      2.00000
     29     -53.7663      2.00000
     30     -53.7663      2.00000
     31     -53.7662      2.00000
     32     -53.7662      2.00000
     33     -53.7662      2.00000
     34     -53.7662      2.00000
     35     -53.7661      2.00000
     36     -53.7661      2.00000
     37     -53.7450      2.00000
     38     -53.7450      2.00000
     39     -53.7449      2.00000
     40     -53.7449      2.00000
     41     -53.7295      2.00000
     42     -53.7295      2.00000
     43     -53.7295      2.00000
     44     -53.7294      2.00000
     45     -53.7294      2.00000
     46     -53.7294      2.00000
     47     -53.7294      2.00000
     48     -53.7293      2.00000
     49     -53.7276      2.00000
     50     -53.7276      2.00000
     51     -53.7275      2.00000
     52     -53.7275      2.00000
     53     -53.7273      2.00000
     54     -53.7273      2.00000
     55     -53.7272      2.00000
     56     -53.7272      2.00000
     57     -53.7155      2.00000
     58     -53.7154      2.00000
     59     -53.7154      2.00000
     60     -53.7154      2.00000
     61     -53.7153      2.00000
     62     -53.7153      2.00000
     63     -53.7153      2.00000
     64     -53.7153      2.00000
     65     -53.7151      2.00000
     66     -53.7151      2.00000
     67     -53.7150      2.00000
     68     -53.7150      2.00000
     69     -53.7150      2.00000
     70     -53.7150      2.00000
     71     -53.7149      2.00000
     72     -53.7149      2.00000
     73     -53.7042      2.00000
     74     -53.7042      2.00000
     75     -53.7041      2.00000
     76     -53.7041      2.00000
     77     -53.7039      2.00000
     78     -53.7039      2.00000
     79     -53.7038      2.00000
     80     -53.7038      2.00000
     81     -53.6953      2.00000
     82     -53.6953      2.00000
     83     -53.6953      2.00000
     84     -53.6952      2.00000
     85     -53.6943      2.00000
     86     -53.6943      2.00000
     87     -53.6943      2.00000
     88     -53.6943      2.00000
     89     -53.6942      2.00000
     90     -53.6942      2.00000
     91     -53.6942      2.00000
     92     -53.6941      2.00000
     93     -53.6814      2.00000
     94     -53.6814      2.00000
     95     -53.6813      2.00000
     96     -53.6813      2.00000
     97     -53.6813      2.00000
     98     -53.6813      2.00000
     99     -53.6812      2.00000
    100     -53.6812      2.00000
    101     -53.6812      2.00000
    102     -53.6812      2.00000
    103     -53.6811      2.00000
    104     -53.6811      2.00000
    105     -53.6811      2.00000
    106     -53.6810      2.00000
    107     -53.6810      2.00000
    108     -53.6809      2.00000
    109     -53.6719      2.00000
    110     -53.6719      2.00000
    111     -53.6718      2.00000
    112     -53.6718      2.00000
    113     -53.6717      2.00000
    114     -53.6716      2.00000
    115     -53.6715      2.00000
    116     -53.6715      2.00000
    117     -53.6323      2.00000
    118     -53.6322      2.00000
    119     -53.6322      2.00000
    120     -53.6320      2.00000
    121     -53.6319      2.00000
    122     -53.6318      2.00000
    123     -53.6318      2.00000
    124     -53.6317      2.00000
    125     -53.5980      2.00000
    126     -53.5979      2.00000
    127     -53.5977      2.00000
    128     -53.5976      2.00000
    129     -28.0978      2.00000
    130     -28.0978      2.00000
    131     -28.0978      2.00000
    132     -28.0978      2.00000
    133     -28.0672      2.00000
    134     -28.0672      2.00000
    135     -28.0671      2.00000
    136     -28.0671      2.00000
    137     -28.0670      2.00000
    138     -28.0670      2.00000
    139     -28.0670      2.00000
    140     -28.0670      2.00000
    141     -28.0668      2.00000
    142     -28.0668      2.00000
    143     -28.0668      2.00000
    144     -28.0668      2.00000
    145     -28.0667      2.00000
    146     -28.0667      2.00000
    147     -28.0667      2.00000
    148     -28.0667      2.00000
    149     -28.0102      2.00000
    150     -28.0101      2.00000
    151     -28.0101      2.00000
    152     -28.0101      2.00000
    153     -28.0003      2.00000
    154     -28.0003      2.00000
    155     -28.0003      2.00000
    156     -28.0003      2.00000
    157     -28.0002      2.00000
    158     -28.0002      2.00000
    159     -28.0001      2.00000
    160     -28.0001      2.00000
    161     -28.0001      2.00000
    162     -28.0000      2.00000
    163     -28.0000      2.00000
    164     -28.0000      2.00000
    165     -27.9999      2.00000
    166     -27.9999      2.00000
    167     -27.9999      2.00000
    168     -27.9999      2.00000
    169     -27.9672      2.00000
    170     -27.9672      2.00000
    171     -27.9671      2.00000
    172     -27.9671      2.00000
    173     -27.9671      2.00000
    174     -27.9671      2.00000
    175     -27.9670      2.00000
    176     -27.9670      2.00000
    177     -27.9668      2.00000
    178     -27.9668      2.00000
    179     -27.9668      2.00000
    180     -27.9668      2.00000
    181     -27.9667      2.00000
    182     -27.9667      2.00000
    183     -27.9667      2.00000
    184     -27.9667      2.00000
    185     -27.9198      2.00000
    186     -27.9197      2.00000
    187     -27.9197      2.00000
    188     -27.9197      2.00000
    189     -27.9195      2.00000
    190     -27.9195      2.00000
    191     -27.9195      2.00000
    192     -27.9194      2.00000
    193     -27.8991      2.00000
    194     -27.8991      2.00000
    195     -27.8990      2.00000
    196     -27.8990      2.00000
    197     -27.8990      2.00000
    198     -27.8990      2.00000
    199     -27.8989      2.00000
    200     -27.8989      2.00000
    201     -27.8953      2.00000
    202     -27.8953      2.00000
    203     -27.8952      2.00000
    204     -27.8952      2.00000
    205     -27.8951      2.00000
    206     -27.8951      2.00000
    207     -27.8950      2.00000
    208     -27.8950      2.00000
    209     -27.8925      2.00000
    210     -27.8925      2.00000
    211     -27.8925      2.00000
    212     -27.8925      2.00000
    213     -27.8742      2.00000
    214     -27.8742      2.00000
    215     -27.8742      2.00000
    216     -27.8742      2.00000
    217     -27.8741      2.00000
    218     -27.8741      2.00000
    219     -27.8741      2.00000
    220     -27.8741      2.00000
    221     -27.8740      2.00000
    222     -27.8740      2.00000
    223     -27.8740      2.00000
    224     -27.8740      2.00000
    225     -27.8739      2.00000
    226     -27.8739      2.00000
    227     -27.8739      2.00000
    228     -27.8739      2.00000
    229     -27.8664      2.00000
    230     -27.8664      2.00000
    231     -27.8664      2.00000
    232     -27.8663      2.00000
    233     -27.8662      2.00000
    234     -27.8662      2.00000
    235     -27.8661      2.00000
    236     -27.8661      2.00000
    237     -27.8009      2.00000
    238     -27.8007      2.00000
    239     -27.8005      2.00000
    240     -27.8004      2.00000
    241     -27.7898      2.00000
    242     -27.7898      2.00000
    243     -27.7898      2.00000
    244     -27.7897      2.00000
    245     -27.7897      2.00000
    246     -27.7897      2.00000
    247     -27.7896      2.00000
    248     -27.7896      2.00000
    249     -27.7614      2.00000
    250     -27.7614      2.00000
    251     -27.7613      2.00000
    252     -27.7613      2.00000
    253     -27.7182      2.00000
    254     -27.7182      2.00000
    255     -27.7182      2.00000
    256     -27.7182      2.00000
    257     -27.7182      2.00000
    258     -27.7182      2.00000
    259     -27.7182      2.00000
    260     -27.7181      2.00000
    261     -27.6827      2.00000
    262     -27.6827      2.00000
    263     -27.6826      2.00000
    264     -27.6826      2.00000
    265     -27.6826      2.00000
    266     -27.6826      2.00000
    267     -27.6825      2.00000
    268     -27.6825      2.00000
    269     -27.6691      2.00000
    270     -27.6691      2.00000
    271     -27.6691      2.00000
    272     -27.6691      2.00000
    273     -27.6691      2.00000
    274     -27.6691      2.00000
    275     -27.6690      2.00000
    276     -27.6690      2.00000
    277     -27.6690      2.00000
    278     -27.6690      2.00000
    279     -27.6689      2.00000
    280     -27.6689      2.00000
    281     -27.6689      2.00000
    282     -27.6689      2.00000
    283     -27.6689      2.00000
    284     -27.6689      2.00000
    285     -27.6556      2.00000
    286     -27.6555      2.00000
    287     -27.6555      2.00000
    288     -27.6555      2.00000
    289     -27.6555      2.00000
    290     -27.6555      2.00000
    291     -27.6555      2.00000
    292     -27.6555      2.00000
    293     -27.6365      2.00000
    294     -27.6365      2.00000
    295     -27.6363      2.00000
    296     -27.6363      2.00000
    297     -27.6362      2.00000
    298     -27.6362      2.00000
    299     -27.6361      2.00000
    300     -27.6361      2.00000
    301     -27.5874      2.00000
    302     -27.5874      2.00000
    303     -27.5874      2.00000
    304     -27.5874      2.00000
    305     -27.5872      2.00000
    306     -27.5872      2.00000
    307     -27.5872      2.00000
    308     -27.5872      2.00000
    309     -27.5820      2.00000
    310     -27.5819      2.00000
    311     -27.5819      2.00000
    312     -27.5819      2.00000
    313     -27.5819      2.00000
    314     -27.5818      2.00000
    315     -27.5818      2.00000
    316     -27.5818      2.00000
    317     -27.5604      2.00000
    318     -27.5603      2.00000
    319     -27.5603      2.00000
    320     -27.5603      2.00000
    321     -27.5543      2.00000
    322     -27.5543      2.00000
    323     -27.5542      2.00000
    324     -27.5542      2.00000
    325     -27.5542      2.00000
    326     -27.5542      2.00000
    327     -27.5541      2.00000
    328     -27.5541      2.00000
    329     -27.5489      2.00000
    330     -27.5489      2.00000
    331     -27.5489      2.00000
    332     -27.5489      2.00000
    333     -27.5489      2.00000
    334     -27.5489      2.00000
    335     -27.5489      2.00000
    336     -27.5488      2.00000
    337     -27.5411      2.00000
    338     -27.5411      2.00000
    339     -27.5411      2.00000
    340     -27.5411      2.00000
    341     -27.5410      2.00000
    342     -27.5410      2.00000
    343     -27.5410      2.00000
    344     -27.5410      2.00000
    345     -27.5408      2.00000
    346     -27.5408      2.00000
    347     -27.5407      2.00000
    348     -27.5407      2.00000
    349     -27.5407      2.00000
    350     -27.5407      2.00000
    351     -27.5407      2.00000
    352     -27.5407      2.00000
    353     -27.5012      2.00000
    354     -27.5012      2.00000
    355     -27.5012      2.00000
    356     -27.5012      2.00000
    357     -27.5012      2.00000
    358     -27.5012      2.00000
    359     -27.5011      2.00000
    360     -27.5011      2.00000
    361     -27.4682      2.00000
    362     -27.4681      2.00000
    363     -27.4681      2.00000
    364     -27.4681      2.00000
    365     -27.4426      2.00000
    366     -27.4426      2.00000
    367     -27.4425      2.00000
    368     -27.4425      2.00000
    369     -27.4425      2.00000
    370     -27.4425      2.00000
    371     -27.4424      2.00000
    372     -27.4424      2.00000
    373     -27.4424      2.00000
    374     -27.4424      2.00000
    375     -27.4423      2.00000
    376     -27.4423      2.00000
    377     -27.4423      2.00000
    378     -27.4423      2.00000
    379     -27.4422      2.00000
    380     -27.4422      2.00000
    381     -27.4383      2.00000
    382     -27.4383      2.00000
    383     -27.4383      2.00000
    384     -27.4383      2.00000
    385     -27.4382      2.00000
    386     -27.4382      2.00000
    387     -27.4381      2.00000
    388     -27.4381      2.00000
    389     -27.4150      2.00000
    390     -27.4150      2.00000
    391     -27.4149      2.00000
    392     -27.4149      2.00000
    393     -27.4148      2.00000
    394     -27.4148      2.00000
    395     -27.4147      2.00000
    396     -27.4146      2.00000
    397     -27.3869      2.00000
    398     -27.3869      2.00000
    399     -27.3869      2.00000
    400     -27.3869      2.00000
    401     -27.3868      2.00000
    402     -27.3868      2.00000
    403     -27.3868      2.00000
    404     -27.3868      2.00000
    405     -27.3867      2.00000
    406     -27.3867      2.00000
    407     -27.3867      2.00000
    408     -27.3867      2.00000
    409     -27.3867      2.00000
    410     -27.3867      2.00000
    411     -27.3866      2.00000
    412     -27.3866      2.00000
    413     -27.3832      2.00000
    414     -27.3832      2.00000
    415     -27.3832      2.00000
    416     -27.3832      2.00000
    417     -27.3831      2.00000
    418     -27.3831      2.00000
    419     -27.3830      2.00000
    420     -27.3830      2.00000
    421     -27.3630      2.00000
    422     -27.3630      2.00000
    423     -27.3629      2.00000
    424     -27.3629      2.00000
    425     -27.3517      2.00000
    426     -27.3517      2.00000
    427     -27.3517      2.00000
    428     -27.3517      2.00000
    429     -27.3516      2.00000
    430     -27.3516      2.00000
    431     -27.3516      2.00000
    432     -27.3516      2.00000
    433     -27.3303      2.00000
    434     -27.3303      2.00000
    435     -27.3303      2.00000
    436     -27.3303      2.00000
    437     -27.3303      2.00000
    438     -27.3302      2.00000
    439     -27.3302      2.00000
    440     -27.3302      2.00000
    441     -27.3285      2.00000
    442     -27.3285      2.00000
    443     -27.3285      2.00000
    444     -27.3285      2.00000
    445     -27.3285      2.00000
    446     -27.3285      2.00000
    447     -27.3285      2.00000
    448     -27.3285      2.00000
    449     -27.3236      2.00000
    450     -27.3236      2.00000
    451     -27.3235      2.00000
    452     -27.3235      2.00000
    453     -27.3172      2.00000
    454     -27.3172      2.00000
    455     -27.3172      2.00000
    456     -27.3172      2.00000
    457     -27.3171      2.00000
    458     -27.3171      2.00000
    459     -27.3171      2.00000
    460     -27.3171      2.00000
    461     -27.2761      2.00000
    462     -27.2761      2.00000
    463     -27.2761      2.00000
    464     -27.2761      2.00000
    465     -27.2760      2.00000
    466     -27.2760      2.00000
    467     -27.2760      2.00000
    468     -27.2760      2.00000
    469     -27.2758      2.00000
    470     -27.2758      2.00000
    471     -27.2757      2.00000
    472     -27.2757      2.00000
    473     -27.2757      2.00000
    474     -27.2757      2.00000
    475     -27.2757      2.00000
    476     -27.2757      2.00000
    477     -27.2714      2.00000
    478     -27.2714      2.00000
    479     -27.2714      2.00000
    480     -27.2714      2.00000
    481     -27.2713      2.00000
    482     -27.2713      2.00000
    483     -27.2713      2.00000
    484     -27.2713      2.00000
    485     -27.2712      2.00000
    486     -27.2712      2.00000
    487     -27.2712      2.00000
    488     -27.2712      2.00000
    489     -27.2711      2.00000
    490     -27.2711      2.00000
    491     -27.2711      2.00000
    492     -27.2711      2.00000
    493     -27.2665      2.00000
    494     -27.2663      2.00000
    495     -27.2661      2.00000
    496     -27.2660      2.00000
    497     -27.2566      2.00000
    498     -27.2566      2.00000
    499     -27.2565      2.00000
    500     -27.2565      2.00000
    501     -27.2564      2.00000
    502     -27.2564      2.00000
    503     -27.2563      2.00000
    504     -27.2563      2.00000
    505     -27.2287      2.00000
    506     -27.2287      2.00000
    507     -27.2286      2.00000
    508     -27.2286      2.00000
    509     -27.2242      2.00000
    510     -27.2242      2.00000
    511     -27.2241      2.00000
    512     -27.2241      2.00000
    513       3.7920      2.00000
    514       3.7921      2.00000
    515       3.7924      2.00000
    516       3.7925      2.00000
    517       4.9011      2.00000
    518       4.9012      2.00000
    519       4.9012      2.00000
    520       4.9013      2.00000
    521       4.9015      2.00000
    522       4.9016      2.00000
    523       4.9016      2.00000
    524       4.9017      2.00000
    525       5.8162      2.00000
    526       5.8162      2.00000
    527       5.8163      2.00000
    528       5.8164      2.00000
    529       5.8164      2.00000
    530       5.8165      2.00000
    531       5.8166      2.00000
    532       5.8166      2.00000
    533       6.4527      2.00000
    534       6.4527      2.00000
    535       6.4528      2.00000
    536       6.4528      2.00000
    537       6.4528      2.00000
    538       6.4528      2.00000
    539       6.4529      2.00000
    540       6.4529      2.00000
    541       6.4529      2.00000
    542       6.4530      2.00000
    543       6.4530      2.00000
    544       6.4531      2.00000
    545       6.4531      2.00000
    546       6.4531      2.00000
    547       6.4532      2.00000
    548       6.4532      2.00000
    549       6.4731      2.00000
    550       6.4731      2.00000
    551       6.4732      2.00000
    552       6.4732      2.00000
    553       6.9564      2.00000
    554       6.9564      2.00000
    555       6.9564      2.00000
    556       6.9564      2.00000
    557       6.9565      2.00000
    558       6.9565      2.00000
    559       6.9565      2.00000
    560       6.9565      2.00000
    561       6.9568      2.00000
    562       6.9568      2.00000
    563       6.9568      2.00000
    564       6.9568      2.00000
    565       6.9569      2.00000
    566       6.9569      2.00000
    567       6.9569      2.00000
    568       6.9569      2.00000
    569       7.0052      2.00000
    570       7.0052      2.00000
    571       7.0053      2.00000
    572       7.0053      2.00000
    573       7.0761      2.00000
    574       7.0762      2.00000
    575       7.0765      2.00000
    576       7.0766      2.00000
    577       7.0875      2.00000
    578       7.0875      2.00000
    579       7.0877      2.00000
    580       7.0877      2.00000
    581       7.0879      2.00000
    582       7.0879      2.00000
    583       7.0880      2.00000
    584       7.0880      2.00000
    585       7.1232      2.00000
    586       7.1233      2.00000
    587       7.1235      2.00000
    588       7.1236      2.00000
    589       7.5175      2.00000
    590       7.5175      2.00000
    591       7.5175      2.00000
    592       7.5176      2.00000
    593       7.5176      2.00000
    594       7.5177      2.00000
    595       7.5177      2.00000
    596       7.5177      2.00000
    597       7.5466      2.00000
    598       7.5467      2.00000
    599       7.5468      2.00000
    600       7.5468      2.00000
    601       7.5469      2.00000
    602       7.5469      2.00000
    603       7.5470      2.00000
    604       7.5470      2.00000
    605       7.6252      2.00000
    606       7.6252      2.00000
    607       7.6253      2.00000
    608       7.6253      2.00000
    609       7.6254      2.00000
    610       7.6254      2.00000
    611       7.6254      2.00000
    612       7.6254      2.00000
    613       7.6255      2.00000
    614       7.6255      2.00000
    615       7.6255      2.00000
    616       7.6256      2.00000
    617       7.6256      2.00000
    618       7.6256      2.00000
    619       7.6257      2.00000
    620       7.6257      2.00000
    621       7.6568      2.00000
    622       7.6569      2.00000
    623       7.6569      2.00000
    624       7.6570      2.00000
    625       7.6572      2.00000
    626       7.6573      2.00000
    627       7.6573      2.00000
    628       7.6574      2.00000
    629       7.6653      2.00000
    630       7.6654      2.00000
    631       7.6654      2.00000
    632       7.6655      2.00000
    633       7.6656      2.00000
    634       7.6657      2.00000
    635       7.6658      2.00000
    636       7.6659      2.00000
    637       7.8251      2.00000
    638       7.8251      2.00000
    639       7.8251      2.00000
    640       7.8251      2.00000
    641       7.8252      2.00000
    642       7.8252      2.00000
    643       7.8252      2.00000
    644       7.8252      2.00000
    645       8.1590      2.00000
    646       8.1590      2.00000
    647       8.1590      2.00000
    648       8.1590      2.00000
    649       8.1591      2.00000
    650       8.1591      2.00000
    651       8.1591      2.00000
    652       8.1591      2.00000
    653       8.2856      2.00000
    654       8.2856      2.00000
    655       8.2857      2.00000
    656       8.2857      2.00000
    657       8.2858      2.00000
    658       8.2858      2.00000
    659       8.2859      2.00000
    660       8.2859      2.00000
    661       8.6088      2.00000
    662       8.6088      2.00000
    663       8.6088      2.00000
    664       8.6088      2.00000
    665       8.6088      2.00000
    666       8.6088      2.00000
    667       8.6088      2.00000
    668       8.6088      2.00000
    669       8.6224      2.00000
    670       8.6224      2.00000
    671       8.6224      2.00000
    672       8.6224      2.00000
    673       8.6225      2.00000
    674       8.6225      2.00000
    675       8.6225      2.00000
    676       8.6225      2.00000
    677       8.6875      2.00000
    678       8.6875      2.00000
    679       8.6875      2.00000
    680       8.6876      2.00000
    681       8.6876      2.00000
    682       8.6876      2.00000
    683       8.6876      2.00000
    684       8.6876      2.00000
    685       8.7309      2.00000
    686       8.7309      2.00000
    687       8.7310      2.00000
    688       8.7310      2.00000
    689       8.7310      2.00000
    690       8.7310      2.00000
    691       8.7311      2.00000
    692       8.7311      2.00000
    693       8.7311      2.00000
    694       8.7311      2.00000
    695       8.7312      2.00000
    696       8.7312      2.00000
    697       8.7312      2.00000
    698       8.7312      2.00000
    699       8.7313      2.00000
    700       8.7313      2.00000
    701       8.7352      2.00000
    702       8.7352      2.00000
    703       8.7352      2.00000
    704       8.7352      2.00000
    705       8.7353      2.00000
    706       8.7353      2.00000
    707       8.7353      2.00000
    708       8.7353      2.00000
    709       8.7355      2.00000
    710       8.7355      2.00000
    711       8.7356      2.00000
    712       8.7356      2.00000
    713       8.7356      2.00000
    714       8.7356      2.00000
    715       8.7357      2.00000
    716       8.7357      2.00000
    717       8.8488      2.00000
    718       8.8488      2.00000
    719       8.8488      2.00000
    720       8.8488      2.00000
    721       8.8942      2.00000
    722       8.8942      2.00000
    723       8.8942      2.00000
    724       8.8943      2.00000
    725       8.8944      2.00000
    726       8.8944      2.00000
    727       8.8945      2.00000
    728       8.8945      2.00000
    729       9.0309      2.00000
    730       9.0309      2.00000
    731       9.0310      2.00000
    732       9.0310      2.00000
    733       9.0312      2.00000
    734       9.0312      2.00000
    735       9.0313      2.00000
    736       9.0313      2.00000
    737       9.0524      2.00000
    738       9.0524      2.00000
    739       9.0524      2.00000
    740       9.0524      2.00000
    741       9.0525      2.00000
    742       9.0525      2.00000
    743       9.0525      2.00000
    744       9.0525      2.00000
    745       9.0525      2.00000
    746       9.0525      2.00000
    747       9.0526      2.00000
    748       9.0526      2.00000
    749       9.0526      2.00000
    750       9.0526      2.00000
    751       9.0527      2.00000
    752       9.0527      2.00000
    753       9.1113      2.00002
    754       9.1113      2.00002
    755       9.1113      2.00002
    756       9.1113      2.00002
    757       9.1113      2.00002
    758       9.1113      2.00002
    759       9.1113      2.00002
    760       9.1114      2.00002
    761       9.1512      2.00008
    762       9.1513      2.00008
    763       9.1513      2.00008
    764       9.1513      2.00008
    765       9.3048      2.00392
    766       9.3048      2.00392
    767       9.3049      2.00392
    768       9.3049      2.00392
    769       9.3049      2.00392
    770       9.3049      2.00393
    771       9.3049      2.00393
    772       9.3049      2.00393
    773       9.4272      2.03148
    774       9.4272      2.03149
    775       9.4272      2.03149
    776       9.4272      2.03149
    777       9.4272      2.03151
    778       9.4272      2.03151
    779       9.4272      2.03152
    780       9.4273      2.03152
    781       9.4273      2.03153
    782       9.4273      2.03154
    783       9.4273      2.03154
    784       9.4273      2.03154
    785       9.4274      2.03156
    786       9.4274      2.03156
    787       9.4274      2.03157
    788       9.4274      2.03157
    789       9.5071      2.06580
    790       9.5071      2.06580
    791       9.5071      2.06580
    792       9.5071      2.06580
    793       9.5071      2.06581
    794       9.5071      2.06582
    795       9.5071      2.06582
    796       9.5071      2.06582
    797       9.5072      2.06583
    798       9.5072      2.06583
    799       9.5072      2.06584
    800       9.5072      2.06584
    801       9.5072      2.06585
    802       9.5072      2.06585
    803       9.5072      2.06585
    804       9.5072      2.06586
    805       9.6359      1.93524
    806       9.6360      1.93515
    807       9.6360      1.93508
    808       9.6360      1.93499
    809       9.6361      1.93472
    810       9.6361      1.93465
    811       9.6361      1.93456
    812       9.6362      1.93448
    813       9.6744      1.77280
    814       9.6744      1.77274
    815       9.6745      1.77250
    816       9.6745      1.77244
    817       9.6745      1.77237
    818       9.6745      1.77232
    819       9.6745      1.77214
    820       9.6746      1.77196
    821       9.7260      1.44275
    822       9.7260      1.44272
    823       9.7260      1.44262
    824       9.7260      1.44261
    825       9.7261      1.44246
    826       9.7261      1.44245
    827       9.7261      1.44235
    828       9.7261      1.44232
    829       9.7930      0.89428
    830       9.7930      0.89416
    831       9.7931      0.89377
    832       9.7931      0.89364
    833       9.7931      0.89341
    834       9.7932      0.89325
    835       9.7932      0.89287
    836       9.7932      0.89276
    837       9.8069      0.77873
    838       9.8069      0.77863
    839       9.8069      0.77855
    840       9.8069      0.77852
    841       9.8985      0.16918
    842       9.8985      0.16916
    843       9.8985      0.16909
    844       9.8985      0.16899
    845       9.8986      0.16875
    846       9.8986      0.16874
    847       9.8986      0.16862
    848       9.8986      0.16856
    849       9.9419      0.01645
    850       9.9419      0.01641
    851       9.9419      0.01635
    852       9.9419      0.01630
    853      10.1131     -0.04038
    854      10.1132     -0.04033
    855      10.1134     -0.04023
    856      10.1135     -0.04019
    857      10.1975     -0.01203
    858      10.1975     -0.01203
    859      10.1976     -0.01202
    860      10.1976     -0.01202
    861      10.1976     -0.01201
    862      10.1976     -0.01201
    863      10.1976     -0.01201
    864      10.1977     -0.01200
    865      10.1978     -0.01198
    866      10.1978     -0.01198
    867      10.1978     -0.01197
    868      10.1978     -0.01197
    869      10.1979     -0.01196
    870      10.1979     -0.01196
    871      10.1979     -0.01196
    872      10.1979     -0.01196
    873      10.2996     -0.00150
    874      10.2996     -0.00150
    875      10.2996     -0.00149
    876      10.2996     -0.00149
    877      10.6421     -0.00000
    878      10.6421     -0.00000
    879      10.6421     -0.00000
    880      10.6422     -0.00000
    881      10.6489     -0.00000
    882      10.6489     -0.00000
    883      10.6490     -0.00000
    884      10.6490     -0.00000
    885      10.6490     -0.00000
    886      10.6490     -0.00000
    887      10.6491     -0.00000
    888      10.6491     -0.00000
    889      10.6626     -0.00000
    890      10.6626     -0.00000
    891      10.6626     -0.00000
    892      10.6626     -0.00000
    893      10.6626     -0.00000
    894      10.6626     -0.00000
    895      10.6627     -0.00000
    896      10.6627     -0.00000
    897      11.0546     -0.00000
    898      11.0546     -0.00000
    899      11.0546     -0.00000
    900      11.0546     -0.00000
    901      11.0546     -0.00000
    902      11.0546     -0.00000
    903      11.0546     -0.00000
    904      11.0546     -0.00000
    905      11.1804     -0.00000
    906      11.1804     -0.00000
    907      11.1804     -0.00000
    908      11.1804     -0.00000
    909      11.1805     -0.00000
    910      11.1805     -0.00000
    911      11.1806     -0.00000
    912      11.1806     -0.00000
    913      11.2435     -0.00000
    914      11.2435     -0.00000
    915      11.2436     -0.00000
    916      11.2436     -0.00000
    917      11.2437     -0.00000
    918      11.2437     -0.00000
    919      11.2437     -0.00000
    920      11.2438     -0.00000
    921      11.5543     -0.00000
    922      11.5543     -0.00000
    923      11.5543     -0.00000
    924      11.5543     -0.00000
    925      11.5544     -0.00000
    926      11.5545     -0.00000
    927      11.5545     -0.00000
    928      11.5545     -0.00000
    929      11.6815     -0.00000
    930      11.6815     -0.00000
    931      11.6815     -0.00000
    932      11.6815     -0.00000
    933      11.6817     -0.00000
    934      11.6817     -0.00000
    935      11.6817     -0.00000
    936      11.6817     -0.00000
    937      11.6817     -0.00000
    938      11.6817     -0.00000
    939      11.6818     -0.00000
    940      11.6818     -0.00000
    941      11.6818     -0.00000
    942      11.6818     -0.00000
    943      11.6818     -0.00000
    944      11.6818     -0.00000
    945      11.6819     -0.00000
    946      11.6819     -0.00000
    947      11.6819     -0.00000
    948      11.6819     -0.00000
    949      11.7085     -0.00000
    950      11.7085     -0.00000
    951      11.7086     -0.00000
    952      11.7086     -0.00000
    953      11.7086     -0.00000
    954      11.7087     -0.00000
    955      11.7087     -0.00000
    956      11.7087     -0.00000
    957      11.7087     -0.00000
    958      11.7087     -0.00000
    959      11.7088     -0.00000
    960      11.7088     -0.00000
    961      11.7088     -0.00000
    962      11.7088     -0.00000
    963      11.7089     -0.00000
    964      11.7089     -0.00000
    965      11.8279     -0.00000
    966      11.8279     -0.00000
    967      11.8279     -0.00000
    968      11.8279     -0.00000
    969      11.8280     -0.00000
    970      11.8280     -0.00000
    971      11.8280     -0.00000
    972      11.8280     -0.00000
    973      11.8281     -0.00000
    974      11.8281     -0.00000
    975      11.8281     -0.00000
    976      11.8281     -0.00000
    977      11.8282     -0.00000
    978      11.8282     -0.00000
    979      11.8282     -0.00000
    980      11.8282     -0.00000
    981      11.9643     -0.00000
    982      11.9645     -0.00000
    983      11.9647     -0.00000
    984      11.9648     -0.00000
    985      12.1214     -0.00000
    986      12.1215     -0.00000
    987      12.1215     -0.00000
    988      12.1216     -0.00000
    989      12.1216     -0.00000
    990      12.1216     -0.00000
    991      12.1216     -0.00000
    992      12.1218     -0.00000
    993      12.1218     -0.00000
    994      12.1219     -0.00000
    995      12.1219     -0.00000
    996      12.1220     -0.00000
    997      12.1269     -0.00000
    998      12.1304     -0.00000
    999      12.1369     -0.00000
   1000      12.1427     -0.00000

 k-point     4 :       0.5000    0.5000    0.5000
  band No.  band energies     occupation 
      1     -53.8752      2.00000
      2     -53.8752      2.00000
      3     -53.8751      2.00000
      4     -53.8750      2.00000
      5     -53.8749      2.00000
      6     -53.8748      2.00000
      7     -53.8747      2.00000
      8     -53.8746      2.00000
      9     -53.7856      2.00000
     10     -53.7856      2.00000
     11     -53.7856      2.00000
     12     -53.7856      2.00000
     13     -53.7855      2.00000
     14     -53.7855      2.00000
     15     -53.7855      2.00000
     16     -53.7855      2.00000
     17     -53.7854      2.00000
     18     -53.7854      2.00000
     19     -53.7854      2.00000
     20     -53.7854      2.00000
     21     -53.7853      2.00000
     22     -53.7853      2.00000
     23     -53.7853      2.00000
     24     -53.7852      2.00000
     25     -53.7852      2.00000
     26     -53.7852      2.00000
     27     -53.7852      2.00000
     28     -53.7852      2.00000
     29     -53.7851      2.00000
     30     -53.7851      2.00000
     31     -53.7851      2.00000
     32     -53.7850      2.00000
     33     -53.7412      2.00000
     34     -53.7412      2.00000
     35     -53.7411      2.00000
     36     -53.7411      2.00000
     37     -53.7411      2.00000
     38     -53.7411      2.00000
     39     -53.7411      2.00000
     40     -53.7410      2.00000
     41     -53.7410      2.00000
     42     -53.7410      2.00000
     43     -53.7410      2.00000
     44     -53.7410      2.00000
     45     -53.7410      2.00000
     46     -53.7410      2.00000
     47     -53.7409      2.00000
     48     -53.7409      2.00000
     49     -53.7409      2.00000
     50     -53.7409      2.00000
     51     -53.7409      2.00000
     52     -53.7408      2.00000
     53     -53.7408      2.00000
     54     -53.7408      2.00000
     55     -53.7407      2.00000
     56     -53.7407      2.00000
     57     -53.7157      2.00000
     58     -53.7156      2.00000
     59     -53.7156      2.00000
     60     -53.7156      2.00000
     61     -53.7156      2.00000
     62     -53.7155      2.00000
     63     -53.7155      2.00000
     64     -53.7155      2.00000
     65     -53.6972      2.00000
     66     -53.6971      2.00000
     67     -53.6971      2.00000
     68     -53.6971      2.00000
     69     -53.6970      2.00000
     70     -53.6970      2.00000
     71     -53.6970      2.00000
     72     -53.6970      2.00000
     73     -53.6949      2.00000
     74     -53.6948      2.00000
     75     -53.6948      2.00000
     76     -53.6948      2.00000
     77     -53.6948      2.00000
     78     -53.6947      2.00000
     79     -53.6947      2.00000
     80     -53.6947      2.00000
     81     -53.6947      2.00000
     82     -53.6947      2.00000
     83     -53.6946      2.00000
     84     -53.6946      2.00000
     85     -53.6946      2.00000
     86     -53.6946      2.00000
     87     -53.6946      2.00000
     88     -53.6946      2.00000
     89     -53.6946      2.00000
     90     -53.6945      2.00000
     91     -53.6945      2.00000
     92     -53.6945      2.00000
     93     -53.6945      2.00000
     94     -53.6944      2.00000
     95     -53.6944      2.00000
     96     -53.6944      2.00000
     97     -53.6741      2.00000
     98     -53.6741      2.00000
     99     -53.6740      2.00000
    100     -53.6740      2.00000
    101     -53.6740      2.00000
    102     -53.6739      2.00000
    103     -53.6739      2.00000
    104     -53.6739      2.00000
    105     -53.6739      2.00000
    106     -53.6739      2.00000
    107     -53.6738      2.00000
    108     -53.6738      2.00000
    109     -53.6738      2.00000
    110     -53.6738      2.00000
    111     -53.6737      2.00000
    112     -53.6737      2.00000
    113     -53.6737      2.00000
    114     -53.6737      2.00000
    115     -53.6737      2.00000
    116     -53.6736      2.00000
    117     -53.6736      2.00000
    118     -53.6736      2.00000
    119     -53.6735      2.00000
    120     -53.6735      2.00000
    121     -53.6069      2.00000
    122     -53.6068      2.00000
    123     -53.6068      2.00000
    124     -53.6066      2.00000
    125     -53.6065      2.00000
    126     -53.6065      2.00000
    127     -53.6064      2.00000
    128     -53.6062      2.00000
    129     -28.0638      2.00000
    130     -28.0638      2.00000
    131     -28.0637      2.00000
    132     -28.0637      2.00000
    133     -28.0637      2.00000
    134     -28.0637      2.00000
    135     -28.0637      2.00000
    136     -28.0637      2.00000
    137     -28.0636      2.00000
    138     -28.0636      2.00000
    139     -28.0636      2.00000
    140     -28.0636      2.00000
    141     -28.0636      2.00000
    142     -28.0636      2.00000
    143     -28.0635      2.00000
    144     -28.0635      2.00000
    145     -28.0635      2.00000
    146     -28.0635      2.00000
    147     -28.0635      2.00000
    148     -28.0635      2.00000
    149     -28.0634      2.00000
    150     -28.0634      2.00000
    151     -28.0634      2.00000
    152     -28.0634      2.00000
    153     -27.9975      2.00000
    154     -27.9975      2.00000
    155     -27.9974      2.00000
    156     -27.9974      2.00000
    157     -27.9974      2.00000
    158     -27.9974      2.00000
    159     -27.9974      2.00000
    160     -27.9974      2.00000
    161     -27.9973      2.00000
    162     -27.9973      2.00000
    163     -27.9973      2.00000
    164     -27.9973      2.00000
    165     -27.9973      2.00000
    166     -27.9973      2.00000
    167     -27.9972      2.00000
    168     -27.9972      2.00000
    169     -27.9972      2.00000
    170     -27.9972      2.00000
    171     -27.9972      2.00000
    172     -27.9972      2.00000
    173     -27.9971      2.00000
    174     -27.9971      2.00000
    175     -27.9971      2.00000
    176     -27.9971      2.00000
    177     -27.9353      2.00000
    178     -27.9353      2.00000
    179     -27.9353      2.00000
    180     -27.9353      2.00000
    181     -27.9353      2.00000
    182     -27.9353      2.00000
    183     -27.9353      2.00000
    184     -27.9353      2.00000
    185     -27.9258      2.00000
    186     -27.9258      2.00000
    187     -27.9258      2.00000
    188     -27.9258      2.00000
    189     -27.9257      2.00000
    190     -27.9257      2.00000
    191     -27.9257      2.00000
    192     -27.9257      2.00000
    193     -27.9257      2.00000
    194     -27.9257      2.00000
    195     -27.9256      2.00000
    196     -27.9256      2.00000
    197     -27.9256      2.00000
    198     -27.9256      2.00000
    199     -27.9255      2.00000
    200     -27.9255      2.00000
    201     -27.9255      2.00000
    202     -27.9255      2.00000
    203     -27.9255      2.00000
    204     -27.9255      2.00000
    205     -27.9255      2.00000
    206     -27.9254      2.00000
    207     -27.9254      2.00000
    208     -27.9254      2.00000
    209     -27.8660      2.00000
    210     -27.8660      2.00000
    211     -27.8660      2.00000
    212     -27.8659      2.00000
    213     -27.8659      2.00000
    214     -27.8659      2.00000
    215     -27.8658      2.00000
    216     -27.8658      2.00000
    217     -27.8658      2.00000
    218     -27.8657      2.00000
    219     -27.8657      2.00000
    220     -27.8656      2.00000
    221     -27.8656      2.00000
    222     -27.8656      2.00000
    223     -27.8655      2.00000
    224     -27.8655      2.00000
    225     -27.8235      2.00000
    226     -27.8235      2.00000
    227     -27.8235      2.00000
    228     -27.8234      2.00000
    229     -27.8234      2.00000
    230     -27.8234      2.00000
    231     -27.8234      2.00000
    232     -27.8234      2.00000
    233     -27.8234      2.00000
    234     -27.8234      2.00000
    235     -27.8234      2.00000
    236     -27.8233      2.00000
    237     -27.8233      2.00000
    238     -27.8233      2.00000
    239     -27.8233      2.00000
    240     -27.8233      2.00000
    241     -27.7445      2.00000
    242     -27.7445      2.00000
    243     -27.7444      2.00000
    244     -27.7444      2.00000
    245     -27.7444      2.00000
    246     -27.7444      2.00000
    247     -27.7444      2.00000
    248     -27.7444      2.00000
    249     -27.7443      2.00000
    250     -27.7443      2.00000
    251     -27.7443      2.00000
    252     -27.7443      2.00000
    253     -27.7443      2.00000
    254     -27.7443      2.00000
    255     -27.7442      2.00000
    256     -27.7442      2.00000
    257     -27.7442      2.00000
    258     -27.7442      2.00000
    259     -27.7442      2.00000
    260     -27.7442      2.00000
    261     -27.7441      2.00000
    262     -27.7441      2.00000
    263     -27.7441      2.00000
    264     -27.7441      2.00000
    265     -27.6833      2.00000
    266     -27.6833      2.00000
    267     -27.6833      2.00000
    268     -27.6832      2.00000
    269     -27.6832      2.00000
    270     -27.6831      2.00000
    271     -27.6831      2.00000
    272     -27.6831      2.00000
    273     -27.6781      2.00000
    274     -27.6781      2.00000
    275     -27.6781      2.00000
    276     -27.6781      2.00000
    277     -27.6781      2.00000
    278     -27.6781      2.00000
    279     -27.6781      2.00000
    280     -27.6781      2.00000
    281     -27.6780      2.00000
    282     -27.6780      2.00000
    283     -27.6780      2.00000
    284     -27.6780      2.00000
    285     -27.6780      2.00000
    286     -27.6780      2.00000
    287     -27.6780      2.00000
    288     -27.6780      2.00000
    289     -27.6780      2.00000
    290     -27.6780      2.00000
    291     -27.6780      2.00000
    292     -27.6780      2.00000
    293     -27.6780      2.00000
    294     -27.6780      2.00000
    295     -27.6779      2.00000
    296     -27.6779      2.00000
    297     -27.6111      2.00000
    298     -27.6111      2.00000
    299     -27.6111      2.00000
    300     -27.6111      2.00000
    301     -27.6111      2.00000
    302     -27.6110      2.00000
    303     -27.6110      2.00000
    304     -27.6110      2.00000
    305     -27.6110      2.00000
    306     -27.6110      2.00000
    307     -27.6110      2.00000
    308     -27.6110      2.00000
    309     -27.6110      2.00000
    310     -27.6109      2.00000
    311     -27.6109      2.00000
    312     -27.6109      2.00000
    313     -27.6109      2.00000
    314     -27.6109      2.00000
    315     -27.6109      2.00000
    316     -27.6109      2.00000
    317     -27.6109      2.00000
    318     -27.6108      2.00000
    319     -27.6108      2.00000
    320     -27.6108      2.00000
    321     -27.4899      2.00000
    322     -27.4899      2.00000
    323     -27.4899      2.00000
    324     -27.4899      2.00000
    325     -27.4899      2.00000
    326     -27.4899      2.00000
    327     -27.4899      2.00000
    328     -27.4899      2.00000
    329     -27.4899      2.00000
    330     -27.4899      2.00000
    331     -27.4898      2.00000
    332     -27.4898      2.00000
    333     -27.4898      2.00000
    334     -27.4898      2.00000
    335     -27.4898      2.00000
    336     -27.4898      2.00000
    337     -27.4817      2.00000
    338     -27.4816      2.00000
    339     -27.4816      2.00000
    340     -27.4816      2.00000
    341     -27.4816      2.00000
    342     -27.4816      2.00000
    343     -27.4816      2.00000
    344     -27.4815      2.00000
    345     -27.4815      2.00000
    346     -27.4815      2.00000
    347     -27.4815      2.00000
    348     -27.4815      2.00000
    349     -27.4815      2.00000
    350     -27.4814      2.00000
    351     -27.4814      2.00000
    352     -27.4814      2.00000
    353     -27.4814      2.00000
    354     -27.4814      2.00000
    355     -27.4814      2.00000
    356     -27.4814      2.00000
    357     -27.4813      2.00000
    358     -27.4813      2.00000
    359     -27.4813      2.00000
    360     -27.4813      2.00000
    361     -27.4793      2.00000
    362     -27.4793      2.00000
    363     -27.4792      2.00000
    364     -27.4792      2.00000
    365     -27.4792      2.00000
    366     -27.4792      2.00000
    367     -27.4792      2.00000
    368     -27.4792      2.00000
    369     -27.4792      2.00000
    370     -27.4792      2.00000
    371     -27.4791      2.00000
    372     -27.4791      2.00000
    373     -27.4791      2.00000
    374     -27.4791      2.00000
    375     -27.4791      2.00000
    376     -27.4791      2.00000
    377     -27.4791      2.00000
    378     -27.4791      2.00000
    379     -27.4791      2.00000
    380     -27.4791      2.00000
    381     -27.4790      2.00000
    382     -27.4790      2.00000
    383     -27.4790      2.00000
    384     -27.4790      2.00000
    385     -27.4394      2.00000
    386     -27.4393      2.00000
    387     -27.4393      2.00000
    388     -27.4393      2.00000
    389     -27.4393      2.00000
    390     -27.4392      2.00000
    391     -27.4392      2.00000
    392     -27.4392      2.00000
    393     -27.4224      2.00000
    394     -27.4224      2.00000
    395     -27.4224      2.00000
    396     -27.4224      2.00000
    397     -27.4224      2.00000
    398     -27.4224      2.00000
    399     -27.4224      2.00000
    400     -27.4224      2.00000
    401     -27.4224      2.00000
    402     -27.4223      2.00000
    403     -27.4223      2.00000
    404     -27.4223      2.00000
    405     -27.4223      2.00000
    406     -27.4223      2.00000
    407     -27.4223      2.00000
    408     -27.4223      2.00000
    409     -27.4223      2.00000
    410     -27.4223      2.00000
    411     -27.4223      2.00000
    412     -27.4223      2.00000
    413     -27.4223      2.00000
    414     -27.4223      2.00000
    415     -27.4222      2.00000
    416     -27.4222      2.00000
    417     -27.3739      2.00000
    418     -27.3739      2.00000
    419     -27.3738      2.00000
    420     -27.3738      2.00000
    421     -27.3738      2.00000
    422     -27.3738      2.00000
    423     -27.3738      2.00000
    424     -27.3738      2.00000
    425     -27.3178      2.00000
    426     -27.3178      2.00000
    427     -27.3178      2.00000
    428     -27.3178      2.00000
    429     -27.3178      2.00000
    430     -27.3178      2.00000
    431     -27.3177      2.00000
    432     -27.3177      2.00000
    433     -27.3177      2.00000
    434     -27.3177      2.00000
    435     -27.3177      2.00000
    436     -27.3177      2.00000
    437     -27.3176      2.00000
    438     -27.3176      2.00000
    439     -27.3176      2.00000
    440     -27.3176      2.00000
    441     -27.3176      2.00000
    442     -27.3176      2.00000
    443     -27.3176      2.00000
    444     -27.3176      2.00000
    445     -27.3175      2.00000
    446     -27.3175      2.00000
    447     -27.3175      2.00000
    448     -27.3175      2.00000
    449     -27.3050      2.00000
    450     -27.3049      2.00000
    451     -27.3049      2.00000
    452     -27.3049      2.00000
    453     -27.3049      2.00000
    454     -27.3049      2.00000
    455     -27.3049      2.00000
    456     -27.3049      2.00000
    457     -27.3049      2.00000
    458     -27.3049      2.00000
    459     -27.3048      2.00000
    460     -27.3048      2.00000
    461     -27.3048      2.00000
    462     -27.3048      2.00000
    463     -27.3048      2.00000
    464     -27.3048      2.00000
    465     -27.3048      2.00000
    466     -27.3048      2.00000
    467     -27.3048      2.00000
    468     -27.3048      2.00000
    469     -27.3048      2.00000
    470     -27.3047      2.00000
    471     -27.3047      2.00000
    472     -27.3047      2.00000
    473     -27.2608      2.00000
    474     -27.2608      2.00000
    475     -27.2607      2.00000
    476     -27.2607      2.00000
    477     -27.2607      2.00000
    478     -27.2607      2.00000
    479     -27.2607      2.00000
    480     -27.2607      2.00000
    481     -27.2606      2.00000
    482     -27.2606      2.00000
    483     -27.2606      2.00000
    484     -27.2606      2.00000
    485     -27.2606      2.00000
    486     -27.2606      2.00000
    487     -27.2605      2.00000
    488     -27.2605      2.00000
    489     -27.2605      2.00000
    490     -27.2605      2.00000
    491     -27.2605      2.00000
    492     -27.2605      2.00000
    493     -27.2604      2.00000
    494     -27.2604      2.00000
    495     -27.2604      2.00000
    496     -27.2604      2.00000
    497     -27.2484      2.00000
    498     -27.2484      2.00000
    499     -27.2483      2.00000
    500     -27.2483      2.00000
    501     -27.2483      2.00000
    502     -27.2482      2.00000
    503     -27.2482      2.00000
    504     -27.2482      2.00000
    505     -27.2481      2.00000
    506     -27.2481      2.00000
    507     -27.2481      2.00000
    508     -27.2480      2.00000
    509     -27.2480      2.00000
    510     -27.2480      2.00000
    511     -27.2479      2.00000
    512     -27.2479      2.00000
    513       4.0865      2.00000
    514       4.0865      2.00000
    515       4.0866      2.00000
    516       4.0867      2.00000
    517       4.0869      2.00000
    518       4.0869      2.00000
    519       4.0870      2.00000
    520       4.0872      2.00000
    521       6.0196      2.00000
    522       6.0196      2.00000
    523       6.0197      2.00000
    524       6.0197      2.00000
    525       6.0197      2.00000
    526       6.0198      2.00000
    527       6.0198      2.00000
    528       6.0198      2.00000
    529       6.0198      2.00000
    530       6.0198      2.00000
    531       6.0199      2.00000
    532       6.0199      2.00000
    533       6.0199      2.00000
    534       6.0199      2.00000
    535       6.0200      2.00000
    536       6.0200      2.00000
    537       6.0200      2.00000
    538       6.0200      2.00000
    539       6.0201      2.00000
    540       6.0201      2.00000
    541       6.0201      2.00000
    542       6.0202      2.00000
    543       6.0202      2.00000
    544       6.0202      2.00000
    545       6.7570      2.00000
    546       6.7570      2.00000
    547       6.7571      2.00000
    548       6.7571      2.00000
    549       6.7571      2.00000
    550       6.7571      2.00000
    551       6.7572      2.00000
    552       6.7572      2.00000
    553       6.7572      2.00000
    554       6.7572      2.00000
    555       6.7572      2.00000
    556       6.7572      2.00000
    557       6.7573      2.00000
    558       6.7573      2.00000
    559       6.7573      2.00000
    560       6.7573      2.00000
    561       6.7573      2.00000
    562       6.7573      2.00000
    563       6.7574      2.00000
    564       6.7574      2.00000
    565       6.7574      2.00000
    566       6.7574      2.00000
    567       6.7575      2.00000
    568       6.7575      2.00000
    569       7.2508      2.00000
    570       7.2508      2.00000
    571       7.2509      2.00000
    572       7.2509      2.00000
    573       7.2509      2.00000
    574       7.2509      2.00000
    575       7.2509      2.00000
    576       7.2509      2.00000
    577       7.2510      2.00000
    578       7.2510      2.00000
    579       7.2510      2.00000
    580       7.2510      2.00000
    581       7.2510      2.00000
    582       7.2510      2.00000
    583       7.2511      2.00000
    584       7.2511      2.00000
    585       7.2511      2.00000
    586       7.2511      2.00000
    587       7.2511      2.00000
    588       7.2511      2.00000
    589       7.2512      2.00000
    590       7.2512      2.00000
    591       7.2512      2.00000
    592       7.2512      2.00000
    593       7.2637      2.00000
    594       7.2637      2.00000
    595       7.2638      2.00000
    596       7.2638      2.00000
    597       7.2638      2.00000
    598       7.2638      2.00000
    599       7.2640      2.00000
    600       7.2640      2.00000
    601       7.2641      2.00000
    602       7.2641      2.00000
    603       7.2642      2.00000
    604       7.2642      2.00000
    605       7.2642      2.00000
    606       7.2642      2.00000
    607       7.2644      2.00000
    608       7.2644      2.00000
    609       7.7215      2.00000
    610       7.7215      2.00000
    611       7.7215      2.00000
    612       7.7215      2.00000
    613       7.7216      2.00000
    614       7.7216      2.00000
    615       7.7216      2.00000
    616       7.7217      2.00000
    617       7.7217      2.00000
    618       7.7217      2.00000
    619       7.7217      2.00000
    620       7.7217      2.00000
    621       7.7217      2.00000
    622       7.7217      2.00000
    623       7.7218      2.00000
    624       7.7218      2.00000
    625       7.7219      2.00000
    626       7.7219      2.00000
    627       7.7219      2.00000
    628       7.7219      2.00000
    629       7.7220      2.00000
    630       7.7220      2.00000
    631       7.7220      2.00000
    632       7.7220      2.00000
    633       8.0810      2.00000
    634       8.0810      2.00000
    635       8.0810      2.00000
    636       8.0810      2.00000
    637       8.0810      2.00000
    638       8.0811      2.00000
    639       8.0811      2.00000
    640       8.0811      2.00000
    641       8.2567      2.00000
    642       8.2567      2.00000
    643       8.2568      2.00000
    644       8.2568      2.00000
    645       8.2568      2.00000
    646       8.2569      2.00000
    647       8.2569      2.00000
    648       8.2569      2.00000
    649       8.2569      2.00000
    650       8.2569      2.00000
    651       8.2569      2.00000
    652       8.2570      2.00000
    653       8.2570      2.00000
    654       8.2570      2.00000
    655       8.2571      2.00000
    656       8.2571      2.00000
    657       8.2571      2.00000
    658       8.2571      2.00000
    659       8.2571      2.00000
    660       8.2571      2.00000
    661       8.2572      2.00000
    662       8.2572      2.00000
    663       8.2572      2.00000
    664       8.2572      2.00000
    665       8.4183      2.00000
    666       8.4183      2.00000
    667       8.4183      2.00000
    668       8.4183      2.00000
    669       8.4183      2.00000
    670       8.4183      2.00000
    671       8.4183      2.00000
    672       8.4183      2.00000
    673       8.5294      2.00000
    674       8.5294      2.00000
    675       8.5294      2.00000
    676       8.5294      2.00000
    677       8.5294      2.00000
    678       8.5294      2.00000
    679       8.5295      2.00000
    680       8.5295      2.00000
    681       8.5295      2.00000
    682       8.5295      2.00000
    683       8.5295      2.00000
    684       8.5295      2.00000
    685       8.5295      2.00000
    686       8.5295      2.00000
    687       8.5295      2.00000
    688       8.5295      2.00000
    689       8.7750      2.00000
    690       8.7751      2.00000
    691       8.7751      2.00000
    692       8.7751      2.00000
    693       8.7751      2.00000
    694       8.7751      2.00000
    695       8.7752      2.00000
    696       8.7752      2.00000
    697       8.7752      2.00000
    698       8.7752      2.00000
    699       8.7753      2.00000
    700       8.7753      2.00000
    701       8.7753      2.00000
    702       8.7753      2.00000
    703       8.7753      2.00000
    704       8.7753      2.00000
    705       8.7753      2.00000
    706       8.7753      2.00000
    707       8.7754      2.00000
    708       8.7754      2.00000
    709       8.7754      2.00000
    710       8.7754      2.00000
    711       8.7755      2.00000
    712       8.7755      2.00000
    713       8.8920      2.00000
    714       8.8920      2.00000
    715       8.8920      2.00000
    716       8.8920      2.00000
    717       8.8920      2.00000
    718       8.8920      2.00000
    719       8.8920      2.00000
    720       8.8920      2.00000
    721       8.8920      2.00000
    722       8.8920      2.00000
    723       8.8921      2.00000
    724       8.8921      2.00000
    725       8.8921      2.00000
    726       8.8921      2.00000
    727       8.8921      2.00000
    728       8.8921      2.00000
    729       8.9672      2.00000
    730       8.9672      2.00000
    731       8.9673      2.00000
    732       8.9673      2.00000
    733       8.9673      2.00000
    734       8.9673      2.00000
    735       8.9673      2.00000
    736       8.9673      2.00000
    737       8.9673      2.00000
    738       8.9674      2.00000
    739       8.9674      2.00000
    740       8.9674      2.00000
    741       8.9674      2.00000
    742       8.9674      2.00000
    743       8.9674      2.00000
    744       8.9674      2.00000
    745       8.9675      2.00000
    746       8.9675      2.00000
    747       8.9675      2.00000
    748       8.9675      2.00000
    749       8.9675      2.00000
    750       8.9675      2.00000
    751       8.9676      2.00000
    752       8.9676      2.00000
    753       9.3797      2.01577
    754       9.3797      2.01578
    755       9.3797      2.01578
    756       9.3797      2.01578
    757       9.3797      2.01579
    758       9.3797      2.01579
    759       9.3797      2.01579
    760       9.3798      2.01579
    761       9.3798      2.01580
    762       9.3798      2.01580
    763       9.3798      2.01580
    764       9.3798      2.01581
    765       9.3798      2.01581
    766       9.3798      2.01581
    767       9.3798      2.01582
    768       9.3798      2.01582
    769       9.3799      2.01582
    770       9.3799      2.01582
    771       9.3799      2.01582
    772       9.3799      2.01582
    773       9.3799      2.01583
    774       9.3799      2.01583
    775       9.3799      2.01584
    776       9.3799      2.01584
    777       9.6603      1.84109
    778       9.6603      1.84104
    779       9.6603      1.84102
    780       9.6603      1.84093
    781       9.6603      1.84086
    782       9.6603      1.84079
    783       9.6604      1.84077
    784       9.6604      1.84074
    785       9.6604      1.84070
    786       9.6604      1.84068
    787       9.6604      1.84060
    788       9.6604      1.84059
    789       9.6604      1.84054
    790       9.6604      1.84050
    791       9.6604      1.84045
    792       9.6604      1.84039
    793       9.6604      1.84038
    794       9.6604      1.84035
    795       9.6605      1.84029
    796       9.6605      1.84026
    797       9.6605      1.84020
    798       9.6605      1.84015
    799       9.6605      1.84011
    800       9.6605      1.84005
    801       9.6677      1.80651
    802       9.6677      1.80644
    803       9.6677      1.80638
    804       9.6677      1.80631
    805       9.6678      1.80604
    806       9.6678      1.80601
    807       9.6678      1.80593
    808       9.6678      1.80592
    809       9.6678      1.80587
    810       9.6678      1.80584
    811       9.6678      1.80579
    812       9.6679      1.80567
    813       9.6679      1.80551
    814       9.6679      1.80545
    815       9.6679      1.80538
    816       9.6679      1.80534
    817       9.6679      1.80529
    818       9.6680      1.80527
    819       9.6680      1.80522
    820       9.6680      1.80516
    821       9.6680      1.80487
    822       9.6680      1.80485
    823       9.6681      1.80476
    824       9.6681      1.80468
    825       9.8668      0.33966
    826       9.8668      0.33956
    827       9.8668      0.33942
    828       9.8669      0.33933
    829       9.8669      0.33919
    830       9.8669      0.33895
    831       9.8669      0.33885
    832       9.8670      0.33843
    833       9.8670      0.33829
    834       9.8671      0.33800
    835       9.8671      0.33774
    836       9.8672      0.33756
    837       9.8672      0.33743
    838       9.8672      0.33735
    839       9.8672      0.33706
    840       9.8672      0.33700
    841       9.8678      0.33375
    842       9.8678      0.33369
    843       9.8678      0.33352
    844       9.8678      0.33345
    845       9.8679      0.33328
    846       9.8679      0.33324
    847       9.8679      0.33320
    848       9.8679      0.33316
    849       9.8679      0.33308
    850       9.8679      0.33301
    851       9.8679      0.33292
    852       9.8679      0.33283
    853       9.8679      0.33274
    854       9.8679      0.33269
    855       9.8680      0.33263
    856       9.8680      0.33254
    857       9.8680      0.33246
    858       9.8680      0.33242
    859       9.8680      0.33240
    860       9.8680      0.33236
    861       9.8680      0.33214
    862       9.8680      0.33213
    863       9.8681      0.33193
    864       9.8681      0.33187
    865      10.1363     -0.03053
    866      10.1363     -0.03053
    867      10.1363     -0.03052
    868      10.1363     -0.03052
    869      10.1363     -0.03051
    870      10.1363     -0.03051
    871      10.1363     -0.03051
    872      10.1363     -0.03050
    873      10.1363     -0.03050
    874      10.1363     -0.03050
    875      10.1363     -0.03050
    876      10.1363     -0.03049
    877      10.1364     -0.03049
    878      10.1364     -0.03049
    879      10.1364     -0.03048
    880      10.1364     -0.03048
    881      10.1364     -0.03048
    882      10.1364     -0.03047
    883      10.1364     -0.03047
    884      10.1364     -0.03047
    885      10.1364     -0.03046
    886      10.1364     -0.03046
    887      10.1364     -0.03046
    888      10.1364     -0.03045
    889      10.9821     -0.00000
    890      10.9822     -0.00000
    891      10.9822     -0.00000
    892      10.9822     -0.00000
    893      10.9823     -0.00000
    894      10.9823     -0.00000
    895      10.9823     -0.00000
    896      10.9823     -0.00000
    897      11.2913     -0.00000
    898      11.2913     -0.00000
    899      11.2913     -0.00000
    900      11.2913     -0.00000
    901      11.2914     -0.00000
    902      11.2914     -0.00000
    903      11.2914     -0.00000
    904      11.2914     -0.00000
    905      11.2914     -0.00000
    906      11.2914     -0.00000
    907      11.2915     -0.00000
    908      11.2915     -0.00000
    909      11.2915     -0.00000
    910      11.2915     -0.00000
    911      11.2915     -0.00000
    912      11.2915     -0.00000
    913      11.2916     -0.00000
    914      11.2916     -0.00000
    915      11.2916     -0.00000
    916      11.2916     -0.00000
    917      11.2916     -0.00000
    918      11.2916     -0.00000
    919      11.2916     -0.00000
    920      11.2917     -0.00000
    921      11.5456     -0.00000
    922      11.5456     -0.00000
    923      11.5456     -0.00000
    924      11.5456     -0.00000
    925      11.5456     -0.00000
    926      11.5456     -0.00000
    927      11.5456     -0.00000
    928      11.5456     -0.00000
    929      11.5456     -0.00000
    930      11.5456     -0.00000
    931      11.5456     -0.00000
    932      11.5456     -0.00000
    933      11.5456     -0.00000
    934      11.5456     -0.00000
    935      11.5457     -0.00000
    936      11.5457     -0.00000
    937      11.5457     -0.00000
    938      11.5457     -0.00000
    939      11.5457     -0.00000
    940      11.5457     -0.00000
    941      11.5457     -0.00000
    942      11.5457     -0.00000
    943      11.5457     -0.00000
    944      11.5457     -0.00000
    945      11.5761     -0.00000
    946      11.5761     -0.00000
    947      11.5761     -0.00000
    948      11.5762     -0.00000
    949      11.5762     -0.00000
    950      11.5762     -0.00000
    951      11.5762     -0.00000
    952      11.5762     -0.00000
    953      11.8758     -0.00000
    954      11.8758     -0.00000
    955      11.8759     -0.00000
    956      11.8759     -0.00000
    957      11.8759     -0.00000
    958      11.8759     -0.00000
    959      11.8759     -0.00000
    960      11.8759     -0.00000
    961      11.8760     -0.00000
    962      11.8760     -0.00000
    963      11.8760     -0.00000
    964      11.8760     -0.00000
    965      11.8760     -0.00000
    966      11.8760     -0.00000
    967      11.8761     -0.00000
    968      11.8761     -0.00000
    969      11.8761     -0.00000
    970      11.8761     -0.00000
    971      11.8761     -0.00000
    972      11.8761     -0.00000
    973      11.8761     -0.00000
    974      11.8762     -0.00000
    975      11.8762     -0.00000
    976      11.8762     -0.00000
    977      12.0874     -0.00000
    978      12.0875     -0.00000
    979      12.0875     -0.00000
    980      12.0875     -0.00000
    981      12.0876     -0.00000
    982      12.0876     -0.00000
    983      12.0877     -0.00000
    984      12.0877     -0.00000
    985      12.0878     -0.00000
    986      12.0879     -0.00000
    987      12.0879     -0.00000
    988      12.0880     -0.00000
    989      12.0882     -0.00000
    990      12.0883     -0.00000
    991      12.0887     -0.00000
    992      12.0890     -0.00000
    993      12.1706     -0.00000
    994      12.1710     -0.00000
    995      12.1714     -0.00000
    996      12.1717     -0.00000
    997      12.1722     -0.00000
    998      12.1735     -0.00000
    999      12.1738     -0.00000
   1000      12.1748     -0.00000


--------------------------------------------------------------------------------------------------------


 soft charge-density along one line, spin component            1
         0         1         2         3         4         5         6         7         8         9
 total charge-density along one line
 
 pseudopotential strength for first ion, spin component:            1
-18.201  10.652  -0.000  -0.000  -0.000   0.000   0.000   0.000
 10.652   3.232   0.000   0.000   0.000  -0.000  -0.000  -0.000
 -0.000   0.000 -27.386  -0.000  -0.000   7.451   0.000   0.000
 -0.000   0.000  -0.000 -27.386   0.000   0.000   7.451  -0.000
 -0.000   0.000  -0.000   0.000 -27.386   0.000  -0.000   7.451
  0.000  -0.000   7.451   0.000   0.000   5.824  -0.000  -0.000
  0.000  -0.000   0.000   7.451  -0.000  -0.000   5.824   0.000
  0.000  -0.000   0.000  -0.000   7.451  -0.000   0.000   5.824
 -0.000   0.000  -0.000  -0.000  -0.000   0.000   0.000   0.000
 -0.000   0.000   0.000  -0.000  -0.000  -0.000   0.000   0.000
  0.000  -0.000   0.000   0.000   0.000  -0.000  -0.000  -0.000
  0.000  -0.000  -0.000  -0.000  -0.000   0.000   0.000   0.000
 -0.000   0.000   0.000  -0.000  -0.000  -0.000   0.000   0.000
 -0.000   0.000  -0.000  -0.000  -0.000   0.000   0.000   0.000
 -0.000   0.000   0.000  -0.000  -0.000   0.000   0.000   0.000
  0.000  -0.000   0.000   0.000   0.000  -0.000  -0.000  -0.000
  0.000  -0.000  -0.000  -0.000  -0.000   0.000   0.000   0.000
 -0.000   0.000   0.000  -0.000  -0.000  -0.000   0.000   0.000
 total augmentation occupancy for first ion, spin component:            1
  1.995  -0.051  -0.000  -0.000   0.000  -0.000   0.000   0.000   0.000   0.000   0.000  -0.000   0.000  -0.000  -0.000  -0.000
 -0.051   1.717  -0.000   0.000   0.000   0.000  -0.000  -0.000  -0.000  -0.000  -0.000   0.000  -0.000   0.000   0.000   0.000
 -0.000  -0.000   1.986  -0.000  -0.000  -0.045   0.000   0.000   0.000  -0.000  -0.000   0.000  -0.000   0.000   0.000  -0.000
 -0.000   0.000  -0.000   1.986   0.000   0.000  -0.045  -0.000  -0.000  -0.000   0.000   0.000  -0.000   0.000   0.000   0.000
  0.000   0.000  -0.000   0.000   1.986   0.000  -0.000  -0.045  -0.000  -0.000   0.000  -0.000   0.000  -0.000   0.000   0.000
 -0.000   0.000  -0.045   0.000   0.000   0.125  -0.000  -0.000  -0.000   0.000   0.000   0.000  -0.000  -0.000   0.000  -0.000
  0.000  -0.000   0.000  -0.045  -0.000  -0.000   0.125   0.000  -0.000   0.000   0.000  -0.000  -0.000  -0.000  -0.000  -0.000
  0.000  -0.000   0.000  -0.000  -0.045  -0.000   0.000   0.125   0.000   0.000  -0.000   0.000  -0.000   0.000   0.000   0.000
  0.000  -0.000  -0.000  -0.000  -0.000  -0.000  -0.000   0.000   4.020   0.000   0.000  -0.000   0.000  -2.053  -0.000  -0.000
  0.000  -0.000  -0.000  -0.000  -0.000   0.000   0.000   0.000   0.000   4.020  -0.000  -0.000   0.000  -0.000  -2.053   0.000
  0.000  -0.000   0.000   0.000  -0.000  -0.000  -0.000   0.000   0.000  -0.000   4.214   0.000   0.000  -0.000   0.000  -2.369
 -0.000   0.000   0.000   0.000   0.000  -0.000  -0.000  -0.000  -0.000  -0.000   0.000   4.020   0.000   0.000   0.000  -0.000
  0.000  -0.000  -0.000   0.000  -0.000  -0.000  -0.000   0.000   0.000   0.000   0.000   0.000   4.214  -0.000  -0.000  -0.000
 -0.000   0.000   0.000  -0.000   0.000   0.000   0.000   0.000  -2.053  -0.000  -0.000   0.000  -0.000   1.098   0.000   0.000
 -0.000   0.000   0.000   0.000   0.000   0.000  -0.000   0.000  -0.000  -2.053   0.000   0.000  -0.000   0.000   1.098  -0.000
 -0.000   0.000   0.000   0.000   0.000  -0.000  -0.000   0.000  -0.000   0.000  -2.369  -0.000  -0.000   0.000  -0.000   1.359
  0.000  -0.000   0.000   0.000  -0.000  -0.000   0.000   0.000   0.000   0.000  -0.000  -2.053  -0.000  -0.000  -0.000   0.000
 -0.000   0.000   0.000   0.000   0.000  -0.000  -0.000   0.000  -0.000  -0.000  -0.000  -0.000  -2.369   0.000   0.000   0.000


------------------------ aborting loop because EDIFF is reached ----------------------------------------


    CHARGE:  cpu time      0.4811: real time      0.3300
    FORLOC:  cpu time      0.0194: real time      0.0012
    FORNL :  cpu time      0.9979: real time      0.7811
    STRESS:  cpu time      2.5331: real time      1.9699
    FORCOR:  cpu time      0.0358: real time      0.0070
    FORHAR:  cpu time      0.0020: real time      0.0019
    MIXING:  cpu time      0.0398: real time      0.0036
    OFIELD:  cpu time      0.0002: real time      0.0000

  FORCE on cell =-STRESS in cart. coord.  units (eV):
  Direction    XX          YY          ZZ          XY          YZ          ZX
  --------------------------------------------------------------------------------------
  Alpha Z 11674.20431 11674.20431 11674.20431
  Ewald  -63140.85960-63140.86024-63140.85936     0.00033     0.00057    -0.00058
  Hartree 16706.35029 16706.35133 16706.34988     0.00002     0.00003    -0.00004
  E(xc)   -9294.11489 -9294.11486 -9294.11491    -0.00000    -0.00000     0.00000
  Local   15125.56354 15125.56060 15125.56468    -0.00013    -0.00022     0.00023
  n-local -4725.49110 -4721.91155 -4720.35848    -0.00002    -0.00004     0.00004
  augment  9434.67567  9434.67652  9434.67534    -0.00007    -0.00012     0.00012
  Kinetic 24215.64364 24217.86129 24214.66471     0.00004     0.00007    -0.00007
  Fock        0.00000     0.00000     0.00000     0.00000     0.00000     0.00000
  -------------------------------------------------------------------------------------
  Total      -0.71152    -0.71152    -0.71152     0.00000     0.00000    -0.00000
  in kB      -0.66482    -0.66482    -0.66482     0.00000     0.00000    -0.00000
  external pressure =       -0.66 kB  Pullay stress =        0.00 kB


 VOLUME and BASIS-vectors are now :
 -----------------------------------------------------------------------------
  energy-cutoff  :      350.00
  volume of cell :     1714.72
      direct lattice vectors                 reciprocal lattice vectors
    11.969191176 -0.000000046  0.000000088     0.083547834  0.000000000 -0.000000001
    -0.000000056 11.969191909 -0.000000096     0.000000000  0.083547829  0.000000001
     0.000000093 -0.000000082 11.969190890    -0.000000001  0.000000001  0.083547836

  length of vectors
    11.969191176 11.969191909 11.969190890     0.083547834  0.083547829  0.083547836


 FORCES acting on ions
    electron-ion (+dipol)            ewald-force                    non-local-force                 convergence-correction
 -----------------------------------------------------------------------------------------------
   -.254E-02 -.304E-02 -.122E-02   -.788E-04 -.406E-02 0.127E-02   -.157E-19 -.376E-20 -.624E-20   -.115E-05 0.116E-04 -.445E-05
   -.199E-02 0.743E-03 -.212E-02   0.199E-02 0.964E-03 -.234E-03   -.243E-20 -.120E-19 0.249E-20   -.369E-05 0.985E-06 0.616E-06
   -.104E-03 0.309E-02 0.281E-02   -.165E-02 0.375E-02 0.158E-02   -.551E-20 -.858E-20 0.519E-20   0.128E-05 -.123E-05 -.642E-06
   -.170E-02 -.281E-02 -.168E-02   -.357E-02 -.413E-03 0.496E-03   0.287E-20 0.349E-20 -.768E-20   -.153E-05 0.726E-05 0.270E-05
   0.441E-02 0.235E-03 0.203E-02   0.189E-02 0.412E-02 0.186E-02   -.132E-19 -.123E-19 0.768E-20   0.339E-05 -.906E-05 0.271E-05
   -.538E-03 -.270E-02 -.102E-03   -.113E-02 -.333E-02 -.118E-02   -.144E-19 0.220E-19 0.307E-20   -.167E-05 0.745E-05 0.348E-05
   0.108E-02 0.192E-02 0.202E-02   0.112E-03 0.300E-02 0.395E-02   0.925E-20 -.711E-20 0.662E-20   0.349E-05 -.896E-05 -.263E-05
   0.123E-02 0.420E-02 -.236E-03   -.102E-02 0.245E-02 -.331E-03   -.225E-19 -.123E-19 -.133E-19   0.360E-05 0.909E-06 -.434E-05
   0.241E-02 0.476E-03 -.219E-02   0.252E-02 0.391E-02 -.405E-02   -.868E-20 0.138E-19 0.108E-19   -.355E-05 -.116E-04 0.461E-05
   -.225E-02 0.265E-02 0.903E-03   -.295E-02 -.960E-03 0.255E-02   -.840E-20 0.221E-19 -.725E-20   -.160E-05 -.727E-05 0.269E-05
   0.129E-02 -.345E-02 0.708E-03   0.157E-02 -.405E-02 -.802E-03   -.953E-20 -.564E-20 -.291E-20   -.355E-05 0.120E-05 0.440E-05
   -.355E-02 0.227E-02 -.950E-03   -.437E-02 -.396E-02 0.261E-02   -.363E-20 -.144E-19 -.582E-20   0.165E-05 0.769E-05 -.274E-05
   -.169E-02 -.316E-03 0.186E-02   -.313E-02 -.168E-03 0.181E-02   0.100E-19 0.104E-19 0.987E-20   0.152E-05 -.733E-05 0.277E-05
   -.273E-02 -.106E-02 -.481E-03   -.371E-02 0.133E-02 -.118E-02   0.120E-19 -.371E-20 -.402E-20   0.156E-05 -.748E-05 -.374E-05
   0.278E-02 0.410E-03 0.566E-02   0.199E-02 0.228E-02 0.511E-02   -.268E-21 -.810E-20 0.635E-20   -.345E-05 -.115E-04 -.734E-06
   -.279E-02 0.119E-02 -.417E-02   -.198E-02 0.518E-02 -.286E-02   0.140E-20 0.625E-20 0.110E-19   0.123E-05 -.118E-04 0.710E-06
   0.131E-03 0.138E-02 0.407E-03   0.130E-02 0.104E-02 0.496E-03   0.142E-19 0.426E-20 -.773E-20   -.128E-05 -.114E-05 -.691E-06
   0.111E-02 0.111E-02 0.402E-03   0.268E-02 -.118E-02 0.991E-03   0.703E-20 -.150E-19 -.397E-20   -.325E-05 0.901E-05 0.276E-05
   0.158E-02 -.194E-02 0.965E-04   0.398E-03 -.360E-02 -.209E-02   0.817E-20 0.241E-20 -.413E-20   -.123E-05 0.115E-04 0.444E-05
   0.232E-03 -.240E-02 -.467E-02   0.178E-02 -.439E-02 -.163E-02   -.517E-20 0.566E-20 -.131E-19   0.336E-05 0.116E-04 -.483E-06
   -.139E-02 0.453E-02 -.991E-03   -.323E-02 0.658E-02 -.184E-02   -.809E-20 0.789E-20 0.197E-20   0.372E-05 -.117E-04 0.723E-06
   0.225E-02 0.788E-03 -.356E-02   0.546E-02 0.150E-02 -.611E-02   -.870E-21 -.413E-20 0.219E-19   -.342E-05 -.750E-05 0.371E-05
   -.993E-04 -.161E-02 0.207E-03   0.272E-03 -.137E-02 0.211E-02   0.168E-19 -.214E-19 -.122E-19   -.351E-05 -.101E-05 -.458E-05
   -.397E-03 -.830E-03 0.411E-03   0.997E-03 -.533E-02 0.202E-02   -.157E-19 -.188E-19 -.211E-20   0.338E-05 0.766E-05 -.264E-05
   -.117E-02 -.175E-03 0.166E-02   -.232E-02 -.240E-02 0.380E-03   0.520E-20 0.617E-20 0.185E-20   -.337E-05 0.115E-04 -.545E-06
   -.367E-02 -.143E-03 -.478E-02   -.507E-02 -.303E-02 -.430E-02   -.369E-20 -.238E-19 -.508E-20   0.159E-05 0.753E-05 0.354E-05
   0.408E-02 0.127E-02 0.241E-02   0.490E-02 -.421E-02 0.454E-02   0.534E-20 0.363E-20 0.118E-19   -.329E-05 0.762E-05 -.273E-05
   0.205E-02 0.478E-03 0.384E-02   0.520E-02 0.134E-02 0.509E-02   0.175E-20 -.826E-20 -.153E-19   -.341E-05 -.889E-05 -.276E-05
   0.385E-02 -.996E-03 0.324E-02   0.328E-02 -.121E-02 0.255E-02   -.187E-19 0.338E-19 0.155E-19   0.331E-05 0.731E-05 0.271E-05
   0.533E-03 0.174E-02 -.860E-03   0.791E-03 0.178E-02 0.524E-03   0.305E-20 0.654E-20 0.395E-20   0.119E-05 0.102E-05 0.574E-06
   -.191E-02 0.364E-02 -.317E-02   -.127E-02 0.438E-02 -.318E-02   -.347E-20 0.600E-20 -.932E-20   0.357E-05 -.116E-04 0.454E-05
   -.179E-02 0.175E-02 -.475E-02   -.261E-02 0.129E-02 -.232E-02   -.405E-20 0.172E-19 -.916E-20   -.164E-05 -.741E-05 -.364E-05
   -.441E-02 0.185E-02 -.495E-02   -.620E-02 -.213E-03 -.344E-02   0.519E-20 -.115E-19 0.500E-20   0.164E-05 0.895E-05 0.341E-05
   0.147E-03 0.226E-02 -.379E-02   0.142E-02 0.299E-02 -.189E-02   -.500E-20 -.847E-20 -.683E-20   0.340E-05 -.899E-05 -.371E-05
   -.320E-03 -.417E-02 0.301E-02   0.521E-03 -.271E-02 0.498E-02   0.978E-20 -.396E-20 -.500E-20   -.122E-05 -.898E-06 -.466E-05
   0.667E-02 -.771E-03 0.963E-03   0.438E-02 -.154E-02 -.185E-02   -.276E-20 -.430E-20 0.768E-21   -.324E-05 0.894E-05 -.355E-05
   0.180E-02 -.637E-03 -.219E-02   0.219E-02 -.118E-02 -.624E-03   0.130E-19 -.302E-20 0.155E-19   -.361E-05 -.987E-06 0.705E-06
   -.582E-03 -.260E-02 0.674E-04   0.592E-03 -.633E-02 0.205E-02   0.554E-20 0.211E-19 0.748E-21   0.116E-05 0.117E-04 0.511E-06
   -.137E-02 0.106E-02 -.401E-02   -.181E-02 0.388E-02 -.291E-03   0.130E-20 -.352E-20 -.166E-19   -.158E-05 -.903E-05 -.376E-05
   0.589E-03 -.326E-02 0.175E-02   -.530E-03 -.357E-02 0.664E-03   0.228E-20 0.712E-20 -.911E-20   0.125E-05 0.124E-05 -.560E-06
   0.214E-02 -.458E-03 0.315E-03   -.138E-03 -.266E-02 -.640E-03   -.397E-20 0.102E-19 0.413E-20   0.122E-05 0.116E-04 -.495E-06
   0.640E-05 -.312E-02 0.363E-02   -.717E-03 -.132E-02 0.338E-02   -.267E-20 -.112E-19 -.683E-20   0.351E-05 -.900E-06 -.450E-05
   0.651E-03 0.136E-02 0.189E-02   0.398E-03 0.177E-02 0.112E-02   -.121E-19 -.188E-19 0.476E-21   -.118E-05 0.875E-06 0.623E-06
   -.294E-02 -.212E-02 -.205E-02   -.345E-02 -.165E-02 -.253E-02   0.897E-20 0.614E-20 -.139E-19   -.158E-05 0.740E-05 -.354E-05
   -.195E-02 -.114E-02 -.262E-03   0.483E-03 -.250E-02 0.187E-02   0.834E-20 -.741E-20 -.105E-19   0.341E-05 0.896E-05 -.259E-05
   -.171E-03 0.259E-02 0.461E-02   -.772E-04 0.310E-02 0.409E-02   0.826E-20 -.392E-20 -.847E-20   -.174E-05 -.899E-05 -.265E-05
   0.790E-03 -.197E-03 -.382E-02   0.173E-02 0.196E-02 -.345E-02   0.317E-20 0.942E-20 0.736E-20   0.344E-05 -.747E-05 -.359E-05
   -.191E-02 0.479E-03 0.342E-02   -.175E-02 0.293E-02 0.155E-02   0.207E-19 0.646E-20 0.496E-20   0.146E-05 -.897E-05 0.282E-05
   -.272E-02 -.344E-03 -.996E-03   -.371E-02 -.380E-02 0.204E-02   -.185E-19 -.265E-20 -.129E-19   -.159E-05 0.909E-05 0.267E-05
   -.258E-03 -.238E-02 0.364E-03   0.147E-02 -.503E-02 0.176E-02   0.161E-19 0.171E-19 0.195E-19   -.359E-05 0.117E-04 0.566E-06
   -.854E-03 0.701E-03 -.134E-02   0.386E-02 0.391E-02 -.699E-02   0.142E-19 -.688E-21 0.135E-19   -.341E-05 -.894E-05 0.384E-05
   0.978E-03 0.237E-02 -.558E-02   0.352E-02 0.526E-02 -.442E-02   0.152E-19 0.656E-20 0.151E-19   -.371E-05 -.117E-04 0.745E-06
   -.330E-02 -.359E-03 -.355E-02   -.303E-02 -.344E-02 -.541E-02   -.134E-19 0.307E-20 -.232E-19   -.164E-05 0.903E-05 -.342E-05
   0.129E-02 -.118E-02 0.146E-02   -.298E-03 -.440E-02 -.466E-03   -.537E-20 0.946E-20 -.124E-19   -.346E-05 0.116E-04 0.436E-05
   0.901E-03 0.219E-02 0.281E-02   -.318E-02 0.275E-02 0.220E-02   -.698E-20 -.439E-20 -.128E-19   0.368E-05 0.907E-06 0.582E-06
   -.621E-03 -.244E-02 -.257E-02   0.220E-02 -.382E-02 -.324E-02   -.668E-20 0.286E-19 -.175E-20   -.332E-05 0.747E-05 0.361E-05
   -.451E-02 -.160E-02 -.345E-02   -.870E-03 -.506E-02 -.167E-02   0.389E-20 -.185E-21 -.100E-19   -.350E-05 0.117E-04 -.438E-05
   -.167E-02 -.167E-02 0.438E-02   -.131E-02 -.166E-02 0.216E-02   -.152E-19 0.169E-20 0.797E-20   0.145E-05 0.731E-05 0.281E-05
   0.299E-02 0.590E-02 -.184E-02   0.163E-02 0.587E-02 -.282E-02   0.269E-20 0.196E-20 0.131E-19   -.124E-05 -.117E-04 0.761E-06
   0.367E-03 0.103E-02 -.274E-02   0.105E-02 0.192E-02 -.591E-03   -.972E-20 -.447E-20 0.127E-19   0.337E-05 -.114E-05 -.644E-06
   -.121E-02 0.138E-02 -.130E-02   -.270E-02 0.222E-02 0.838E-03   -.664E-20 0.386E-20 -.101E-19   0.150E-05 -.889E-05 -.386E-05
   -.499E-02 -.185E-02 -.115E-03   -.702E-02 -.208E-02 0.337E-02   -.189E-19 0.259E-20 -.551E-20   0.169E-05 0.885E-05 -.268E-05
   -.171E-02 0.157E-02 -.214E-02   -.100E-03 0.132E-02 -.207E-02   -.213E-20 -.145E-19 -.134E-19   0.347E-05 -.114E-05 0.451E-05
   -.196E-03 0.365E-02 0.405E-02   -.657E-03 0.307E-02 0.268E-02   0.453E-20 0.177E-19 -.148E-20   -.336E-05 -.123E-05 -.687E-06
   -.205E-02 -.358E-02 -.374E-03   -.156E-02 -.404E-02 0.490E-03   -.131E-19 -.519E-20 -.137E-19   0.123E-05 0.122E-05 0.425E-05
   0.523E-03 -.206E-03 0.569E-03   -.453E-04 0.488E-03 0.133E-02   0.379E-20 -.111E-19 0.476E-20   0.122E-05 -.101E-05 -.442E-05
   0.254E-02 0.169E-02 -.650E-03   0.846E-03 0.154E-02 -.171E-02   0.117E-19 -.762E-20 0.157E-19   0.120E-05 0.103E-05 -.426E-05
   0.392E-02 -.310E-02 -.134E-02   0.124E-02 -.622E-02 -.305E-02   0.331E-20 0.185E-20 -.508E-20   0.116E-05 0.117E-04 -.423E-05
   -.139E-02 0.595E-03 -.101E-02   0.897E-03 0.890E-03 -.102E-03   0.999E-20 -.569E-20 -.535E-20   -.360E-05 0.101E-05 -.441E-05
   -.146E-02 -.190E-02 -.930E-03   -.187E-02 -.133E-02 -.623E-03   -.369E-20 0.144E-19 0.275E-20   0.355E-05 0.114E-05 0.433E-05
   0.309E-02 -.432E-02 0.177E-03   -.324E-03 -.677E-02 -.115E-02   0.227E-20 0.450E-20 -.158E-19   0.349E-05 0.117E-04 -.430E-05
   -.522E-02 0.358E-02 -.125E-02   -.271E-02 0.385E-02 -.253E-02   -.630E-20 0.794E-21 -.802E-20   0.127E-05 -.122E-05 0.441E-05
   -.137E-02 -.165E-02 -.421E-02   0.657E-03 -.250E-02 -.880E-03   0.108E-19 -.167E-19 -.424E-20   -.122E-05 0.115E-04 -.533E-06
   -.845E-03 -.320E-02 0.239E-03   0.309E-03 -.436E-02 0.101E-02   -.741E-21 0.127E-19 -.169E-20   0.346E-05 0.116E-04 0.430E-05
   -.669E-03 0.237E-02 0.214E-02   0.171E-02 0.548E-02 0.334E-02   0.161E-19 0.115E-19 -.233E-20   -.361E-05 -.117E-04 -.462E-05
   -.179E-02 0.969E-03 -.151E-02   -.335E-02 0.528E-02 0.741E-03   -.227E-20 -.778E-20 0.450E-20   -.154E-05 -.908E-05 0.273E-05
   0.719E-02 -.143E-02 0.331E-02   0.669E-02 -.125E-02 0.455E-02   0.500E-21 0.124E-19 0.713E-20   -.331E-05 0.890E-05 -.268E-05
   -.113E-02 0.123E-02 0.356E-02   -.259E-02 -.121E-02 0.172E-02   -.605E-20 -.140E-19 0.185E-20   0.150E-05 0.899E-05 0.275E-05
   0.124E-03 0.140E-02 0.384E-02   -.470E-03 0.396E-02 0.407E-02   0.159E-19 -.582E-20 0.145E-19   -.180E-05 -.761E-05 -.261E-05
   0.417E-02 0.257E-02 -.294E-02   0.107E-02 0.202E-02 -.471E-02   -.667E-20 0.114E-19 0.128E-19   -.128E-05 -.112E-05 0.466E-05
   0.219E-02 -.226E-02 0.728E-03   0.191E-02 -.160E-02 -.223E-02   0.151E-19 -.265E-20 0.625E-20   -.123E-05 0.112E-05 0.448E-05
   0.156E-02 0.123E-02 -.475E-02   0.440E-02 -.155E-02 -.371E-02   0.992E-20 -.355E-20 0.913E-20   -.333E-05 0.896E-05 0.348E-05
   -.301E-02 0.825E-03 0.524E-02   -.322E-02 0.249E-02 0.376E-02   0.145E-19 0.311E-20 0.540E-20   0.130E-05 -.116E-04 -.699E-06
   -.401E-02 0.101E-02 -.385E-02   -.384E-02 0.423E-02 -.320E-02   -.167E-19 0.107E-19 -.108E-19   0.128E-05 -.116E-04 0.444E-05
   -.224E-02 0.314E-02 -.971E-03   -.712E-03 0.148E-02 0.152E-02   -.984E-20 0.130E-20 -.223E-19   -.120E-05 0.892E-06 -.449E-05
   -.124E-02 0.138E-03 -.205E-02   0.205E-02 -.158E-02 -.334E-02   -.448E-20 -.197E-19 -.720E-20   0.329E-05 0.746E-05 -.348E-05
   -.683E-03 0.121E-02 -.591E-03   0.319E-02 0.352E-02 0.259E-03   -.906E-21 0.405E-20 0.115E-19   -.332E-05 -.899E-05 0.283E-05
   0.278E-03 0.150E-02 0.162E-02   -.113E-02 -.115E-02 -.361E-03   0.485E-21 -.741E-20 -.205E-19   0.150E-05 0.748E-05 -.361E-05
   -.423E-02 -.325E-03 -.253E-02   -.486E-02 0.205E-02 -.709E-02   0.257E-20 -.143E-20 0.131E-19   0.162E-05 -.893E-05 0.378E-05
   0.174E-02 0.315E-02 0.283E-02   -.710E-03 0.572E-02 0.345E-02   -.868E-20 0.127E-19 -.492E-20   0.362E-05 -.117E-04 -.454E-05
   -.797E-03 -.577E-03 0.186E-02   0.682E-03 0.473E-02 0.288E-02   0.859E-20 0.123E-19 0.656E-20   0.353E-05 -.767E-05 -.259E-05
   0.159E-03 -.145E-02 0.473E-02   -.873E-04 -.222E-02 0.376E-02   0.660E-20 -.123E-19 -.868E-20   -.178E-05 0.900E-05 -.259E-05
   0.226E-02 0.726E-03 -.205E-02   0.305E-02 0.175E-02 0.163E-02   0.559E-20 -.104E-19 -.347E-20   -.333E-05 -.893E-05 -.391E-05
   -.304E-02 0.110E-02 0.105E-02   -.522E-02 0.208E-02 0.489E-02   -.114E-20 -.604E-20 0.209E-19   0.166E-05 -.885E-05 -.274E-05
   0.898E-03 -.387E-02 0.510E-02   0.340E-03 -.423E-02 0.162E-02   0.851E-20 -.238E-20 -.201E-19   -.115E-05 0.117E-04 0.543E-06
   0.280E-02 0.137E-02 0.146E-02   0.145E-02 0.443E-03 0.309E-02   -.668E-20 0.847E-20 0.137E-19   0.342E-05 -.732E-05 0.267E-05
   0.256E-02 -.277E-03 0.338E-02   0.358E-02 -.331E-02 0.332E-02   -.175E-19 0.161E-20 -.474E-20   0.334E-05 0.908E-05 0.266E-05
   -.198E-02 -.284E-02 -.213E-02   0.224E-02 -.353E-02 -.573E-02   -.154E-20 0.235E-19 -.564E-20   0.333E-05 0.899E-05 -.336E-05
   0.192E-02 0.116E-02 0.408E-03   0.121E-02 0.271E-02 -.250E-02   -.926E-20 0.145E-19 -.900E-20   0.351E-05 -.752E-05 0.351E-05
   0.122E-02 0.898E-03 0.946E-03   0.127E-02 0.199E-02 0.244E-02   0.931E-20 0.103E-20 -.296E-20   -.132E-05 -.115E-04 -.759E-06
   0.292E-02 0.415E-02 -.198E-02   0.174E-02 0.448E-02 -.415E-02   0.199E-19 0.146E-19 0.145E-19   -.346E-05 -.120E-05 0.456E-05
   0.205E-03 0.160E-02 0.269E-02   -.594E-03 0.426E-02 0.228E-02   0.166E-19 -.121E-19 0.201E-19   0.126E-05 -.117E-04 -.445E-05
   0.511E-02 -.219E-02 -.167E-02   0.404E-02 -.439E-02 -.121E-02   -.725E-20 0.741E-21 -.136E-20   0.340E-05 0.750E-05 0.341E-05
   -.117E-02 -.309E-02 0.105E-02   -.164E-02 -.314E-02 -.806E-03   0.880E-20 -.262E-19 0.529E-22   0.361E-05 -.908E-06 0.639E-06
   -.103E-02 0.109E-02 0.108E-02   0.439E-05 0.326E-02 0.149E-02   -.257E-20 0.585E-20 0.109E-19   0.347E-05 -.116E-04 -.722E-06
   -.280E-03 -.396E-02 0.235E-02   0.406E-04 -.303E-02 0.111E-02   -.151E-19 -.225E-21 -.492E-20   -.345E-05 0.123E-05 -.603E-06
   0.390E-02 -.382E-03 0.103E-02   0.252E-02 -.195E-02 -.259E-03   0.763E-20 0.588E-20 -.611E-20   -.322E-05 0.741E-05 -.368E-05
   -.188E-02 -.108E-02 0.104E-02   -.381E-03 -.413E-02 0.166E-02   -.565E-20 0.114E-19 -.413E-20   0.123E-05 0.116E-04 0.421E-05
   0.172E-02 -.311E-02 -.449E-03   0.805E-03 -.335E-02 -.817E-03   -.320E-20 0.614E-20 0.741E-21   -.121E-05 -.885E-06 0.693E-06
   -.324E-04 -.279E-02 0.402E-02   -.150E-02 -.488E-02 0.325E-02   -.831E-20 0.635E-21 -.707E-20   -.173E-05 0.760E-05 -.264E-05
   -.143E-02 -.210E-02 0.189E-02   -.360E-02 -.251E-02 -.156E-02   -.367E-20 -.244E-20 -.128E-19   0.155E-05 0.889E-05 -.348E-05
   -.116E-04 0.290E-02 0.974E-03   -.120E-02 0.534E-02 -.451E-02   -.660E-20 -.231E-19 0.163E-19   -.170E-05 -.904E-05 0.369E-05
   0.539E-02 0.158E-02 -.567E-03   0.227E-02 0.396E-02 -.392E-02   -.792E-20 -.137E-19 -.176E-19   0.349E-05 -.903E-05 0.364E-05
   0.553E-02 -.693E-03 0.533E-02   0.608E-02 0.404E-02 0.528E-02   0.164E-20 0.278E-20 -.127E-19   -.344E-05 -.763E-05 -.271E-05
   -.405E-03 -.335E-02 -.935E-03   0.160E-02 -.185E-02 -.105E-02   0.102E-20 0.868E-20 -.388E-20   -.323E-05 0.726E-05 0.280E-05
   -.475E-02 -.152E-02 0.230E-02   -.626E-02 0.396E-02 0.472E-02   -.105E-19 -.794E-21 -.129E-19   0.171E-05 -.770E-05 -.268E-05
   -.497E-02 -.137E-02 -.356E-02   -.567E-02 0.119E-02 -.529E-02   0.427E-20 0.720E-20 0.662E-22   0.167E-05 -.755E-05 0.366E-05
   -.245E-02 -.520E-03 -.240E-02   -.141E-02 -.655E-03 -.436E-03   0.206E-19 -.246E-19 -.564E-20   0.121E-05 -.101E-05 0.654E-06
   0.165E-03 -.147E-02 -.293E-03   -.627E-03 -.323E-02 -.399E-03   -.181E-19 -.151E-19 -.257E-20   -.173E-05 0.906E-05 0.335E-05
   -.155E-02 -.197E-03 -.130E-02   -.283E-03 -.427E-03 -.390E-03   -.985E-20 -.909E-20 -.118E-19   -.126E-05 0.114E-05 -.613E-06
   -.153E-02 0.406E-02 0.264E-02   -.428E-03 0.531E-02 0.518E-02   0.160E-19 0.990E-20 0.376E-20   -.127E-05 -.116E-04 -.470E-05
   0.356E-02 0.160E-02 -.208E-02   0.261E-02 0.319E-02 -.492E-02   0.220E-19 0.265E-21 0.146E-19   -.129E-05 -.116E-04 0.470E-05
   0.700E-03 0.157E-02 0.309E-03   -.102E-02 0.130E-02 -.422E-02   -.969E-20 -.212E-20 -.842E-20   -.176E-05 -.748E-05 0.356E-05
   0.112E-02 0.506E-03 -.167E-02   0.803E-03 -.681E-03 -.128E-02   -.723E-20 0.190E-19 -.731E-20   0.346E-05 0.115E-05 -.572E-06
   0.256E-02 -.409E-03 -.106E-02   0.238E-02 -.221E-02 0.545E-03   -.109E-19 -.142E-20 -.199E-20   0.342E-05 0.905E-05 0.329E-05
   0.746E-03 0.102E-02 0.244E-03   0.454E-02 -.500E-03 0.196E-02   0.712E-20 0.192E-19 0.245E-19   -.334E-05 -.728E-05 0.279E-05
   0.698E-04 -.403E-02 0.411E-02   -.241E-02 -.624E-02 0.170E-02   -.135E-19 0.712E-20 -.216E-19   0.358E-05 0.117E-04 0.488E-06
   0.348E-02 0.818E-03 -.187E-02   0.454E-02 0.181E-02 -.110E-02   0.211E-20 -.582E-20 -.102E-19   -.335E-05 -.742E-05 -.380E-05
 -----------------------------------------------------------------------------------------------
   -.939E-10 0.309E-09 -.998E-10   0.434E-12 -.123E-11 -.900E-12   -.262E-19 0.481E-19 -.143E-18   -.108E-10 0.433E-11 -.135E-10
 
 
 POSITION                                       TOTAL-FORCE (eV/Angst)
 -----------------------------------------------------------------------------------
      4.48845      1.49615      7.48074        -0.000000      0.000000     -0.000000
      1.49615      4.48845     10.47304        -0.000000     -0.000000     -0.000000
     10.47304     10.47304      4.48844         0.000000      0.000000      0.000000
      0.00000      0.00000      2.99230        -0.000000      0.000000     -0.000000
      8.97689      8.97689      2.99230         0.000000      0.000000      0.000000
      0.00000      0.00000      0.00000        -0.000000     -0.000000      0.000000
      8.97689      8.97689      8.97689        -0.000000      0.000000      0.000000
      7.48074      4.48844      7.48074         0.000000     -0.000000      0.000000
      1.49615      7.48074      1.49615        -0.000000      0.000000     -0.000000
      0.00000      5.98459      2.99230         0.000000      0.000000     -0.000000
      1.49615      4.48845      1.49615         0.000000     -0.000000     -0.000000
      5.98460     11.96919      8.97689        -0.000000      0.000000      0.000000
      5.98460      5.98460      2.99230        -0.000000     -0.000000     -0.000000
      5.98460      5.98460      5.98460        -0.000000     -0.000000      0.000000
      1.49615      7.48074      4.48844        -0.000000      0.000000     -0.000000
     10.47304      7.48074     10.47305         0.000000     -0.000000     -0.000000
      4.48845     10.47304      4.48845         0.000000     -0.000000      0.000000
      2.99230      2.99230      2.99230         0.000000     -0.000000     -0.000000
      4.48845      1.49615      1.49615        -0.000000     -0.000000     -0.000000
      7.48074      1.49615      4.48845        -0.000000      0.000000     -0.000000
      7.48075      7.48074     10.47304         0.000000     -0.000000      0.000000
      2.99230      5.98460      0.00000        -0.000000     -0.000000      0.000000
      1.49615     10.47304      7.48074         0.000000     -0.000000     -0.000000
      8.97689      0.00000      8.97689        -0.000000      0.000000      0.000000
      1.49615      1.49615      4.48845         0.000000     -0.000000     -0.000000
      5.98460      0.00000      0.00000         0.000000      0.000000     -0.000000
      2.99229      0.00000      8.97689        -0.000000     -0.000000     -0.000000
      2.99230      8.97689      8.97689        -0.000000      0.000000      0.000000
      8.97689      0.00000      2.99230        -0.000000      0.000000     -0.000000
     10.47304      4.48845     10.47304        -0.000000     -0.000000     -0.000000
      7.48075      7.48074      1.49615         0.000000     -0.000000      0.000000
      0.00000      5.98459      5.98460        -0.000000     -0.000000     -0.000000
      5.98460      2.99230      0.00000        -0.000000      0.000000     -0.000000
      8.97689      8.97689      5.98460        -0.000000      0.000000      0.000000
      4.48845     10.47305      7.48074        -0.000000      0.000000     -0.000000
      2.99229      2.99230      5.98460         0.000000      0.000000     -0.000000
      1.49615     10.47304     10.47304         0.000000      0.000000     -0.000000
     10.47304      1.49615     10.47304         0.000000     -0.000000      0.000000
      0.00000      8.97689      5.98460        -0.000000      0.000000      0.000000
     10.47304      4.48845      4.48845         0.000000     -0.000000     -0.000000
     10.47304      1.49615      4.48845        -0.000000     -0.000000     -0.000000
      7.48074     10.47304      7.48074        -0.000000      0.000000      0.000000
      4.48845      4.48845     10.47304         0.000000     -0.000000      0.000000
      0.00000      0.00000      5.98460         0.000000      0.000000      0.000000
      8.97689      2.99230      8.97689         0.000000     -0.000000     -0.000000
      0.00000      8.97689      8.97689         0.000000      0.000000     -0.000000
      8.97689      5.98460      5.98460        -0.000000     -0.000000      0.000000
      5.98460      8.97689      2.99230        -0.000000     -0.000000     -0.000000
      0.00000      2.99230      2.99230        -0.000000     -0.000000     -0.000000
      1.49615      1.49615     10.47304        -0.000000      0.000000     -0.000000
      2.99230      8.97689      0.00000        -0.000000      0.000000     -0.000000
      1.49615      7.48074     10.47305        -0.000000     -0.000000     -0.000000
      0.00000      2.99230      5.98460        -0.000000      0.000000      0.000000
      1.49615      1.49615      1.49615         0.000000      0.000000     -0.000000
      7.48074      4.48844     10.47304         0.000000     -0.000000      0.000000
      2.99230      0.00000      0.00000        -0.000000      0.000000     -0.000000
      1.49615      1.49615      7.48075        -0.000000      0.000000      0.000000
      5.98460      0.00000      2.99229         0.000000     -0.000000      0.000000
      4.48844      7.48074     10.47304         0.000000     -0.000000     -0.000000
      7.48074     10.47304      4.48845        -0.000000     -0.000000      0.000000
      5.98460      8.97689      5.98460        -0.000000      0.000000     -0.000000
      5.98460      2.99230      8.97689         0.000000      0.000000      0.000000
      7.48075     10.47304      1.49615         0.000000      0.000000      0.000000
      1.49615     10.47304      4.48844        -0.000000     -0.000000      0.000000
     10.47304      4.48845      1.49615         0.000000     -0.000000      0.000000
     10.47304     10.47304      7.48074         0.000000     -0.000000      0.000000
     10.47304      4.48845      7.48075         0.000000     -0.000000      0.000000
     10.47304      1.49615      7.48075         0.000000     -0.000000      0.000000
      1.49615      4.48845      7.48074         0.000000      0.000000     -0.000000
      7.48075      4.48845      1.49615         0.000000      0.000000     -0.000000
      7.48074      1.49615      7.48074         0.000000      0.000000      0.000000
     10.47305     10.47304      1.49615         0.000000      0.000000     -0.000000
      4.48845      1.49615      4.48845        -0.000000     -0.000000     -0.000000
      7.48074      1.49615      1.49615         0.000000     -0.000000      0.000000
      1.49615      7.48074      7.48074         0.000000      0.000000     -0.000000
      0.00000      8.97689      2.99230        -0.000000      0.000000      0.000000
      2.99229      2.99230      8.97689        -0.000000      0.000000     -0.000000
      5.98460      2.99230      2.99230         0.000000     -0.000000     -0.000000
      0.00000      5.98459      8.97689        -0.000000      0.000000     -0.000000
      4.48844     10.47304      1.49615         0.000000     -0.000000     -0.000000
      4.48844      4.48845      1.49615        -0.000000      0.000000     -0.000000
      2.99230      2.99230      0.00000        -0.000000     -0.000000     -0.000000
     10.47304      7.48074      4.48844         0.000000     -0.000000     -0.000000
     10.47305      7.48074      1.49615         0.000000     -0.000000      0.000000
      4.48845      4.48844      7.48074         0.000000      0.000000      0.000000
      8.97689      0.00000      5.98460         0.000000     -0.000000      0.000000
      2.99230      8.97689      2.99230        -0.000000      0.000000     -0.000000
      5.98460     11.96919      5.98459         0.000000      0.000000     -0.000000
      5.98460      8.97689      0.00000        -0.000000     -0.000000     -0.000000
      7.48074      7.48074      7.48074         0.000000      0.000000      0.000000
      8.97689      5.98460      8.97689        -0.000000      0.000000      0.000000
     11.96919      2.99230      8.97689        -0.000000      0.000000     -0.000000
      2.99230      8.97689      5.98460         0.000000     -0.000000      0.000000
      5.98460      8.97689      8.97689         0.000000      0.000000      0.000000
      4.48845      1.49615     10.47304         0.000000      0.000000     -0.000000
      8.97689      5.98459      2.99230         0.000000     -0.000000      0.000000
      8.97689      2.99230      2.99230         0.000000      0.000000     -0.000000
      8.97689      2.99230      5.98460         0.000000      0.000000      0.000000
      8.97689      5.98459      0.00000        -0.000000      0.000000      0.000000
      4.48845      7.48074      4.48845        -0.000000     -0.000000     -0.000000
      1.49615     10.47304      1.49615        -0.000000      0.000000     -0.000000
     10.47304      7.48074      7.48074         0.000000      0.000000     -0.000000
      8.97689      0.00000      0.00000         0.000000     -0.000000      0.000000
      7.48075     10.47305     10.47304        -0.000000     -0.000000      0.000000
      7.48075      7.48074      4.48845        -0.000000     -0.000000      0.000000
      1.49615      4.48845      4.48844         0.000000      0.000000     -0.000000
      2.99229      0.00000      5.98459         0.000000      0.000000     -0.000000
     10.47304      1.49615      1.49615        -0.000000      0.000000      0.000000
      4.48845     10.47305     10.47304        -0.000000      0.000000      0.000000
      0.00000      0.00000      8.97689        -0.000000     -0.000000      0.000000
      5.98460      2.99230      5.98459        -0.000000     -0.000000      0.000000
      0.00000      8.97689      0.00000        -0.000000      0.000000     -0.000000
      8.97689      8.97689      0.00000         0.000000     -0.000000      0.000000
      2.99229      5.98460      8.97689        -0.000000      0.000000      0.000000
      2.99230      0.00000      2.99230         0.000000     -0.000000     -0.000000
      5.98460      5.98460      8.97689         0.000000     -0.000000      0.000000
      5.98460      5.98460      0.00000        -0.000000      0.000000     -0.000000
     10.47304     10.47304     10.47304         0.000000      0.000000     -0.000000
      0.00000      2.99230      0.00000        -0.000000      0.000000      0.000000
      4.48845      4.48845      4.48845        -0.000000      0.000000      0.000000
      4.48845      7.48074      7.48074        -0.000000     -0.000000      0.000000
      4.48844      7.48074      1.49615        -0.000000     -0.000000     -0.000000
     11.96919      5.98459      0.00000         0.000000      0.000000      0.000000
      7.48074      4.48845      4.48845        -0.000000      0.000000      0.000000
      8.97689      2.99230      0.00000        -0.000000      0.000000      0.000000
      2.99230      5.98460      2.99230        -0.000000     -0.000000      0.000000
      7.48075      1.49615     10.47304         0.000000     -0.000000      0.000000
      2.99229      5.98460      5.98460         0.000000      0.000000      0.000000
 -----------------------------------------------------------------------------------
    total drift:                               -0.000000      0.000000     -0.000000


--------------------------------------------------------------------------------------------------------



  FREE ENERGIE OF THE ION-ELECTRON SYSTEM (eV)
  ---------------------------------------------------
  free  energy   TOTEN  =     -1150.82547691 eV

  energy  without entropy=    -1150.39883191  energy(sigma->0) =    -1150.68326191
 d Force = 0.0000000E+00[ 0.000E+00, 0.000E+00]  d Energy = 0.2809698E-02-0.281E-02
 d Force = 0.0000000E+00[ 0.000E+00, 0.000E+00]  d Ewald  = 0.1031619E+03-0.103E+03
 


--------------------------------------------------------------------------------------------------------


    POTLOK:  cpu time      0.1193: real time      0.0197


--------------------------------------------------------------------------------------------------------




--------------------------------------------------------------------------------------------------------


      MLFF:  cpu time      0.0363: real time      0.0350
    WAVPRE:  cpu time      0.3066: real time      0.1127
    FEWALD:  cpu time      0.1725: real time      0.1713
    GENKIN:  cpu time      0.0044: real time      0.0044
    ORTHCH:  cpu time      0.4991: real time      0.4988
     LOOP+:  cpu time     33.5605: real time     29.6688


--------------------------------------- Ionic step        4  -------------------------------------------




--------------------------------------- Iteration      4(   1)  ---------------------------------------


    POTLOK:  cpu time      0.0062: real time      0.0058
    SETDIJ:  cpu time      0.0931: real time      0.0062
     EDDAV:  cpu time      3.2021: real time      3.1496
       DOS:  cpu time      0.0013: real time      0.0013
    CHARGE:  cpu time      0.4193: real time      0.2650
    MIXING:  cpu time      0.0318: real time      0.0024
    --------------------------------------------
      LOOP:  cpu time      3.7538: real time      3.4303

 eigenvalue-minimisations  :  8232
 total energy-change (2. order) :-0.4477190E-02  (-0.1019192E-01)
 number of electron    1664.0022200 magnetization 
 augmentation part      604.7477149 magnetization 

 Broyden mixing:
  rms(total) = 0.71988E-01    rms(broyden)= 0.71961E-01
  rms(prec ) = 0.77549E-01
  weight for this iteration     100.00

 Free energy of the ion-electron system (eV)
  ---------------------------------------------------
  alpha Z        PSCENC =     11678.81340819
  Ewald energy   TEWEN  =   -189445.85186079
  -Hartree energ DENC   =    -50125.59428884
  -exchange      EXHF   =         0.00000000
  -V(xc)+E(xc)   XCENC  =      8954.04090587
  PAW double counting   =    249117.97339361  -251484.92739378
  entropy T*S    EENTRO =        -0.42919874
  eigenvalues    EBANDS =    -29707.83444944
  atomic energy  EATOM  =    249862.97952924
  Solvation  Ediel_sol  =         0.00000000
  ---------------------------------------------------
  free energy    TOTEN  =     -1150.82995468 eV

  energy without entropy =    -1150.40075594  energy(sigma->0) =    -1150.68688843


--------------------------------------------------------------------------------------------------------




--------------------------------------- Iteration      4(   2)  ---------------------------------------


    POTLOK:  cpu time      0.0440: real time      0.0319
    SETDIJ:  cpu time      0.0886: real time      0.0059
     EDDAV:  cpu time      3.2393: real time      3.1864
       DOS:  cpu time      0.0014: real time      0.0014
    CHARGE:  cpu time      0.4099: real time      0.2646
    MIXING:  cpu time      0.0355: real time      0.0026
    --------------------------------------------
      LOOP:  cpu time      3.8187: real time      3.4928

 eigenvalue-minimisations  :  8344
 total energy-change (2. order) : 0.4478262E-02  (-0.2590051E-02)
 number of electron    1664.0022207 magnetization 
 augmentation part      605.0549104 magnetization 

 Broyden mixing:
  rms(total) = 0.13970E-01    rms(broyden)= 0.13954E-01
  rms(prec ) = 0.14333E-01
  weight for this iteration     100.00

 eigenvalues of (default mixing * dielectric matrix)
  average eigenvalue GAMMA=   0.8937
  0.8937

 Free energy of the ion-electron system (eV)
  ---------------------------------------------------
  alpha Z        PSCENC =     11678.81340819
  Ewald energy   TEWEN  =   -189445.85186079
  -Hartree energ DENC   =    -50106.31903727
  -exchange      EXHF   =         0.00000000
  -V(xc)+E(xc)   XCENC  =      8953.08773010
  PAW double counting   =    249203.30798000  -251570.11579070
  entropy T*S    EENTRO =        -0.42617609
  eigenvalues    EBANDS =    -29726.30125909
  atomic energy  EATOM  =    249862.97952924
  Solvation  Ediel_sol  =         0.00000000
  ---------------------------------------------------
  free energy    TOTEN  =     -1150.82547642 eV

  energy without entropy =    -1150.39930033  energy(sigma->0) =    -1150.68341772


--------------------------------------------------------------------------------------------------------




--------------------------------------- Iteration      4(   3)  ---------------------------------------


    POTLOK:  cpu time      0.0375: real time      0.0104
    SETDIJ:  cpu time      0.0848: real time      0.0056
     EDDAV:  cpu time      3.2846: real time      3.2313
       DOS:  cpu time      0.0013: real time      0.0013
    CHARGE:  cpu time      0.4082: real time      0.2633
    MIXING:  cpu time      0.0384: real time      0.0028
    --------------------------------------------
      LOOP:  cpu time      3.8563: real time      3.5149

 eigenvalue-minimisations  :  8496
 total energy-change (2. order) : 0.1979528E-04  (-0.2269148E-04)
 number of electron    1664.0022207 magnetization 
 augmentation part      605.0557277 magnetization 

 Broyden mixing:
  rms(total) = 0.86775E-02    rms(broyden)= 0.86773E-02
  rms(prec ) = 0.89485E-02
  weight for this iteration     100.00

 eigenvalues of (default mixing * dielectric matrix)
  average eigenvalue GAMMA=   1.7097
  0.9970  2.4224

 Free energy of the ion-electron system (eV)
  ---------------------------------------------------
  alpha Z        PSCENC =     11678.81340819
  Ewald energy   TEWEN  =   -189445.85186079
  -Hartree energ DENC   =    -50106.71213599
  -exchange      EXHF   =         0.00000000
  -V(xc)+E(xc)   XCENC  =      8953.10765636
  PAW double counting   =    249200.67368933  -251567.61765506
  entropy T*S    EENTRO =        -0.42607738
  eigenvalues    EBANDS =    -29725.79201052
  atomic energy  EATOM  =    249862.97952924
  Solvation  Ediel_sol  =         0.00000000
  ---------------------------------------------------
  free energy    TOTEN  =     -1150.82545662 eV

  energy without entropy =    -1150.39937925  energy(sigma->0) =    -1150.68343083


--------------------------------------------------------------------------------------------------------




--------------------------------------- Iteration      4(   4)  ---------------------------------------


    POTLOK:  cpu time      0.0356: real time      0.0147
    SETDIJ:  cpu time      0.0844: real time      0.0057
     EDDAV:  cpu time      3.2089: real time      3.1560
       DOS:  cpu time      0.0014: real time      0.0013
    CHARGE:  cpu time      0.3989: real time      0.2639
    MIXING:  cpu time      0.0410: real time      0.0030
    --------------------------------------------
      LOOP:  cpu time      3.7686: real time      3.4445

 eigenvalue-minimisations  :  8240
 total energy-change (2. order) : 0.1385419E-04  (-0.7235745E-05)
 number of electron    1664.0022207 magnetization 
 augmentation part      605.0489405 magnetization 

 Broyden mixing:
  rms(total) = 0.14187E-02    rms(broyden)= 0.14170E-02
  rms(prec ) = 0.14611E-02
  weight for this iteration     100.00

 eigenvalues of (default mixing * dielectric matrix)
  average eigenvalue GAMMA=   1.6048
  2.4520  1.0483  1.3141

 Free energy of the ion-electron system (eV)
  ---------------------------------------------------
  alpha Z        PSCENC =     11678.81340819
  Ewald energy   TEWEN  =   -189445.85186079
  -Hartree energ DENC   =    -50107.59894716
  -exchange      EXHF   =         0.00000000
  -V(xc)+E(xc)   XCENC  =      8953.15168627
  PAW double counting   =    249195.78601390  -251562.84454381
  entropy T*S    EENTRO =        -0.42598096
  eigenvalues    EBANDS =    -29724.83474765
  atomic energy  EATOM  =    249862.97952924
  Solvation  Ediel_sol  =         0.00000000
  ---------------------------------------------------
  free energy    TOTEN  =     -1150.82544277 eV

  energy without entropy =    -1150.39946181  energy(sigma->0) =    -1150.68344911


--------------------------------------------------------------------------------------------------------




--------------------------------------- Iteration      4(   5)  ---------------------------------------


    POTLOK:  cpu time      0.0413: real time      0.0221
    SETDIJ:  cpu time      0.0846: real time      0.0056
     EDDAV:  cpu time      3.0897: real time      3.0378
       DOS:  cpu time      0.0013: real time      0.0013
    CHARGE:  cpu time      0.4110: real time      0.2641
    MIXING:  cpu time      0.0441: real time      0.0032
    --------------------------------------------
      LOOP:  cpu time      3.6720: real time      3.3341

 eigenvalue-minimisations  :  7800
 total energy-change (2. order) : 0.6092581E-05  (-0.1288988E-05)
 number of electron    1664.0022208 magnetization 
 augmentation part      605.0555754 magnetization 

 Broyden mixing:
  rms(total) = 0.42940E-03    rms(broyden)= 0.42938E-03
  rms(prec ) = 0.49716E-03
  weight for this iteration     100.00

 eigenvalues of (default mixing * dielectric matrix)
  average eigenvalue GAMMA=   1.7787
  0.9568  0.9568  2.6007  2.6007

 Free energy of the ion-electron system (eV)
  ---------------------------------------------------
  alpha Z        PSCENC =     11678.81340819
  Ewald energy   TEWEN  =   -189445.85186079
  -Hartree energ DENC   =    -50107.28135196
  -exchange      EXHF   =         0.00000000
  -V(xc)+E(xc)   XCENC  =      8953.13573860
  PAW double counting   =    249197.17906614  -251564.17904543
  entropy T*S    EENTRO =        -0.42592012
  eigenvalues    EBANDS =    -29725.19500055
  atomic energy  EATOM  =    249862.97952924
  Solvation  Ediel_sol  =         0.00000000
  ---------------------------------------------------
  free energy    TOTEN  =     -1150.82543668 eV

  energy without entropy =    -1150.39951656  energy(sigma->0) =    -1150.68346330


--------------------------------------------------------------------------------------------------------




--------------------------------------- Iteration      4(   6)  ---------------------------------------


    POTLOK:  cpu time      0.0435: real time      0.0223
    SETDIJ:  cpu time      0.0852: real time      0.0057
     EDDAV:  cpu time      2.1601: real time      2.1148
       DOS:  cpu time      0.0015: real time      0.0015
    CHARGE:  cpu time      0.4087: real time      0.2629
    MIXING:  cpu time      0.0481: real time      0.0034
    --------------------------------------------
      LOOP:  cpu time      2.7471: real time      2.4106

 eigenvalue-minimisations  :  4464
 total energy-change (2. order) : 0.5546404E-05  (-0.1198909E-06)
 number of electron    1664.0022208 magnetization 
 augmentation part      605.0536848 magnetization 

 Broyden mixing:
  rms(total) = 0.69020E-04    rms(broyden)= 0.68315E-04
  rms(prec ) = 0.75366E-04
  weight for this iteration     100.00

 eigenvalues of (default mixing * dielectric matrix)
  average eigenvalue GAMMA=   1.6855
  2.5668  2.5668  0.9870  0.9870  1.3197

 Free energy of the ion-electron system (eV)
  ---------------------------------------------------
  alpha Z        PSCENC =     11678.81340819
  Ewald energy   TEWEN  =   -189445.85186079
  -Hartree energ DENC   =    -50107.46560254
  -exchange      EXHF   =         0.00000000
  -V(xc)+E(xc)   XCENC  =      8953.14458336
  PAW double counting   =    249196.69418743  -251563.64335011
  entropy T*S    EENTRO =        -0.42593785
  eigenvalues    EBANDS =    -29725.07038806
  atomic energy  EATOM  =    249862.97952924
  Solvation  Ediel_sol  =         0.00000000
  ---------------------------------------------------
  free energy    TOTEN  =     -1150.82543113 eV

  energy without entropy =    -1150.39949328  energy(sigma->0) =    -1150.68345185


--------------------------------------------------------------------------------------------------------




--------------------------------------- Iteration      4(   7)  ---------------------------------------


    POTLOK:  cpu time      0.0413: real time      0.0188
    SETDIJ:  cpu time      0.0868: real time      0.0061
     EDDAV:  cpu time      2.1177: real time      2.0727
       DOS:  cpu time      0.0014: real time      0.0014
    --------------------------------------------
      LOOP:  cpu time      2.2473: real time      2.0991

 eigenvalue-minimisations  :  4312
 total energy-change (2. order) :-0.1045410E-06  (-0.1229141E-07)
 number of electron    1664.0022208 magnetization 
 augmentation part      605.0536848 magnetization 

 Free energy of the ion-electron system (eV)
  ---------------------------------------------------
  alpha Z        PSCENC =     11678.81340819
  Ewald energy   TEWEN  =   -189445.85186079
  -Hartree energ DENC   =    -50107.47800245
  -exchange      EXHF   =         0.00000000
  -V(xc)+E(xc)   XCENC  =      8953.14519473
  PAW double counting   =    249196.76932205  -251563.71905874
  entropy T*S    EENTRO =        -0.42593905
  eigenvalues    EBANDS =    -29725.05802442
  atomic energy  EATOM  =    249862.97952924
  Solvation  Ediel_sol  =         0.00000000
  ---------------------------------------------------
  free energy    TOTEN  =     -1150.82543123 eV

  energy without entropy =    -1150.39949218  energy(sigma->0) =    -1150.68345155


--------------------------------------------------------------------------------------------------------




 average (electrostatic) potential at core
  the test charge radii are     0.9956
  (the norm of the test charge is              1.0000)
       1 -70.0576       2 -70.0580       3 -70.0573       4 -70.0575       5 -70.0577
       6 -70.0574       7 -70.0573       8 -70.0583       9 -70.0582      10 -70.0584
      11 -70.0583      12 -70.0573      13 -70.0580      14 -70.0580      15 -70.0581
      16 -70.0576      17 -70.0574      18 -70.0579      19 -70.0576      20 -70.0576
      21 -70.0575      22 -70.0578      23 -70.0575      24 -70.0575      25 -70.0578
      26 -70.0572      27 -70.0573      28 -70.0570      29 -70.0574      30 -70.0580
      31 -70.0580      32 -70.0581      33 -70.0577      34 -70.0576      35 -70.0572
      36 -70.0580      37 -70.0571      38 -70.0577      39 -70.0577      40 -70.0579
      41 -70.0574      42 -70.0574      43 -70.0574      44 -70.0574      45 -70.0583
      46 -70.0573      47 -70.0580      48 -70.0577      49 -70.0578      50 -70.0577
      51 -70.0573      52 -70.0575      53 -70.0579      54 -70.0578      55 -70.0580
      56 -70.0572      57 -70.0580      58 -70.0575      59 -70.0570      60 -70.0575
      61 -70.0575      62 -70.0579      63 -70.0576      64 -70.0576      65 -70.0581
      66 -70.0574      67 -70.0583      68 -70.0579      69 -70.0583      70 -70.0582
      71 -70.0579      72 -70.0574      73 -70.0576      74 -70.0579      75 -70.0579
      76 -70.0580      77 -70.0579      78 -70.0579      79 -70.0580      80 -70.0573
      81 -70.0578      82 -70.0577      83 -70.0578      84 -70.0580      85 -70.0578
      86 -70.0574      87 -70.0579      88 -70.0575      89 -70.0571      90 -70.0578
      91 -70.0580      92 -70.0581      93 -70.0576      94 -70.0569      95 -70.0572
      96 -70.0581      97 -70.0578      98 -70.0580      99 -70.0580     100 -70.0577
     101 -70.0576     102 -70.0578     103 -70.0574     104 -70.0571     105 -70.0579
     106 -70.0581     107 -70.0576     108 -70.0576     109 -70.0567     110 -70.0575
     111 -70.0580     112 -70.0576     113 -70.0574     114 -70.0576     115 -70.0576
     116 -70.0576     117 -70.0577     118 -70.0571     119 -70.0580     120 -70.0578
     121 -70.0574     122 -70.0577     123 -70.0582     124 -70.0580     125 -70.0580
     126 -70.0582     127 -70.0578     128 -70.0580
 
 
 
 E-fermi :   9.7854     XC(G=0): -12.9388     alpha+bet :-18.7985

 val. band max:        9.7774388569   @ k =   0.5000   0.0000   0.0000
 cond. band min:       9.7978365431   @ k =   0.5000   0.5000   0.0000
 fundamental gap:      0.0203976862
 Fermi energy:         9.7854386747

 k-point     1 :       0.0000    0.0000    0.0000
  band No.  band energies     occupation 
      1     -53.9122      2.00000
      2     -53.8551      2.00000
      3     -53.8550      2.00000
      4     -53.8550      2.00000
      5     -53.8549      2.00000
      6     -53.8549      2.00000
      7     -53.8548      2.00000
      8     -53.8115      2.00000
      9     -53.8114      2.00000
     10     -53.8114      2.00000
     11     -53.8113      2.00000
     12     -53.8113      2.00000
     13     -53.8113      2.00000
     14     -53.8113      2.00000
     15     -53.8113      2.00000
     16     -53.8112      2.00000
     17     -53.8112      2.00000
     18     -53.8112      2.00000
     19     -53.8111      2.00000
     20     -53.7782      2.00000
     21     -53.7782      2.00000
     22     -53.7781      2.00000
     23     -53.7781      2.00000
     24     -53.7781      2.00000
     25     -53.7781      2.00000
     26     -53.7780      2.00000
     27     -53.7780      2.00000
     28     -53.7267      2.00000
     29     -53.7267      2.00000
     30     -53.7267      2.00000
     31     -53.7267      2.00000
     32     -53.7267      2.00000
     33     -53.7267      2.00000
     34     -53.7178      2.00000
     35     -53.7178      2.00000
     36     -53.7178      2.00000
     37     -53.7178      2.00000
     38     -53.7178      2.00000
     39     -53.7178      2.00000
     40     -53.7177      2.00000
     41     -53.7177      2.00000
     42     -53.7177      2.00000
     43     -53.7177      2.00000
     44     -53.7177      2.00000
     45     -53.7177      2.00000
     46     -53.7177      2.00000
     47     -53.7177      2.00000
     48     -53.7177      2.00000
     49     -53.7176      2.00000
     50     -53.7176      2.00000
     51     -53.7176      2.00000
     52     -53.7176      2.00000
     53     -53.7176      2.00000
     54     -53.7176      2.00000
     55     -53.7176      2.00000
     56     -53.7175      2.00000
     57     -53.7175      2.00000
     58     -53.7099      2.00000
     59     -53.7098      2.00000
     60     -53.7098      2.00000
     61     -53.7098      2.00000
     62     -53.7097      2.00000
     63     -53.7097      2.00000
     64     -53.7097      2.00000
     65     -53.7097      2.00000
     66     -53.7097      2.00000
     67     -53.7097      2.00000
     68     -53.7096      2.00000
     69     -53.7096      2.00000
     70     -53.7096      2.00000
     71     -53.7096      2.00000
     72     -53.7096      2.00000
     73     -53.7096      2.00000
     74     -53.7096      2.00000
     75     -53.7096      2.00000
     76     -53.7096      2.00000
     77     -53.7095      2.00000
     78     -53.7095      2.00000
     79     -53.7095      2.00000
     80     -53.7094      2.00000
     81     -53.7094      2.00000
     82     -53.7092      2.00000
     83     -53.7092      2.00000
     84     -53.7092      2.00000
     85     -53.7092      2.00000
     86     -53.7091      2.00000
     87     -53.7091      2.00000
     88     -53.7018      2.00000
     89     -53.7018      2.00000
     90     -53.7018      2.00000
     91     -53.7018      2.00000
     92     -53.7017      2.00000
     93     -53.7017      2.00000
     94     -53.7017      2.00000
     95     -53.7017      2.00000
     96     -53.7017      2.00000
     97     -53.7016      2.00000
     98     -53.7016      2.00000
     99     -53.7015      2.00000
    100     -53.6945      2.00000
    101     -53.6945      2.00000
    102     -53.6578      2.00000
    103     -53.6578      2.00000
    104     -53.6577      2.00000
    105     -53.6577      2.00000
    106     -53.6577      2.00000
    107     -53.6577      2.00000
    108     -53.6576      2.00000
    109     -53.6576      2.00000
    110     -53.6410      2.00000
    111     -53.6409      2.00000
    112     -53.6409      2.00000
    113     -53.6409      2.00000
    114     -53.6409      2.00000
    115     -53.6408      2.00000
    116     -53.6408      2.00000
    117     -53.6408      2.00000
    118     -53.6407      2.00000
    119     -53.6407      2.00000
    120     -53.6407      2.00000
    121     -53.6406      2.00000
    122     -53.6140      2.00000
    123     -53.6139      2.00000
    124     -53.6139      2.00000
    125     -53.6138      2.00000
    126     -53.6138      2.00000
    127     -53.6137      2.00000
    128     -53.5700      2.00000
    129     -28.1346      2.00000
    130     -28.1346      2.00000
    131     -28.1346      2.00000
    132     -28.1346      2.00000
    133     -28.1346      2.00000
    134     -28.1346      2.00000
    135     -27.9982      2.00000
    136     -27.9982      2.00000
    137     -27.9982      2.00000
    138     -27.9982      2.00000
    139     -27.9981      2.00000
    140     -27.9981      2.00000
    141     -27.9981      2.00000
    142     -27.9981      2.00000
    143     -27.9981      2.00000
    144     -27.9981      2.00000
    145     -27.9980      2.00000
    146     -27.9980      2.00000
    147     -27.9907      2.00000
    148     -27.9907      2.00000
    149     -27.9907      2.00000
    150     -27.9907      2.00000
    151     -27.9907      2.00000
    152     -27.9907      2.00000
    153     -27.9906      2.00000
    154     -27.9906      2.00000
    155     -27.9906      2.00000
    156     -27.9906      2.00000
    157     -27.9906      2.00000
    158     -27.9906      2.00000
    159     -27.9721      2.00000
    160     -27.9721      2.00000
    161     -27.9721      2.00000
    162     -27.9721      2.00000
    163     -27.9721      2.00000
    164     -27.9721      2.00000
    165     -27.9721      2.00000
    166     -27.9721      2.00000
    167     -27.9720      2.00000
    168     -27.9720      2.00000
    169     -27.9720      2.00000
    170     -27.9720      2.00000
    171     -27.9720      2.00000
    172     -27.9720      2.00000
    173     -27.9720      2.00000
    174     -27.9720      2.00000
    175     -27.9720      2.00000
    176     -27.9720      2.00000
    177     -27.9719      2.00000
    178     -27.9719      2.00000
    179     -27.9719      2.00000
    180     -27.9719      2.00000
    181     -27.9719      2.00000
    182     -27.9719      2.00000
    183     -27.9645      2.00000
    184     -27.9644      2.00000
    185     -27.9644      2.00000
    186     -27.9644      2.00000
    187     -27.9644      2.00000
    188     -27.9644      2.00000
    189     -27.9643      2.00000
    190     -27.9643      2.00000
    191     -27.9643      2.00000
    192     -27.9643      2.00000
    193     -27.9643      2.00000
    194     -27.9643      2.00000
    195     -27.9643      2.00000
    196     -27.9643      2.00000
    197     -27.9643      2.00000
    198     -27.9643      2.00000
    199     -27.9643      2.00000
    200     -27.9643      2.00000
    201     -27.9642      2.00000
    202     -27.9642      2.00000
    203     -27.9642      2.00000
    204     -27.9642      2.00000
    205     -27.9642      2.00000
    206     -27.9641      2.00000
    207     -27.8738      2.00000
    208     -27.8738      2.00000
    209     -27.8738      2.00000
    210     -27.8738      2.00000
    211     -27.8737      2.00000
    212     -27.8737      2.00000
    213     -27.8737      2.00000
    214     -27.8737      2.00000
    215     -27.8737      2.00000
    216     -27.8737      2.00000
    217     -27.8736      2.00000
    218     -27.8736      2.00000
    219     -27.8736      2.00000
    220     -27.8736      2.00000
    221     -27.8736      2.00000
    222     -27.8736      2.00000
    223     -27.8434      2.00000
    224     -27.8433      2.00000
    225     -27.8433      2.00000
    226     -27.8383      2.00000
    227     -27.8383      2.00000
    228     -27.8383      2.00000
    229     -27.8382      2.00000
    230     -27.8382      2.00000
    231     -27.8382      2.00000
    232     -27.8171      2.00000
    233     -27.8171      2.00000
    234     -27.8170      2.00000
    235     -27.8170      2.00000
    236     -27.8170      2.00000
    237     -27.8170      2.00000
    238     -27.8170      2.00000
    239     -27.8170      2.00000
    240     -27.7477      2.00000
    241     -27.7476      2.00000
    242     -27.7476      2.00000
    243     -27.7476      2.00000
    244     -27.7476      2.00000
    245     -27.7476      2.00000
    246     -27.7475      2.00000
    247     -27.7475      2.00000
    248     -27.7475      2.00000
    249     -27.7475      2.00000
    250     -27.7474      2.00000
    251     -27.7474      2.00000
    252     -27.7044      2.00000
    253     -27.7044      2.00000
    254     -27.7044      2.00000
    255     -27.7044      2.00000
    256     -27.7044      2.00000
    257     -27.7044      2.00000
    258     -27.6862      2.00000
    259     -27.6862      2.00000
    260     -27.6861      2.00000
    261     -27.6861      2.00000
    262     -27.6861      2.00000
    263     -27.6861      2.00000
    264     -27.6861      2.00000
    265     -27.6861      2.00000
    266     -27.6861      2.00000
    267     -27.6861      2.00000
    268     -27.6861      2.00000
    269     -27.6860      2.00000
    270     -27.6760      2.00000
    271     -27.6760      2.00000
    272     -27.6760      2.00000
    273     -27.6760      2.00000
    274     -27.6760      2.00000
    275     -27.6759      2.00000
    276     -27.6759      2.00000
    277     -27.6759      2.00000
    278     -27.6759      2.00000
    279     -27.6759      2.00000
    280     -27.6759      2.00000
    281     -27.6758      2.00000
    282     -27.6728      2.00000
    283     -27.6728      2.00000
    284     -27.6728      2.00000
    285     -27.6728      2.00000
    286     -27.6728      2.00000
    287     -27.6728      2.00000
    288     -27.5967      2.00000
    289     -27.5967      2.00000
    290     -27.5967      2.00000
    291     -27.5967      2.00000
    292     -27.5967      2.00000
    293     -27.5967      2.00000
    294     -27.5966      2.00000
    295     -27.5966      2.00000
    296     -27.5966      2.00000
    297     -27.5966      2.00000
    298     -27.5966      2.00000
    299     -27.5966      2.00000
    300     -27.5966      2.00000
    301     -27.5966      2.00000
    302     -27.5966      2.00000
    303     -27.5966      2.00000
    304     -27.5966      2.00000
    305     -27.5966      2.00000
    306     -27.5966      2.00000
    307     -27.5966      2.00000
    308     -27.5966      2.00000
    309     -27.5966      2.00000
    310     -27.5966      2.00000
    311     -27.5966      2.00000
    312     -27.5887      2.00000
    313     -27.5887      2.00000
    314     -27.5886      2.00000
    315     -27.5886      2.00000
    316     -27.5886      2.00000
    317     -27.5886      2.00000
    318     -27.5886      2.00000
    319     -27.5886      2.00000
    320     -27.5886      2.00000
    321     -27.5886      2.00000
    322     -27.5885      2.00000
    323     -27.5885      2.00000
    324     -27.5396      2.00000
    325     -27.5396      2.00000
    326     -27.5396      2.00000
    327     -27.5396      2.00000
    328     -27.5396      2.00000
    329     -27.5396      2.00000
    330     -27.5396      2.00000
    331     -27.5396      2.00000
    332     -27.5396      2.00000
    333     -27.5395      2.00000
    334     -27.5395      2.00000
    335     -27.5395      2.00000
    336     -27.5208      2.00000
    337     -27.5208      2.00000
    338     -27.5208      2.00000
    339     -27.5208      2.00000
    340     -27.5208      2.00000
    341     -27.5208      2.00000
    342     -27.5208      2.00000
    343     -27.5208      2.00000
    344     -27.5208      2.00000
    345     -27.5208      2.00000
    346     -27.5208      2.00000
    347     -27.5208      2.00000
    348     -27.5122      2.00000
    349     -27.5122      2.00000
    350     -27.5121      2.00000
    351     -27.5121      2.00000
    352     -27.5121      2.00000
    353     -27.5121      2.00000
    354     -27.5121      2.00000
    355     -27.5121      2.00000
    356     -27.5121      2.00000
    357     -27.5121      2.00000
    358     -27.5121      2.00000
    359     -27.5120      2.00000
    360     -27.5120      2.00000
    361     -27.5120      2.00000
    362     -27.5120      2.00000
    363     -27.5120      2.00000
    364     -27.5120      2.00000
    365     -27.5120      2.00000
    366     -27.5120      2.00000
    367     -27.5120      2.00000
    368     -27.5119      2.00000
    369     -27.5119      2.00000
    370     -27.5119      2.00000
    371     -27.5118      2.00000
    372     -27.5035      2.00000
    373     -27.5035      2.00000
    374     -27.5035      2.00000
    375     -27.5035      2.00000
    376     -27.5035      2.00000
    377     -27.5035      2.00000
    378     -27.3981      2.00000
    379     -27.3981      2.00000
    380     -27.3981      2.00000
    381     -27.3981      2.00000
    382     -27.3980      2.00000
    383     -27.3980      2.00000
    384     -27.3893      2.00000
    385     -27.3893      2.00000
    386     -27.3893      2.00000
    387     -27.3893      2.00000
    388     -27.3893      2.00000
    389     -27.3893      2.00000
    390     -27.3893      2.00000
    391     -27.3892      2.00000
    392     -27.3619      2.00000
    393     -27.3619      2.00000
    394     -27.3619      2.00000
    395     -27.3619      2.00000
    396     -27.3619      2.00000
    397     -27.3618      2.00000
    398     -27.3618      2.00000
    399     -27.3618      2.00000
    400     -27.3618      2.00000
    401     -27.3618      2.00000
    402     -27.3617      2.00000
    403     -27.3617      2.00000
    404     -27.3532      2.00000
    405     -27.3532      2.00000
    406     -27.3532      2.00000
    407     -27.3532      2.00000
    408     -27.3531      2.00000
    409     -27.3531      2.00000
    410     -27.3531      2.00000
    411     -27.3531      2.00000
    412     -27.3531      2.00000
    413     -27.3531      2.00000
    414     -27.3531      2.00000
    415     -27.3530      2.00000
    416     -27.3284      2.00000
    417     -27.3284      2.00000
    418     -27.3284      2.00000
    419     -27.3284      2.00000
    420     -27.3284      2.00000
    421     -27.3284      2.00000
    422     -27.3283      2.00000
    423     -27.3283      2.00000
    424     -27.3283      2.00000
    425     -27.3283      2.00000
    426     -27.3283      2.00000
    427     -27.3283      2.00000
    428     -27.3282      2.00000
    429     -27.3282      2.00000
    430     -27.3282      2.00000
    431     -27.3282      2.00000
    432     -27.3200      2.00000
    433     -27.3200      2.00000
    434     -27.3200      2.00000
    435     -27.3199      2.00000
    436     -27.3199      2.00000
    437     -27.3199      2.00000
    438     -27.3199      2.00000
    439     -27.3199      2.00000
    440     -27.3199      2.00000
    441     -27.3199      2.00000
    442     -27.3199      2.00000
    443     -27.3199      2.00000
    444     -27.3199      2.00000
    445     -27.3199      2.00000
    446     -27.3199      2.00000
    447     -27.3199      2.00000
    448     -27.3198      2.00000
    449     -27.3198      2.00000
    450     -27.3198      2.00000
    451     -27.3198      2.00000
    452     -27.3198      2.00000
    453     -27.3197      2.00000
    454     -27.3197      2.00000
    455     -27.3197      2.00000
    456     -27.3114      2.00000
    457     -27.3114      2.00000
    458     -27.3114      2.00000
    459     -27.3114      2.00000
    460     -27.3114      2.00000
    461     -27.3114      2.00000
    462     -27.3113      2.00000
    463     -27.3113      2.00000
    464     -27.3113      2.00000
    465     -27.3113      2.00000
    466     -27.3113      2.00000
    467     -27.3113      2.00000
    468     -27.3113      2.00000
    469     -27.3113      2.00000
    470     -27.3113      2.00000
    471     -27.3113      2.00000
    472     -27.3113      2.00000
    473     -27.3113      2.00000
    474     -27.3112      2.00000
    475     -27.3112      2.00000
    476     -27.3112      2.00000
    477     -27.3112      2.00000
    478     -27.3112      2.00000
    479     -27.3112      2.00000
    480     -27.3042      2.00000
    481     -27.3041      2.00000
    482     -27.3041      2.00000
    483     -27.3041      2.00000
    484     -27.3041      2.00000
    485     -27.3041      2.00000
    486     -27.3041      2.00000
    487     -27.3040      2.00000
    488     -27.3040      2.00000
    489     -27.3040      2.00000
    490     -27.3039      2.00000
    491     -27.3039      2.00000
    492     -27.2234      2.00000
    493     -27.2234      2.00000
    494     -27.2234      2.00000
    495     -27.2234      2.00000
    496     -27.2234      2.00000
    497     -27.2234      2.00000
    498     -27.2203      2.00000
    499     -27.2202      2.00000
    500     -27.2202      2.00000
    501     -27.2202      2.00000
    502     -27.2202      2.00000
    503     -27.2202      2.00000
    504     -27.2202      2.00000
    505     -27.2202      2.00000
    506     -27.2202      2.00000
    507     -27.2202      2.00000
    508     -27.2201      2.00000
    509     -27.2201      2.00000
    510     -27.2173      2.00000
    511     -27.2173      2.00000
    512     -27.2173      2.00000
    513       3.1777      2.00000
    514       4.3803      2.00000
    515       4.3804      2.00000
    516       4.3805      2.00000
    517       4.3805      2.00000
    518       4.3806      2.00000
    519       4.3807      2.00000
    520       5.3334      2.00000
    521       5.3335      2.00000
    522       5.3335      2.00000
    523       5.3336      2.00000
    524       5.3336      2.00000
    525       5.3336      2.00000
    526       5.3336      2.00000
    527       5.3337      2.00000
    528       5.3337      2.00000
    529       5.3337      2.00000
    530       5.3338      2.00000
    531       5.3339      2.00000
    532       6.3119      2.00000
    533       6.3119      2.00000
    534       6.3120      2.00000
    535       6.3120      2.00000
    536       6.3121      2.00000
    537       6.3121      2.00000
    538       6.3122      2.00000
    539       6.3122      2.00000
    540       6.5911      2.00000
    541       6.5911      2.00000
    542       6.5911      2.00000
    543       6.5911      2.00000
    544       6.5911      2.00000
    545       6.5911      2.00000
    546       6.7633      2.00000
    547       6.7633      2.00000
    548       6.8724      2.00000
    549       6.8724      2.00000
    550       6.8724      2.00000
    551       6.8724      2.00000
    552       6.8724      2.00000
    553       6.8724      2.00000
    554       6.9206      2.00000
    555       6.9206      2.00000
    556       6.9206      2.00000
    557       6.9206      2.00000
    558       6.9206      2.00000
    559       6.9206      2.00000
    560       6.9207      2.00000
    561       6.9207      2.00000
    562       6.9207      2.00000
    563       6.9207      2.00000
    564       6.9207      2.00000
    565       6.9207      2.00000
    566       6.9207      2.00000
    567       6.9207      2.00000
    568       6.9207      2.00000
    569       6.9208      2.00000
    570       6.9208      2.00000
    571       6.9208      2.00000
    572       6.9208      2.00000
    573       6.9208      2.00000
    574       6.9208      2.00000
    575       6.9208      2.00000
    576       6.9209      2.00000
    577       6.9209      2.00000
    578       7.3241      2.00000
    579       7.3241      2.00000
    580       7.3241      2.00000
    581       7.3242      2.00000
    582       7.3242      2.00000
    583       7.3243      2.00000
    584       7.4313      2.00000
    585       7.4313      2.00000
    586       7.4313      2.00000
    587       7.4314      2.00000
    588       7.4314      2.00000
    589       7.4315      2.00000
    590       7.5139      2.00000
    591       7.5140      2.00000
    592       7.5140      2.00000
    593       7.5140      2.00000
    594       7.5140      2.00000
    595       7.5140      2.00000
    596       7.5140      2.00000
    597       7.5140      2.00000
    598       7.5141      2.00000
    599       7.5141      2.00000
    600       7.5141      2.00000
    601       7.5141      2.00000
    602       7.5368      2.00000
    603       7.5369      2.00000
    604       7.5369      2.00000
    605       7.5369      2.00000
    606       7.5369      2.00000
    607       7.5370      2.00000
    608       7.5370      2.00000
    609       7.5370      2.00000
    610       7.5370      2.00000
    611       7.5370      2.00000
    612       7.5371      2.00000
    613       7.5371      2.00000
    614       7.6109      2.00000
    615       7.6109      2.00000
    616       7.6109      2.00000
    617       7.6109      2.00000
    618       7.6109      2.00000
    619       7.6109      2.00000
    620       7.6110      2.00000
    621       7.6110      2.00000
    622       7.6110      2.00000
    623       7.6110      2.00000
    624       7.6110      2.00000
    625       7.6110      2.00000
    626       7.6110      2.00000
    627       7.6110      2.00000
    628       7.6110      2.00000
    629       7.6110      2.00000
    630       7.6110      2.00000
    631       7.6110      2.00000
    632       7.6111      2.00000
    633       7.6111      2.00000
    634       7.6111      2.00000
    635       7.6111      2.00000
    636       7.6111      2.00000
    637       7.6111      2.00000
    638       8.1806      2.00000
    639       8.1806      2.00000
    640       8.1806      2.00000
    641       8.1807      2.00000
    642       8.1807      2.00000
    643       8.1807      2.00000
    644       8.1807      2.00000
    645       8.1807      2.00000
    646       8.1808      2.00000
    647       8.1808      2.00000
    648       8.1808      2.00000
    649       8.1809      2.00000
    650       8.3518      2.00000
    651       8.3518      2.00000
    652       8.3518      2.00000
    653       8.3518      2.00000
    654       8.3519      2.00000
    655       8.3519      2.00000
    656       8.3519      2.00000
    657       8.3519      2.00000
    658       8.3519      2.00000
    659       8.3519      2.00000
    660       8.3519      2.00000
    661       8.3519      2.00000
    662       8.3520      2.00000
    663       8.3520      2.00000
    664       8.3520      2.00000
    665       8.3520      2.00000
    666       8.4928      2.00000
    667       8.4928      2.00000
    668       8.4928      2.00000
    669       8.4928      2.00000
    670       8.4929      2.00000
    671       8.4929      2.00000
    672       8.4929      2.00000
    673       8.4929      2.00000
    674       8.4929      2.00000
    675       8.4929      2.00000
    676       8.4929      2.00000
    677       8.4930      2.00000
    678       8.6215      2.00000
    679       8.6215      2.00000
    680       8.6216      2.00000
    681       8.6216      2.00000
    682       8.6216      2.00000
    683       8.6216      2.00000
    684       8.6216      2.00000
    685       8.6216      2.00000
    686       8.6216      2.00000
    687       8.6216      2.00000
    688       8.6216      2.00000
    689       8.6216      2.00000
    690       8.6217      2.00000
    691       8.6217      2.00000
    692       8.6217      2.00000
    693       8.6217      2.00000
    694       8.6217      2.00000
    695       8.6217      2.00000
    696       8.6217      2.00000
    697       8.6217      2.00000
    698       8.6217      2.00000
    699       8.6217      2.00000
    700       8.6217      2.00000
    701       8.6218      2.00000
    702       8.6510      2.00000
    703       8.6510      2.00000
    704       8.6510      2.00000
    705       8.6510      2.00000
    706       8.6510      2.00000
    707       8.6510      2.00000
    708       8.6646      2.00000
    709       8.6646      2.00000
    710       8.6646      2.00000
    711       8.6646      2.00000
    712       8.6646      2.00000
    713       8.6646      2.00000
    714       8.9746      2.00000
    715       8.9746      2.00000
    716       8.9746      2.00000
    717       8.9746      2.00000
    718       8.9746      2.00000
    719       8.9746      2.00000
    720       8.9746      2.00000
    721       8.9746      2.00000
    722       9.0343      2.00000
    723       9.0343      2.00000
    724       9.0343      2.00000
    725       9.0343      2.00000
    726       9.0343      2.00000
    727       9.0343      2.00000
    728       9.0343      2.00000
    729       9.0343      2.00000
    730       9.0343      2.00000
    731       9.0344      2.00000
    732       9.0344      2.00000
    733       9.0344      2.00000
    734       9.0344      2.00000
    735       9.0344      2.00000
    736       9.0344      2.00000
    737       9.0344      2.00000
    738       9.2088      2.00035
    739       9.2088      2.00035
    740       9.2088      2.00035
    741       9.2088      2.00035
    742       9.2088      2.00035
    743       9.2088      2.00035
    744       9.3124      2.00414
    745       9.3125      2.00415
    746       9.3125      2.00415
    747       9.3125      2.00415
    748       9.3125      2.00415
    749       9.3125      2.00415
    750       9.3125      2.00415
    751       9.3125      2.00415
    752       9.3125      2.00415
    753       9.3125      2.00415
    754       9.3126      2.00415
    755       9.3126      2.00415
    756       9.3126      2.00415
    757       9.3126      2.00415
    758       9.3126      2.00416
    759       9.3126      2.00416
    760       9.3126      2.00416
    761       9.3126      2.00416
    762       9.3126      2.00416
    763       9.3126      2.00416
    764       9.3126      2.00416
    765       9.3126      2.00416
    766       9.3127      2.00416
    767       9.3127      2.00416
    768       9.3385      2.00697
    769       9.3385      2.00697
    770       9.3385      2.00697
    771       9.3385      2.00697
    772       9.3385      2.00697
    773       9.3385      2.00698
    774       9.3386      2.00698
    775       9.3386      2.00698
    776       9.3386      2.00698
    777       9.3386      2.00698
    778       9.3386      2.00698
    779       9.3386      2.00698
    780       9.3386      2.00698
    781       9.3386      2.00699
    782       9.3386      2.00699
    783       9.3386      2.00699
    784       9.3386      2.00699
    785       9.3386      2.00699
    786       9.3387      2.00700
    787       9.3387      2.00700
    788       9.3387      2.00700
    789       9.3387      2.00700
    790       9.3387      2.00700
    791       9.3388      2.00701
    792       9.3731      2.01304
    793       9.3731      2.01304
    794       9.3732      2.01304
    795       9.3732      2.01305
    796       9.3732      2.01305
    797       9.3732      2.01305
    798       9.3732      2.01305
    799       9.3732      2.01306
    800       9.3732      2.01306
    801       9.3732      2.01306
    802       9.3732      2.01306
    803       9.3732      2.01307
    804       9.4527      2.04031
    805       9.4527      2.04031
    806       9.4527      2.04032
    807       9.4527      2.04032
    808       9.4527      2.04032
    809       9.4527      2.04033
    810       9.4527      2.04033
    811       9.4527      2.04033
    812       9.4528      2.04034
    813       9.4528      2.04034
    814       9.4528      2.04035
    815       9.4528      2.04035
    816       9.4528      2.04035
    817       9.4528      2.04035
    818       9.4528      2.04035
    819       9.4528      2.04036
    820       9.4528      2.04037
    821       9.4528      2.04037
    822       9.4528      2.04037
    823       9.4528      2.04038
    824       9.4529      2.04038
    825       9.4529      2.04038
    826       9.4529      2.04038
    827       9.4529      2.04039
    828       9.7654      1.16855
    829       9.7654      1.16846
    830       9.7654      1.16839
    831       9.7654      1.16831
    832       9.7654      1.16830
    833       9.7654      1.16827
    834       9.7655      1.16820
    835       9.7655      1.16814
    836       9.7655      1.16811
    837       9.7655      1.16808
    838       9.7655      1.16807
    839       9.7655      1.16792
    840       9.8893      0.23871
    841       9.8894      0.23870
    842       9.8894      0.23858
    843       9.8894      0.23850
    844       9.8894      0.23840
    845       9.8894      0.23835
    846       9.8894      0.23833
    847       9.8894      0.23831
    848       9.8894      0.23820
    849       9.8895      0.23809
    850       9.8895      0.23802
    851       9.8895      0.23794
    852      10.1758     -0.01862
    853      10.1759     -0.01861
    854      10.1759     -0.01861
    855      10.1759     -0.01860
    856      10.1759     -0.01860
    857      10.1759     -0.01859
    858      10.1759     -0.01859
    859      10.1759     -0.01859
    860      10.1759     -0.01859
    861      10.1760     -0.01857
    862      10.1760     -0.01856
    863      10.1760     -0.01856
    864      10.2035     -0.01181
    865      10.2035     -0.01181
    866      10.2035     -0.01181
    867      10.5543     -0.00000
    868      10.5543     -0.00000
    869      10.5543     -0.00000
    870      10.5543     -0.00000
    871      10.5543     -0.00000
    872      10.5544     -0.00000
    873      10.5544     -0.00000
    874      10.5544     -0.00000
    875      10.5544     -0.00000
    876      10.5544     -0.00000
    877      10.5544     -0.00000
    878      10.5544     -0.00000
    879      10.6410     -0.00000
    880      10.6410     -0.00000
    881      10.6410     -0.00000
    882      10.6410     -0.00000
    883      10.6410     -0.00000
    884      10.6410     -0.00000
    885      10.6410     -0.00000
    886      10.6410     -0.00000
    887      10.6410     -0.00000
    888      10.6410     -0.00000
    889      10.6410     -0.00000
    890      10.6410     -0.00000
    891      10.6421     -0.00000
    892      10.6421     -0.00000
    893      10.6422     -0.00000
    894      10.6422     -0.00000
    895      10.6423     -0.00000
    896      10.6423     -0.00000
    897      11.2674     -0.00000
    898      11.2674     -0.00000
    899      11.2674     -0.00000
    900      11.2674     -0.00000
    901      11.2675     -0.00000
    902      11.2675     -0.00000
    903      11.3743     -0.00000
    904      11.3743     -0.00000
    905      11.3743     -0.00000
    906      11.3743     -0.00000
    907      11.3743     -0.00000
    908      11.3744     -0.00000
    909      11.3744     -0.00000
    910      11.3744     -0.00000
    911      11.3744     -0.00000
    912      11.3744     -0.00000
    913      11.3744     -0.00000
    914      11.3744     -0.00000
    915      11.4437     -0.00000
    916      11.4437     -0.00000
    917      11.4437     -0.00000
    918      11.4437     -0.00000
    919      11.4437     -0.00000
    920      11.4437     -0.00000
    921      11.6244     -0.00000
    922      11.6244     -0.00000
    923      11.6244     -0.00000
    924      11.6244     -0.00000
    925      11.6244     -0.00000
    926      11.6244     -0.00000
    927      11.6245     -0.00000
    928      11.6245     -0.00000
    929      11.6245     -0.00000
    930      11.6245     -0.00000
    931      11.6245     -0.00000
    932      11.6245     -0.00000
    933      11.6245     -0.00000
    934      11.6245     -0.00000
    935      11.6245     -0.00000
    936      11.6245     -0.00000
    937      11.6245     -0.00000
    938      11.6245     -0.00000
    939      11.6246     -0.00000
    940      11.6246     -0.00000
    941      11.6246     -0.00000
    942      11.6246     -0.00000
    943      11.6246     -0.00000
    944      11.6246     -0.00000
    945      11.7658     -0.00000
    946      11.7658     -0.00000
    947      11.7658     -0.00000
    948      11.7658     -0.00000
    949      11.7658     -0.00000
    950      11.7658     -0.00000
    951      11.8320     -0.00000
    952      11.8320     -0.00000
    953      11.8321     -0.00000
    954      11.8321     -0.00000
    955      11.8321     -0.00000
    956      11.8321     -0.00000
    957      11.8321     -0.00000
    958      11.8321     -0.00000
    959      11.8321     -0.00000
    960      11.8321     -0.00000
    961      11.8322     -0.00000
    962      11.8322     -0.00000
    963      11.8910     -0.00000
    964      11.8911     -0.00000
    965      11.8911     -0.00000
    966      11.8911     -0.00000
    967      11.8911     -0.00000
    968      11.8911     -0.00000
    969      11.8911     -0.00000
    970      11.8911     -0.00000
    971      11.8911     -0.00000
    972      11.8912     -0.00000
    973      11.8912     -0.00000
    974      11.8912     -0.00000
    975      12.0060     -0.00000
    976      12.0061     -0.00000
    977      12.0061     -0.00000
    978      12.0061     -0.00000
    979      12.0061     -0.00000
    980      12.0061     -0.00000
    981      12.0061     -0.00000
    982      12.0061     -0.00000
    983      12.0062     -0.00000
    984      12.0062     -0.00000
    985      12.0062     -0.00000
    986      12.0062     -0.00000
    987      12.0062     -0.00000
    988      12.0062     -0.00000
    989      12.0062     -0.00000
    990      12.0062     -0.00000
    991      12.0062     -0.00000
    992      12.0062     -0.00000
    993      12.0062     -0.00000
    994      12.0062     -0.00000
    995      12.0062     -0.00000
    996      12.0063     -0.00000
    997      12.0063     -0.00000
    998      12.0063     -0.00000
    999      12.1516     -0.00000
   1000      12.1516     -0.00000

 k-point     2 :       0.5000    0.0000    0.0000
  band No.  band energies     occupation 
      1     -53.8969      2.00000
      2     -53.8968      2.00000
      3     -53.8435      2.00000
      4     -53.8434      2.00000
      5     -53.8433      2.00000
      6     -53.8433      2.00000
      7     -53.8432      2.00000
      8     -53.8432      2.00000
      9     -53.8432      2.00000
     10     -53.8431      2.00000
     11     -53.8027      2.00000
     12     -53.8027      2.00000
     13     -53.8026      2.00000
     14     -53.8026      2.00000
     15     -53.8026      2.00000
     16     -53.8025      2.00000
     17     -53.8025      2.00000
     18     -53.8024      2.00000
     19     -53.7943      2.00000
     20     -53.7943      2.00000
     21     -53.7666      2.00000
     22     -53.7666      2.00000
     23     -53.7665      2.00000
     24     -53.7665      2.00000
     25     -53.7665      2.00000
     26     -53.7665      2.00000
     27     -53.7664      2.00000
     28     -53.7664      2.00000
     29     -53.7449      2.00000
     30     -53.7449      2.00000
     31     -53.7448      2.00000
     32     -53.7448      2.00000
     33     -53.7448      2.00000
     34     -53.7448      2.00000
     35     -53.7447      2.00000
     36     -53.7447      2.00000
     37     -53.7241      2.00000
     38     -53.7240      2.00000
     39     -53.7240      2.00000
     40     -53.7240      2.00000
     41     -53.7239      2.00000
     42     -53.7239      2.00000
     43     -53.7239      2.00000
     44     -53.7239      2.00000
     45     -53.7156      2.00000
     46     -53.7156      2.00000
     47     -53.7155      2.00000
     48     -53.7155      2.00000
     49     -53.7155      2.00000
     50     -53.7154      2.00000
     51     -53.7154      2.00000
     52     -53.7154      2.00000
     53     -53.7154      2.00000
     54     -53.7153      2.00000
     55     -53.7153      2.00000
     56     -53.7153      2.00000
     57     -53.7153      2.00000
     58     -53.7153      2.00000
     59     -53.7152      2.00000
     60     -53.7152      2.00000
     61     -53.7118      2.00000
     62     -53.7118      2.00000
     63     -53.7118      2.00000
     64     -53.7118      2.00000
     65     -53.7117      2.00000
     66     -53.7117      2.00000
     67     -53.7117      2.00000
     68     -53.7117      2.00000
     69     -53.7071      2.00000
     70     -53.7071      2.00000
     71     -53.7070      2.00000
     72     -53.7070      2.00000
     73     -53.7041      2.00000
     74     -53.7041      2.00000
     75     -53.7040      2.00000
     76     -53.7040      2.00000
     77     -53.7040      2.00000
     78     -53.7040      2.00000
     79     -53.7040      2.00000
     80     -53.7040      2.00000
     81     -53.7039      2.00000
     82     -53.7039      2.00000
     83     -53.7039      2.00000
     84     -53.7039      2.00000
     85     -53.7039      2.00000
     86     -53.7039      2.00000
     87     -53.7038      2.00000
     88     -53.7037      2.00000
     89     -53.6959      2.00000
     90     -53.6959      2.00000
     91     -53.6958      2.00000
     92     -53.6958      2.00000
     93     -53.6795      2.00000
     94     -53.6795      2.00000
     95     -53.6795      2.00000
     96     -53.6795      2.00000
     97     -53.6794      2.00000
     98     -53.6794      2.00000
     99     -53.6794      2.00000
    100     -53.6794      2.00000
    101     -53.6743      2.00000
    102     -53.6743      2.00000
    103     -53.6742      2.00000
    104     -53.6742      2.00000
    105     -53.6742      2.00000
    106     -53.6742      2.00000
    107     -53.6741      2.00000
    108     -53.6741      2.00000
    109     -53.6635      2.00000
    110     -53.6635      2.00000
    111     -53.6450      2.00000
    112     -53.6450      2.00000
    113     -53.6449      2.00000
    114     -53.6449      2.00000
    115     -53.6449      2.00000
    116     -53.6449      2.00000
    117     -53.6448      2.00000
    118     -53.6448      2.00000
    119     -53.6204      2.00000
    120     -53.6203      2.00000
    121     -53.6202      2.00000
    122     -53.6202      2.00000
    123     -53.6201      2.00000
    124     -53.6201      2.00000
    125     -53.6201      2.00000
    126     -53.6200      2.00000
    127     -53.5822      2.00000
    128     -53.5821      2.00000
    129     -28.0991      2.00000
    130     -28.0991      2.00000
    131     -28.0990      2.00000
    132     -28.0990      2.00000
    133     -28.0909      2.00000
    134     -28.0909      2.00000
    135     -28.0909      2.00000
    136     -28.0909      2.00000
    137     -28.0908      2.00000
    138     -28.0908      2.00000
    139     -28.0908      2.00000
    140     -28.0908      2.00000
    141     -28.0176      2.00000
    142     -28.0176      2.00000
    143     -28.0175      2.00000
    144     -28.0175      2.00000
    145     -28.0175      2.00000
    146     -28.0175      2.00000
    147     -28.0174      2.00000
    148     -28.0174      2.00000
    149     -27.9839      2.00000
    150     -27.9839      2.00000
    151     -27.9839      2.00000
    152     -27.9839      2.00000
    153     -27.9839      2.00000
    154     -27.9838      2.00000
    155     -27.9838      2.00000
    156     -27.9838      2.00000
    157     -27.9838      2.00000
    158     -27.9838      2.00000
    159     -27.9838      2.00000
    160     -27.9837      2.00000
    161     -27.9837      2.00000
    162     -27.9837      2.00000
    163     -27.9837      2.00000
    164     -27.9837      2.00000
    165     -27.9666      2.00000
    166     -27.9666      2.00000
    167     -27.9665      2.00000
    168     -27.9664      2.00000
    169     -27.9664      2.00000
    170     -27.9664      2.00000
    171     -27.9664      2.00000
    172     -27.9664      2.00000
    173     -27.9663      2.00000
    174     -27.9663      2.00000
    175     -27.9663      2.00000
    176     -27.9663      2.00000
    177     -27.9663      2.00000
    178     -27.9663      2.00000
    179     -27.9662      2.00000
    180     -27.9662      2.00000
    181     -27.9602      2.00000
    182     -27.9601      2.00000
    183     -27.9601      2.00000
    184     -27.9601      2.00000
    185     -27.9600      2.00000
    186     -27.9600      2.00000
    187     -27.9600      2.00000
    188     -27.9600      2.00000
    189     -27.9511      2.00000
    190     -27.9511      2.00000
    191     -27.9511      2.00000
    192     -27.9511      2.00000
    193     -27.9511      2.00000
    194     -27.9511      2.00000
    195     -27.9511      2.00000
    196     -27.9511      2.00000
    197     -27.9127      2.00000
    198     -27.9126      2.00000
    199     -27.9126      2.00000
    200     -27.9126      2.00000
    201     -27.9126      2.00000
    202     -27.9126      2.00000
    203     -27.9126      2.00000
    204     -27.9126      2.00000
    205     -27.9114      2.00000
    206     -27.9114      2.00000
    207     -27.9114      2.00000
    208     -27.9114      2.00000
    209     -27.9114      2.00000
    210     -27.9114      2.00000
    211     -27.9114      2.00000
    212     -27.9114      2.00000
    213     -27.8540      2.00000
    214     -27.8540      2.00000
    215     -27.8540      2.00000
    216     -27.8540      2.00000
    217     -27.8540      2.00000
    218     -27.8540      2.00000
    219     -27.8539      2.00000
    220     -27.8539      2.00000
    221     -27.8479      2.00000
    222     -27.8479      2.00000
    223     -27.8479      2.00000
    224     -27.8479      2.00000
    225     -27.8453      2.00000
    226     -27.8452      2.00000
    227     -27.8189      2.00000
    228     -27.8189      2.00000
    229     -27.8188      2.00000
    230     -27.8188      2.00000
    231     -27.8142      2.00000
    232     -27.8142      2.00000
    233     -27.8142      2.00000
    234     -27.8142      2.00000
    235     -27.8141      2.00000
    236     -27.8141      2.00000
    237     -27.8141      2.00000
    238     -27.8141      2.00000
    239     -27.7978      2.00000
    240     -27.7978      2.00000
    241     -27.7589      2.00000
    242     -27.7589      2.00000
    243     -27.7588      2.00000
    244     -27.7588      2.00000
    245     -27.7588      2.00000
    246     -27.7588      2.00000
    247     -27.7588      2.00000
    248     -27.7587      2.00000
    249     -27.7455      2.00000
    250     -27.7455      2.00000
    251     -27.7455      2.00000
    252     -27.7455      2.00000
    253     -27.7455      2.00000
    254     -27.7455      2.00000
    255     -27.7455      2.00000
    256     -27.7455      2.00000
    257     -27.7286      2.00000
    258     -27.7286      2.00000
    259     -27.7286      2.00000
    260     -27.7285      2.00000
    261     -27.7285      2.00000
    262     -27.7285      2.00000
    263     -27.7285      2.00000
    264     -27.7284      2.00000
    265     -27.7255      2.00000
    266     -27.7255      2.00000
    267     -27.7254      2.00000
    268     -27.7254      2.00000
    269     -27.7254      2.00000
    270     -27.7254      2.00000
    271     -27.7254      2.00000
    272     -27.7254      2.00000
    273     -27.6609      2.00000
    274     -27.6609      2.00000
    275     -27.6608      2.00000
    276     -27.6608      2.00000
    277     -27.6608      2.00000
    278     -27.6608      2.00000
    279     -27.6608      2.00000
    280     -27.6607      2.00000
    281     -27.6476      2.00000
    282     -27.6476      2.00000
    283     -27.6475      2.00000
    284     -27.6475      2.00000
    285     -27.6423      2.00000
    286     -27.6423      2.00000
    287     -27.6423      2.00000
    288     -27.6423      2.00000
    289     -27.6009      2.00000
    290     -27.6009      2.00000
    291     -27.6009      2.00000
    292     -27.6009      2.00000
    293     -27.6009      2.00000
    294     -27.6009      2.00000
    295     -27.6009      2.00000
    296     -27.6008      2.00000
    297     -27.6008      2.00000
    298     -27.6008      2.00000
    299     -27.6008      2.00000
    300     -27.6008      2.00000
    301     -27.6008      2.00000
    302     -27.6008      2.00000
    303     -27.6008      2.00000
    304     -27.6007      2.00000
    305     -27.5991      2.00000
    306     -27.5991      2.00000
    307     -27.5991      2.00000
    308     -27.5991      2.00000
    309     -27.5991      2.00000
    310     -27.5990      2.00000
    311     -27.5990      2.00000
    312     -27.5990      2.00000
    313     -27.5606      2.00000
    314     -27.5606      2.00000
    315     -27.5475      2.00000
    316     -27.5475      2.00000
    317     -27.5474      2.00000
    318     -27.5474      2.00000
    319     -27.5474      2.00000
    320     -27.5474      2.00000
    321     -27.5474      2.00000
    322     -27.5474      2.00000
    323     -27.5474      2.00000
    324     -27.5474      2.00000
    325     -27.5473      2.00000
    326     -27.5473      2.00000
    327     -27.5473      2.00000
    328     -27.5473      2.00000
    329     -27.5473      2.00000
    330     -27.5472      2.00000
    331     -27.5286      2.00000
    332     -27.5286      2.00000
    333     -27.5284      2.00000
    334     -27.5284      2.00000
    335     -27.5183      2.00000
    336     -27.5183      2.00000
    337     -27.5183      2.00000
    338     -27.5183      2.00000
    339     -27.5182      2.00000
    340     -27.5182      2.00000
    341     -27.5182      2.00000
    342     -27.5182      2.00000
    343     -27.5102      2.00000
    344     -27.5102      2.00000
    345     -27.5102      2.00000
    346     -27.5102      2.00000
    347     -27.5102      2.00000
    348     -27.5102      2.00000
    349     -27.5102      2.00000
    350     -27.5101      2.00000
    351     -27.5060      2.00000
    352     -27.5060      2.00000
    353     -27.5060      2.00000
    354     -27.5060      2.00000
    355     -27.5059      2.00000
    356     -27.5059      2.00000
    357     -27.5059      2.00000
    358     -27.5059      2.00000
    359     -27.4983      2.00000
    360     -27.4983      2.00000
    361     -27.4983      2.00000
    362     -27.4983      2.00000
    363     -27.4715      2.00000
    364     -27.4715      2.00000
    365     -27.4715      2.00000
    366     -27.4715      2.00000
    367     -27.4715      2.00000
    368     -27.4715      2.00000
    369     -27.4714      2.00000
    370     -27.4714      2.00000
    371     -27.4504      2.00000
    372     -27.4504      2.00000
    373     -27.4504      2.00000
    374     -27.4504      2.00000
    375     -27.4504      2.00000
    376     -27.4504      2.00000
    377     -27.4504      2.00000
    378     -27.4504      2.00000
    379     -27.4307      2.00000
    380     -27.4307      2.00000
    381     -27.4307      2.00000
    382     -27.4307      2.00000
    383     -27.4307      2.00000
    384     -27.4307      2.00000
    385     -27.4307      2.00000
    386     -27.4307      2.00000
    387     -27.4291      2.00000
    388     -27.4291      2.00000
    389     -27.4291      2.00000
    390     -27.4291      2.00000
    391     -27.4290      2.00000
    392     -27.4290      2.00000
    393     -27.4290      2.00000
    394     -27.4290      2.00000
    395     -27.4221      2.00000
    396     -27.4221      2.00000
    397     -27.4220      2.00000
    398     -27.4220      2.00000
    399     -27.4220      2.00000
    400     -27.4220      2.00000
    401     -27.4220      2.00000
    402     -27.4220      2.00000
    403     -27.4023      2.00000
    404     -27.4023      2.00000
    405     -27.4023      2.00000
    406     -27.4023      2.00000
    407     -27.3508      2.00000
    408     -27.3508      2.00000
    409     -27.3507      2.00000
    410     -27.3507      2.00000
    411     -27.3507      2.00000
    412     -27.3507      2.00000
    413     -27.3506      2.00000
    414     -27.3506      2.00000
    415     -27.3357      2.00000
    416     -27.3356      2.00000
    417     -27.3356      2.00000
    418     -27.3356      2.00000
    419     -27.3356      2.00000
    420     -27.3356      2.00000
    421     -27.3355      2.00000
    422     -27.3355      2.00000
    423     -27.3355      2.00000
    424     -27.3355      2.00000
    425     -27.3355      2.00000
    426     -27.3355      2.00000
    427     -27.3354      2.00000
    428     -27.3354      2.00000
    429     -27.3354      2.00000
    430     -27.3354      2.00000
    431     -27.3353      2.00000
    432     -27.3352      2.00000
    433     -27.3352      2.00000
    434     -27.3352      2.00000
    435     -27.3352      2.00000
    436     -27.3352      2.00000
    437     -27.3352      2.00000
    438     -27.3352      2.00000
    439     -27.3189      2.00000
    440     -27.3189      2.00000
    441     -27.3188      2.00000
    442     -27.3188      2.00000
    443     -27.3188      2.00000
    444     -27.3187      2.00000
    445     -27.3187      2.00000
    446     -27.3187      2.00000
    447     -27.3118      2.00000
    448     -27.3118      2.00000
    449     -27.3118      2.00000
    450     -27.3118      2.00000
    451     -27.3118      2.00000
    452     -27.3118      2.00000
    453     -27.3118      2.00000
    454     -27.3118      2.00000
    455     -27.3105      2.00000
    456     -27.3105      2.00000
    457     -27.3104      2.00000
    458     -27.3104      2.00000
    459     -27.3104      2.00000
    460     -27.3104      2.00000
    461     -27.3104      2.00000
    462     -27.3104      2.00000
    463     -27.3103      2.00000
    464     -27.3103      2.00000
    465     -27.3103      2.00000
    466     -27.3103      2.00000
    467     -27.3103      2.00000
    468     -27.3103      2.00000
    469     -27.3102      2.00000
    470     -27.3102      2.00000
    471     -27.2673      2.00000
    472     -27.2672      2.00000
    473     -27.2572      2.00000
    474     -27.2572      2.00000
    475     -27.2571      2.00000
    476     -27.2571      2.00000
    477     -27.2482      2.00000
    478     -27.2482      2.00000
    479     -27.2482      2.00000
    480     -27.2482      2.00000
    481     -27.2482      2.00000
    482     -27.2482      2.00000
    483     -27.2481      2.00000
    484     -27.2481      2.00000
    485     -27.2481      2.00000
    486     -27.2481      2.00000
    487     -27.2481      2.00000
    488     -27.2481      2.00000
    489     -27.2481      2.00000
    490     -27.2481      2.00000
    491     -27.2480      2.00000
    492     -27.2480      2.00000
    493     -27.2479      2.00000
    494     -27.2479      2.00000
    495     -27.2479      2.00000
    496     -27.2479      2.00000
    497     -27.2478      2.00000
    498     -27.2478      2.00000
    499     -27.2478      2.00000
    500     -27.2478      2.00000
    501     -27.2476      2.00000
    502     -27.2475      2.00000
    503     -27.2475      2.00000
    504     -27.2475      2.00000
    505     -27.2475      2.00000
    506     -27.2475      2.00000
    507     -27.2474      2.00000
    508     -27.2474      2.00000
    509     -27.2397      2.00000
    510     -27.2397      2.00000
    511     -27.2396      2.00000
    512     -27.2396      2.00000
    513       3.4934      2.00000
    514       3.4935      2.00000
    515       4.6412      2.00000
    516       4.6413      2.00000
    517       4.6413      2.00000
    518       4.6413      2.00000
    519       4.6414      2.00000
    520       4.6414      2.00000
    521       4.6414      2.00000
    522       4.6416      2.00000
    523       5.6051      2.00000
    524       5.6051      2.00000
    525       5.6052      2.00000
    526       5.6052      2.00000
    527       5.6052      2.00000
    528       5.6052      2.00000
    529       5.6053      2.00000
    530       5.6053      2.00000
    531       5.6424      2.00000
    532       5.6425      2.00000
    533       6.1942      2.00000
    534       6.1942      2.00000
    535       6.1943      2.00000
    536       6.1943      2.00000
    537       6.1943      2.00000
    538       6.1943      2.00000
    539       6.1944      2.00000
    540       6.1944      2.00000
    541       6.6994      2.00000
    542       6.6994      2.00000
    543       6.6994      2.00000
    544       6.6994      2.00000
    545       6.6995      2.00000
    546       6.6995      2.00000
    547       6.6995      2.00000
    548       6.6995      2.00000
    549       6.8537      2.00000
    550       6.8537      2.00000
    551       6.8538      2.00000
    552       6.8538      2.00000
    553       6.9328      2.00000
    554       6.9329      2.00000
    555       6.9387      2.00000
    556       6.9388      2.00000
    557       6.9546      2.00000
    558       6.9546      2.00000
    559       6.9546      2.00000
    560       6.9546      2.00000
    561       6.9547      2.00000
    562       6.9547      2.00000
    563       6.9547      2.00000
    564       6.9547      2.00000
    565       7.0908      2.00000
    566       7.0908      2.00000
    567       7.0908      2.00000
    568       7.0908      2.00000
    569       7.0909      2.00000
    570       7.0909      2.00000
    571       7.0909      2.00000
    572       7.0909      2.00000
    573       7.1588      2.00000
    574       7.1588      2.00000
    575       7.1589      2.00000
    576       7.1589      2.00000
    577       7.1589      2.00000
    578       7.1589      2.00000
    579       7.1589      2.00000
    580       7.1589      2.00000
    581       7.1590      2.00000
    582       7.1590      2.00000
    583       7.1590      2.00000
    584       7.1590      2.00000
    585       7.1590      2.00000
    586       7.1590      2.00000
    587       7.1591      2.00000
    588       7.1591      2.00000
    589       7.3767      2.00000
    590       7.3767      2.00000
    591       7.3767      2.00000
    592       7.3767      2.00000
    593       7.3767      2.00000
    594       7.3767      2.00000
    595       7.3768      2.00000
    596       7.3768      2.00000
    597       7.4323      2.00000
    598       7.4324      2.00000
    599       7.4324      2.00000
    600       7.4324      2.00000
    601       7.4325      2.00000
    602       7.4325      2.00000
    603       7.4325      2.00000
    604       7.4326      2.00000
    605       7.4754      2.00000
    606       7.4754      2.00000
    607       7.6058      2.00000
    608       7.6059      2.00000
    609       7.6059      2.00000
    610       7.6059      2.00000
    611       7.6060      2.00000
    612       7.6060      2.00000
    613       7.6060      2.00000
    614       7.6061      2.00000
    615       7.6174      2.00000
    616       7.6175      2.00000
    617       7.6175      2.00000
    618       7.6175      2.00000
    619       7.6175      2.00000
    620       7.6175      2.00000
    621       7.6175      2.00000
    622       7.6176      2.00000
    623       7.6176      2.00000
    624       7.6176      2.00000
    625       7.6176      2.00000
    626       7.6176      2.00000
    627       7.6176      2.00000
    628       7.6176      2.00000
    629       7.6177      2.00000
    630       7.6177      2.00000
    631       7.7623      2.00000
    632       7.7623      2.00000
    633       7.7624      2.00000
    634       7.7624      2.00000
    635       7.7624      2.00000
    636       7.7624      2.00000
    637       7.7625      2.00000
    638       7.7625      2.00000
    639       8.1115      2.00000
    640       8.1115      2.00000
    641       8.1116      2.00000
    642       8.1116      2.00000
    643       8.1116      2.00000
    644       8.1116      2.00000
    645       8.1116      2.00000
    646       8.1116      2.00000
    647       8.2162      2.00000
    648       8.2163      2.00000
    649       8.2300      2.00000
    650       8.2300      2.00000
    651       8.2301      2.00000
    652       8.2301      2.00000
    653       8.2301      2.00000
    654       8.2301      2.00000
    655       8.2302      2.00000
    656       8.2302      2.00000
    657       8.3098      2.00000
    658       8.3098      2.00000
    659       8.3099      2.00000
    660       8.3099      2.00000
    661       8.4745      2.00000
    662       8.4745      2.00000
    663       8.4745      2.00000
    664       8.4745      2.00000
    665       8.4890      2.00000
    666       8.4890      2.00000
    667       8.4890      2.00000
    668       8.4890      2.00000
    669       8.4890      2.00000
    670       8.4891      2.00000
    671       8.4891      2.00000
    672       8.4891      2.00000
    673       8.5831      2.00000
    674       8.5831      2.00000
    675       8.5831      2.00000
    676       8.5831      2.00000
    677       8.5831      2.00000
    678       8.5831      2.00000
    679       8.5832      2.00000
    680       8.5832      2.00000
    681       8.5832      2.00000
    682       8.5832      2.00000
    683       8.5832      2.00000
    684       8.5832      2.00000
    685       8.5832      2.00000
    686       8.5832      2.00000
    687       8.5833      2.00000
    688       8.5833      2.00000
    689       8.5961      2.00000
    690       8.5961      2.00000
    691       8.5962      2.00000
    692       8.5962      2.00000
    693       8.7950      2.00000
    694       8.7950      2.00000
    695       8.7950      2.00000
    696       8.7950      2.00000
    697       8.7951      2.00000
    698       8.7951      2.00000
    699       8.7951      2.00000
    700       8.7951      2.00000
    701       8.8296      2.00000
    702       8.8296      2.00000
    703       8.8296      2.00000
    704       8.8296      2.00000
    705       8.8297      2.00000
    706       8.8297      2.00000
    707       8.8297      2.00000
    708       8.8297      2.00000
    709       8.8768      2.00000
    710       8.8768      2.00000
    711       8.8768      2.00000
    712       8.8768      2.00000
    713       8.8768      2.00000
    714       8.8769      2.00000
    715       8.8769      2.00000
    716       8.8769      2.00000
    717       8.9323      2.00000
    718       8.9323      2.00000
    719       8.9324      2.00000
    720       8.9324      2.00000
    721       8.9324      2.00000
    722       8.9324      2.00000
    723       8.9324      2.00000
    724       8.9324      2.00000
    725       8.9324      2.00000
    726       8.9324      2.00000
    727       8.9324      2.00000
    728       8.9324      2.00000
    729       8.9325      2.00000
    730       8.9325      2.00000
    731       8.9325      2.00000
    732       8.9325      2.00000
    733       9.0105      2.00000
    734       9.0105      2.00000
    735       9.0105      2.00000
    736       9.0105      2.00000
    737       9.0106      2.00000
    738       9.0106      2.00000
    739       9.0106      2.00000
    740       9.0106      2.00000
    741       9.0935      2.00001
    742       9.0935      2.00001
    743       9.0935      2.00001
    744       9.0935      2.00001
    745       9.0936      2.00001
    746       9.0936      2.00001
    747       9.0936      2.00001
    748       9.0936      2.00001
    749       9.1349      2.00004
    750       9.1349      2.00004
    751       9.1349      2.00004
    752       9.1349      2.00004
    753       9.1641      2.00010
    754       9.1641      2.00010
    755       9.1641      2.00010
    756       9.1641      2.00010
    757       9.1641      2.00010
    758       9.1641      2.00010
    759       9.1641      2.00010
    760       9.1641      2.00010
    761       9.2035      2.00031
    762       9.2035      2.00031
    763       9.2036      2.00031
    764       9.2036      2.00031
    765       9.2036      2.00031
    766       9.2036      2.00031
    767       9.2036      2.00031
    768       9.2036      2.00031
    769       9.2704      2.00165
    770       9.2704      2.00165
    771       9.2705      2.00165
    772       9.2705      2.00165
    773       9.2705      2.00165
    774       9.2706      2.00165
    775       9.2706      2.00165
    776       9.2706      2.00165
    777       9.4541      2.04096
    778       9.4541      2.04096
    779       9.4542      2.04097
    780       9.4542      2.04097
    781       9.4542      2.04099
    782       9.4542      2.04100
    783       9.4542      2.04101
    784       9.4543      2.04101
    785       9.5307      2.07022
    786       9.5307      2.07022
    787       9.5307      2.07023
    788       9.5307      2.07023
    789       9.5307      2.07023
    790       9.5307      2.07023
    791       9.5308      2.07023
    792       9.5308      2.07024
    793       9.5308      2.07024
    794       9.5308      2.07024
    795       9.5308      2.07024
    796       9.5308      2.07024
    797       9.5308      2.07024
    798       9.5308      2.07024
    799       9.5309      2.07025
    800       9.5309      2.07025
    801       9.5386      2.07089
    802       9.5386      2.07089
    803       9.5386      2.07089
    804       9.5386      2.07089
    805       9.5387      2.07089
    806       9.5387      2.07089
    807       9.5387      2.07089
    808       9.5387      2.07089
    809       9.5387      2.07089
    810       9.5387      2.07089
    811       9.5387      2.07089
    812       9.5387      2.07089
    813       9.5387      2.07089
    814       9.5387      2.07089
    815       9.5387      2.07089
    816       9.5387      2.07089
    817       9.7011      1.64802
    818       9.7011      1.64800
    819       9.7012      1.64785
    820       9.7012      1.64784
    821       9.7012      1.64782
    822       9.7012      1.64780
    823       9.7012      1.64764
    824       9.7012      1.64763
    825       9.7773      1.06896
    826       9.7773      1.06857
    827       9.7773      1.06846
    828       9.7774      1.06831
    829       9.7774      1.06817
    830       9.7774      1.06809
    831       9.7774      1.06788
    832       9.7774      1.06764
    833       9.8001      0.87627
    834       9.8001      0.87624
    835       9.8001      0.87597
    836       9.8001      0.87591
    837       9.8002      0.87585
    838       9.8002      0.87583
    839       9.8002      0.87556
    840       9.8002      0.87550
    841       9.8373      0.57685
    842       9.8373      0.57684
    843       9.8373      0.57679
    844       9.8373      0.57676
    845       9.8374      0.57651
    846       9.8374      0.57648
    847       9.8374      0.57643
    848       9.8374      0.57643
    849       9.9820     -0.04645
    850       9.9820     -0.04648
    851       9.9820     -0.04649
    852       9.9820     -0.04653
    853       9.9820     -0.04654
    854       9.9821     -0.04657
    855       9.9821     -0.04658
    856       9.9821     -0.04662
    857      10.0800     -0.05770
    858      10.0800     -0.05770
    859      10.0800     -0.05769
    860      10.0800     -0.05769
    861      10.0800     -0.05767
    862      10.0800     -0.05767
    863      10.0801     -0.05767
    864      10.0801     -0.05767
    865      10.1841     -0.01634
    866      10.1841     -0.01634
    867      10.1842     -0.01631
    868      10.1842     -0.01631
    869      10.2838     -0.00240
    870      10.2838     -0.00240
    871      10.2927     -0.00196
    872      10.2927     -0.00196
    873      10.2927     -0.00196
    874      10.2927     -0.00196
    875      10.3162     -0.00113
    876      10.3163     -0.00113
    877      10.5287     -0.00000
    878      10.5287     -0.00000
    879      10.5287     -0.00000
    880      10.5287     -0.00000
    881      10.5288     -0.00000
    882      10.5288     -0.00000
    883      10.5288     -0.00000
    884      10.5288     -0.00000
    885      10.8326     -0.00000
    886      10.8326     -0.00000
    887      10.8327     -0.00000
    888      10.8327     -0.00000
    889      11.0123     -0.00000
    890      11.0123     -0.00000
    891      11.0124     -0.00000
    892      11.0124     -0.00000
    893      11.0124     -0.00000
    894      11.0124     -0.00000
    895      11.0124     -0.00000
    896      11.0124     -0.00000
    897      11.1330     -0.00000
    898      11.1330     -0.00000
    899      11.1330     -0.00000
    900      11.1330     -0.00000
    901      11.1330     -0.00000
    902      11.1330     -0.00000
    903      11.1330     -0.00000
    904      11.1331     -0.00000
    905      11.1457     -0.00000
    906      11.1457     -0.00000
    907      11.2724     -0.00000
    908      11.2724     -0.00000
    909      11.2724     -0.00000
    910      11.2724     -0.00000
    911      11.3519     -0.00000
    912      11.3519     -0.00000
    913      11.3519     -0.00000
    914      11.3519     -0.00000
    915      11.3519     -0.00000
    916      11.3519     -0.00000
    917      11.3519     -0.00000
    918      11.3519     -0.00000
    919      11.4839     -0.00000
    920      11.4840     -0.00000
    921      11.4840     -0.00000
    922      11.4840     -0.00000
    923      11.4840     -0.00000
    924      11.4840     -0.00000
    925      11.4840     -0.00000
    926      11.4841     -0.00000
    927      11.5450     -0.00000
    928      11.5451     -0.00000
    929      11.5451     -0.00000
    930      11.5451     -0.00000
    931      11.5451     -0.00000
    932      11.5451     -0.00000
    933      11.5452     -0.00000
    934      11.5452     -0.00000
    935      11.7050     -0.00000
    936      11.7050     -0.00000
    937      11.7050     -0.00000
    938      11.7050     -0.00000
    939      11.7051     -0.00000
    940      11.7051     -0.00000
    941      11.7051     -0.00000
    942      11.7051     -0.00000
    943      11.7051     -0.00000
    944      11.7051     -0.00000
    945      11.7051     -0.00000
    946      11.7051     -0.00000
    947      11.7051     -0.00000
    948      11.7052     -0.00000
    949      11.7052     -0.00000
    950      11.7052     -0.00000
    951      11.7765     -0.00000
    952      11.7765     -0.00000
    953      11.7765     -0.00000
    954      11.7765     -0.00000
    955      11.7765     -0.00000
    956      11.7765     -0.00000
    957      11.7766     -0.00000
    958      11.7766     -0.00000
    959      11.8325     -0.00000
    960      11.8325     -0.00000
    961      11.8325     -0.00000
    962      11.8326     -0.00000
    963      11.8326     -0.00000
    964      11.8326     -0.00000
    965      11.8326     -0.00000
    966      11.8327     -0.00000
    967      11.9638     -0.00000
    968      11.9639     -0.00000
    969      11.9724     -0.00000
    970      11.9724     -0.00000
    971      11.9724     -0.00000
    972      11.9725     -0.00000
    973      11.9725     -0.00000
    974      11.9725     -0.00000
    975      11.9725     -0.00000
    976      11.9726     -0.00000
    977      11.9907     -0.00000
    978      11.9907     -0.00000
    979      11.9907     -0.00000
    980      11.9908     -0.00000
    981      11.9908     -0.00000
    982      11.9908     -0.00000
    983      11.9908     -0.00000
    984      11.9908     -0.00000
    985      12.0691     -0.00000
    986      12.0691     -0.00000
    987      12.0692     -0.00000
    988      12.0693     -0.00000
    989      12.0693     -0.00000
    990      12.0697     -0.00000
    991      12.0702     -0.00000
    992      12.0708     -0.00000
    993      12.1012     -0.00000
    994      12.1013     -0.00000
    995      12.1015     -0.00000
    996      12.1018     -0.00000
    997      12.1025     -0.00000
    998      12.1051     -0.00000
    999      12.1082     -0.00000
   1000      12.1175     -0.00000

 k-point     3 :       0.5000    0.5000    0.0000
  band No.  band energies     occupation 
      1     -53.8832      2.00000
      2     -53.8830      2.00000
      3     -53.8828      2.00000
      4     -53.8827      2.00000
      5     -53.8328      2.00000
      6     -53.8327      2.00000
      7     -53.8327      2.00000
      8     -53.8325      2.00000
      9     -53.8324      2.00000
     10     -53.8323      2.00000
     11     -53.8323      2.00000
     12     -53.8322      2.00000
     13     -53.7870      2.00000
     14     -53.7870      2.00000
     15     -53.7868      2.00000
     16     -53.7868      2.00000
     17     -53.7867      2.00000
     18     -53.7867      2.00000
     19     -53.7866      2.00000
     20     -53.7866      2.00000
     21     -53.7609      2.00000
     22     -53.7609      2.00000
     23     -53.7608      2.00000
     24     -53.7608      2.00000
     25     -53.7608      2.00000
     26     -53.7608      2.00000
     27     -53.7607      2.00000
     28     -53.7607      2.00000
     29     -53.7607      2.00000
     30     -53.7607      2.00000
     31     -53.7606      2.00000
     32     -53.7606      2.00000
     33     -53.7606      2.00000
     34     -53.7606      2.00000
     35     -53.7605      2.00000
     36     -53.7605      2.00000
     37     -53.7393      2.00000
     38     -53.7393      2.00000
     39     -53.7392      2.00000
     40     -53.7392      2.00000
     41     -53.7238      2.00000
     42     -53.7238      2.00000
     43     -53.7238      2.00000
     44     -53.7237      2.00000
     45     -53.7237      2.00000
     46     -53.7237      2.00000
     47     -53.7237      2.00000
     48     -53.7236      2.00000
     49     -53.7219      2.00000
     50     -53.7219      2.00000
     51     -53.7218      2.00000
     52     -53.7218      2.00000
     53     -53.7216      2.00000
     54     -53.7216      2.00000
     55     -53.7215      2.00000
     56     -53.7215      2.00000
     57     -53.7097      2.00000
     58     -53.7097      2.00000
     59     -53.7097      2.00000
     60     -53.7097      2.00000
     61     -53.7096      2.00000
     62     -53.7096      2.00000
     63     -53.7096      2.00000
     64     -53.7095      2.00000
     65     -53.7094      2.00000
     66     -53.7093      2.00000
     67     -53.7093      2.00000
     68     -53.7093      2.00000
     69     -53.7093      2.00000
     70     -53.7092      2.00000
     71     -53.7092      2.00000
     72     -53.7092      2.00000
     73     -53.6985      2.00000
     74     -53.6985      2.00000
     75     -53.6984      2.00000
     76     -53.6983      2.00000
     77     -53.6981      2.00000
     78     -53.6981      2.00000
     79     -53.6980      2.00000
     80     -53.6980      2.00000
     81     -53.6895      2.00000
     82     -53.6895      2.00000
     83     -53.6895      2.00000
     84     -53.6895      2.00000
     85     -53.6886      2.00000
     86     -53.6885      2.00000
     87     -53.6885      2.00000
     88     -53.6885      2.00000
     89     -53.6884      2.00000
     90     -53.6884      2.00000
     91     -53.6884      2.00000
     92     -53.6884      2.00000
     93     -53.6756      2.00000
     94     -53.6756      2.00000
     95     -53.6755      2.00000
     96     -53.6755      2.00000
     97     -53.6755      2.00000
     98     -53.6755      2.00000
     99     -53.6754      2.00000
    100     -53.6754      2.00000
    101     -53.6754      2.00000
    102     -53.6754      2.00000
    103     -53.6753      2.00000
    104     -53.6753      2.00000
    105     -53.6753      2.00000
    106     -53.6753      2.00000
    107     -53.6752      2.00000
    108     -53.6752      2.00000
    109     -53.6661      2.00000
    110     -53.6661      2.00000
    111     -53.6660      2.00000
    112     -53.6660      2.00000
    113     -53.6659      2.00000
    114     -53.6659      2.00000
    115     -53.6657      2.00000
    116     -53.6657      2.00000
    117     -53.6264      2.00000
    118     -53.6263      2.00000
    119     -53.6263      2.00000
    120     -53.6262      2.00000
    121     -53.6261      2.00000
    122     -53.6260      2.00000
    123     -53.6260      2.00000
    124     -53.6259      2.00000
    125     -53.5921      2.00000
    126     -53.5920      2.00000
    127     -53.5918      2.00000
    128     -53.5917      2.00000
    129     -28.0928      2.00000
    130     -28.0928      2.00000
    131     -28.0928      2.00000
    132     -28.0928      2.00000
    133     -28.0621      2.00000
    134     -28.0621      2.00000
    135     -28.0621      2.00000
    136     -28.0621      2.00000
    137     -28.0620      2.00000
    138     -28.0620      2.00000
    139     -28.0620      2.00000
    140     -28.0620      2.00000
    141     -28.0618      2.00000
    142     -28.0618      2.00000
    143     -28.0618      2.00000
    144     -28.0617      2.00000
    145     -28.0617      2.00000
    146     -28.0617      2.00000
    147     -28.0617      2.00000
    148     -28.0616      2.00000
    149     -28.0051      2.00000
    150     -28.0050      2.00000
    151     -28.0050      2.00000
    152     -28.0050      2.00000
    153     -27.9952      2.00000
    154     -27.9952      2.00000
    155     -27.9951      2.00000
    156     -27.9951      2.00000
    157     -27.9951      2.00000
    158     -27.9950      2.00000
    159     -27.9950      2.00000
    160     -27.9950      2.00000
    161     -27.9949      2.00000
    162     -27.9949      2.00000
    163     -27.9949      2.00000
    164     -27.9949      2.00000
    165     -27.9948      2.00000
    166     -27.9948      2.00000
    167     -27.9948      2.00000
    168     -27.9948      2.00000
    169     -27.9621      2.00000
    170     -27.9621      2.00000
    171     -27.9620      2.00000
    172     -27.9620      2.00000
    173     -27.9619      2.00000
    174     -27.9619      2.00000
    175     -27.9618      2.00000
    176     -27.9618      2.00000
    177     -27.9617      2.00000
    178     -27.9617      2.00000
    179     -27.9616      2.00000
    180     -27.9616      2.00000
    181     -27.9616      2.00000
    182     -27.9616      2.00000
    183     -27.9615      2.00000
    184     -27.9615      2.00000
    185     -27.9145      2.00000
    186     -27.9145      2.00000
    187     -27.9145      2.00000
    188     -27.9144      2.00000
    189     -27.9143      2.00000
    190     -27.9143      2.00000
    191     -27.9142      2.00000
    192     -27.9142      2.00000
    193     -27.8938      2.00000
    194     -27.8938      2.00000
    195     -27.8938      2.00000
    196     -27.8938      2.00000
    197     -27.8938      2.00000
    198     -27.8937      2.00000
    199     -27.8937      2.00000
    200     -27.8937      2.00000
    201     -27.8900      2.00000
    202     -27.8900      2.00000
    203     -27.8900      2.00000
    204     -27.8900      2.00000
    205     -27.8898      2.00000
    206     -27.8898      2.00000
    207     -27.8898      2.00000
    208     -27.8898      2.00000
    209     -27.8873      2.00000
    210     -27.8872      2.00000
    211     -27.8872      2.00000
    212     -27.8872      2.00000
    213     -27.8690      2.00000
    214     -27.8690      2.00000
    215     -27.8689      2.00000
    216     -27.8689      2.00000
    217     -27.8689      2.00000
    218     -27.8689      2.00000
    219     -27.8688      2.00000
    220     -27.8688      2.00000
    221     -27.8688      2.00000
    222     -27.8688      2.00000
    223     -27.8687      2.00000
    224     -27.8687      2.00000
    225     -27.8687      2.00000
    226     -27.8687      2.00000
    227     -27.8686      2.00000
    228     -27.8686      2.00000
    229     -27.8612      2.00000
    230     -27.8612      2.00000
    231     -27.8611      2.00000
    232     -27.8611      2.00000
    233     -27.8609      2.00000
    234     -27.8609      2.00000
    235     -27.8609      2.00000
    236     -27.8608      2.00000
    237     -27.7955      2.00000
    238     -27.7954      2.00000
    239     -27.7951      2.00000
    240     -27.7950      2.00000
    241     -27.7844      2.00000
    242     -27.7844      2.00000
    243     -27.7844      2.00000
    244     -27.7843      2.00000
    245     -27.7843      2.00000
    246     -27.7843      2.00000
    247     -27.7843      2.00000
    248     -27.7842      2.00000
    249     -27.7560      2.00000
    250     -27.7559      2.00000
    251     -27.7559      2.00000
    252     -27.7559      2.00000
    253     -27.7128      2.00000
    254     -27.7128      2.00000
    255     -27.7127      2.00000
    256     -27.7127      2.00000
    257     -27.7127      2.00000
    258     -27.7127      2.00000
    259     -27.7127      2.00000
    260     -27.7127      2.00000
    261     -27.6772      2.00000
    262     -27.6772      2.00000
    263     -27.6771      2.00000
    264     -27.6771      2.00000
    265     -27.6771      2.00000
    266     -27.6771      2.00000
    267     -27.6770      2.00000
    268     -27.6770      2.00000
    269     -27.6636      2.00000
    270     -27.6636      2.00000
    271     -27.6635      2.00000
    272     -27.6635      2.00000
    273     -27.6635      2.00000
    274     -27.6635      2.00000
    275     -27.6635      2.00000
    276     -27.6635      2.00000
    277     -27.6635      2.00000
    278     -27.6635      2.00000
    279     -27.6634      2.00000
    280     -27.6634      2.00000
    281     -27.6634      2.00000
    282     -27.6634      2.00000
    283     -27.6633      2.00000
    284     -27.6633      2.00000
    285     -27.6500      2.00000
    286     -27.6500      2.00000
    287     -27.6500      2.00000
    288     -27.6500      2.00000
    289     -27.6500      2.00000
    290     -27.6500      2.00000
    291     -27.6500      2.00000
    292     -27.6500      2.00000
    293     -27.6309      2.00000
    294     -27.6309      2.00000
    295     -27.6308      2.00000
    296     -27.6307      2.00000
    297     -27.6306      2.00000
    298     -27.6306      2.00000
    299     -27.6305      2.00000
    300     -27.6305      2.00000
    301     -27.5818      2.00000
    302     -27.5818      2.00000
    303     -27.5818      2.00000
    304     -27.5818      2.00000
    305     -27.5816      2.00000
    306     -27.5816      2.00000
    307     -27.5816      2.00000
    308     -27.5816      2.00000
    309     -27.5763      2.00000
    310     -27.5763      2.00000
    311     -27.5763      2.00000
    312     -27.5763      2.00000
    313     -27.5762      2.00000
    314     -27.5762      2.00000
    315     -27.5762      2.00000
    316     -27.5761      2.00000
    317     -27.5547      2.00000
    318     -27.5547      2.00000
    319     -27.5546      2.00000
    320     -27.5546      2.00000
    321     -27.5486      2.00000
    322     -27.5486      2.00000
    323     -27.5485      2.00000
    324     -27.5485      2.00000
    325     -27.5485      2.00000
    326     -27.5485      2.00000
    327     -27.5485      2.00000
    328     -27.5485      2.00000
    329     -27.5432      2.00000
    330     -27.5432      2.00000
    331     -27.5432      2.00000
    332     -27.5432      2.00000
    333     -27.5432      2.00000
    334     -27.5432      2.00000
    335     -27.5432      2.00000
    336     -27.5432      2.00000
    337     -27.5354      2.00000
    338     -27.5354      2.00000
    339     -27.5354      2.00000
    340     -27.5354      2.00000
    341     -27.5353      2.00000
    342     -27.5353      2.00000
    343     -27.5353      2.00000
    344     -27.5353      2.00000
    345     -27.5351      2.00000
    346     -27.5351      2.00000
    347     -27.5350      2.00000
    348     -27.5350      2.00000
    349     -27.5350      2.00000
    350     -27.5350      2.00000
    351     -27.5350      2.00000
    352     -27.5350      2.00000
    353     -27.4955      2.00000
    354     -27.4955      2.00000
    355     -27.4955      2.00000
    356     -27.4955      2.00000
    357     -27.4954      2.00000
    358     -27.4954      2.00000
    359     -27.4954      2.00000
    360     -27.4954      2.00000
    361     -27.4624      2.00000
    362     -27.4623      2.00000
    363     -27.4623      2.00000
    364     -27.4623      2.00000
    365     -27.4368      2.00000
    366     -27.4368      2.00000
    367     -27.4367      2.00000
    368     -27.4367      2.00000
    369     -27.4367      2.00000
    370     -27.4367      2.00000
    371     -27.4366      2.00000
    372     -27.4366      2.00000
    373     -27.4366      2.00000
    374     -27.4366      2.00000
    375     -27.4365      2.00000
    376     -27.4365      2.00000
    377     -27.4365      2.00000
    378     -27.4365      2.00000
    379     -27.4364      2.00000
    380     -27.4364      2.00000
    381     -27.4325      2.00000
    382     -27.4325      2.00000
    383     -27.4325      2.00000
    384     -27.4325      2.00000
    385     -27.4324      2.00000
    386     -27.4324      2.00000
    387     -27.4323      2.00000
    388     -27.4323      2.00000
    389     -27.4092      2.00000
    390     -27.4092      2.00000
    391     -27.4090      2.00000
    392     -27.4090      2.00000
    393     -27.4089      2.00000
    394     -27.4089      2.00000
    395     -27.4088      2.00000
    396     -27.4088      2.00000
    397     -27.3810      2.00000
    398     -27.3810      2.00000
    399     -27.3810      2.00000
    400     -27.3810      2.00000
    401     -27.3809      2.00000
    402     -27.3809      2.00000
    403     -27.3809      2.00000
    404     -27.3809      2.00000
    405     -27.3809      2.00000
    406     -27.3809      2.00000
    407     -27.3808      2.00000
    408     -27.3808      2.00000
    409     -27.3808      2.00000
    410     -27.3808      2.00000
    411     -27.3808      2.00000
    412     -27.3807      2.00000
    413     -27.3773      2.00000
    414     -27.3773      2.00000
    415     -27.3773      2.00000
    416     -27.3773      2.00000
    417     -27.3772      2.00000
    418     -27.3772      2.00000
    419     -27.3772      2.00000
    420     -27.3771      2.00000
    421     -27.3571      2.00000
    422     -27.3571      2.00000
    423     -27.3570      2.00000
    424     -27.3570      2.00000
    425     -27.3458      2.00000
    426     -27.3458      2.00000
    427     -27.3458      2.00000
    428     -27.3457      2.00000
    429     -27.3457      2.00000
    430     -27.3457      2.00000
    431     -27.3457      2.00000
    432     -27.3456      2.00000
    433     -27.3244      2.00000
    434     -27.3244      2.00000
    435     -27.3243      2.00000
    436     -27.3243      2.00000
    437     -27.3243      2.00000
    438     -27.3243      2.00000
    439     -27.3243      2.00000
    440     -27.3243      2.00000
    441     -27.3226      2.00000
    442     -27.3226      2.00000
    443     -27.3226      2.00000
    444     -27.3226      2.00000
    445     -27.3225      2.00000
    446     -27.3225      2.00000
    447     -27.3225      2.00000
    448     -27.3225      2.00000
    449     -27.3176      2.00000
    450     -27.3176      2.00000
    451     -27.3176      2.00000
    452     -27.3176      2.00000
    453     -27.3113      2.00000
    454     -27.3112      2.00000
    455     -27.3112      2.00000
    456     -27.3112      2.00000
    457     -27.3112      2.00000
    458     -27.3111      2.00000
    459     -27.3111      2.00000
    460     -27.3111      2.00000
    461     -27.2701      2.00000
    462     -27.2701      2.00000
    463     -27.2701      2.00000
    464     -27.2701      2.00000
    465     -27.2700      2.00000
    466     -27.2700      2.00000
    467     -27.2700      2.00000
    468     -27.2700      2.00000
    469     -27.2698      2.00000
    470     -27.2697      2.00000
    471     -27.2697      2.00000
    472     -27.2697      2.00000
    473     -27.2697      2.00000
    474     -27.2697      2.00000
    475     -27.2696      2.00000
    476     -27.2696      2.00000
    477     -27.2654      2.00000
    478     -27.2654      2.00000
    479     -27.2654      2.00000
    480     -27.2654      2.00000
    481     -27.2653      2.00000
    482     -27.2653      2.00000
    483     -27.2653      2.00000
    484     -27.2653      2.00000
    485     -27.2652      2.00000
    486     -27.2652      2.00000
    487     -27.2652      2.00000
    488     -27.2651      2.00000
    489     -27.2651      2.00000
    490     -27.2651      2.00000
    491     -27.2650      2.00000
    492     -27.2650      2.00000
    493     -27.2604      2.00000
    494     -27.2603      2.00000
    495     -27.2601      2.00000
    496     -27.2600      2.00000
    497     -27.2505      2.00000
    498     -27.2505      2.00000
    499     -27.2505      2.00000
    500     -27.2505      2.00000
    501     -27.2504      2.00000
    502     -27.2504      2.00000
    503     -27.2503      2.00000
    504     -27.2503      2.00000
    505     -27.2226      2.00000
    506     -27.2226      2.00000
    507     -27.2226      2.00000
    508     -27.2226      2.00000
    509     -27.2181      2.00000
    510     -27.2181      2.00000
    511     -27.2181      2.00000
    512     -27.2180      2.00000
    513       3.7963      2.00000
    514       3.7964      2.00000
    515       3.7967      2.00000
    516       3.7968      2.00000
    517       4.9057      2.00000
    518       4.9058      2.00000
    519       4.9058      2.00000
    520       4.9060      2.00000
    521       4.9061      2.00000
    522       4.9062      2.00000
    523       4.9062      2.00000
    524       4.9063      2.00000
    525       5.8210      2.00000
    526       5.8210      2.00000
    527       5.8211      2.00000
    528       5.8211      2.00000
    529       5.8212      2.00000
    530       5.8212      2.00000
    531       5.8213      2.00000
    532       5.8213      2.00000
    533       6.4573      2.00000
    534       6.4573      2.00000
    535       6.4574      2.00000
    536       6.4574      2.00000
    537       6.4574      2.00000
    538       6.4575      2.00000
    539       6.4575      2.00000
    540       6.4576      2.00000
    541       6.4576      2.00000
    542       6.4576      2.00000
    543       6.4577      2.00000
    544       6.4577      2.00000
    545       6.4577      2.00000
    546       6.4577      2.00000
    547       6.4578      2.00000
    548       6.4578      2.00000
    549       6.4772      2.00000
    550       6.4772      2.00000
    551       6.4772      2.00000
    552       6.4772      2.00000
    553       6.9602      2.00000
    554       6.9602      2.00000
    555       6.9602      2.00000
    556       6.9603      2.00000
    557       6.9604      2.00000
    558       6.9604      2.00000
    559       6.9604      2.00000
    560       6.9604      2.00000
    561       6.9606      2.00000
    562       6.9606      2.00000
    563       6.9606      2.00000
    564       6.9606      2.00000
    565       6.9607      2.00000
    566       6.9607      2.00000
    567       6.9607      2.00000
    568       6.9607      2.00000
    569       7.0089      2.00000
    570       7.0090      2.00000
    571       7.0090      2.00000
    572       7.0090      2.00000
    573       7.0794      2.00000
    574       7.0795      2.00000
    575       7.0798      2.00000
    576       7.0799      2.00000
    577       7.0922      2.00000
    578       7.0922      2.00000
    579       7.0924      2.00000
    580       7.0924      2.00000
    581       7.0926      2.00000
    582       7.0926      2.00000
    583       7.0927      2.00000
    584       7.0927      2.00000
    585       7.1265      2.00000
    586       7.1267      2.00000
    587       7.1269      2.00000
    588       7.1270      2.00000
    589       7.5220      2.00000
    590       7.5220      2.00000
    591       7.5220      2.00000
    592       7.5221      2.00000
    593       7.5221      2.00000
    594       7.5222      2.00000
    595       7.5222      2.00000
    596       7.5222      2.00000
    597       7.5509      2.00000
    598       7.5509      2.00000
    599       7.5510      2.00000
    600       7.5510      2.00000
    601       7.5511      2.00000
    602       7.5511      2.00000
    603       7.5512      2.00000
    604       7.5512      2.00000
    605       7.6293      2.00000
    606       7.6293      2.00000
    607       7.6294      2.00000
    608       7.6294      2.00000
    609       7.6294      2.00000
    610       7.6294      2.00000
    611       7.6295      2.00000
    612       7.6295      2.00000
    613       7.6295      2.00000
    614       7.6295      2.00000
    615       7.6296      2.00000
    616       7.6296      2.00000
    617       7.6297      2.00000
    618       7.6297      2.00000
    619       7.6297      2.00000
    620       7.6297      2.00000
    621       7.6607      2.00000
    622       7.6608      2.00000
    623       7.6608      2.00000
    624       7.6609      2.00000
    625       7.6611      2.00000
    626       7.6612      2.00000
    627       7.6612      2.00000
    628       7.6613      2.00000
    629       7.6689      2.00000
    630       7.6690      2.00000
    631       7.6690      2.00000
    632       7.6692      2.00000
    633       7.6693      2.00000
    634       7.6694      2.00000
    635       7.6694      2.00000
    636       7.6695      2.00000
    637       7.8292      2.00000
    638       7.8292      2.00000
    639       7.8292      2.00000
    640       7.8292      2.00000
    641       7.8293      2.00000
    642       7.8293      2.00000
    643       7.8293      2.00000
    644       7.8293      2.00000
    645       8.1633      2.00000
    646       8.1633      2.00000
    647       8.1633      2.00000
    648       8.1633      2.00000
    649       8.1633      2.00000
    650       8.1633      2.00000
    651       8.1633      2.00000
    652       8.1633      2.00000
    653       8.2895      2.00000
    654       8.2895      2.00000
    655       8.2896      2.00000
    656       8.2897      2.00000
    657       8.2897      2.00000
    658       8.2898      2.00000
    659       8.2899      2.00000
    660       8.2899      2.00000
    661       8.6133      2.00000
    662       8.6133      2.00000
    663       8.6133      2.00000
    664       8.6133      2.00000
    665       8.6133      2.00000
    666       8.6133      2.00000
    667       8.6133      2.00000
    668       8.6133      2.00000
    669       8.6266      2.00000
    670       8.6267      2.00000
    671       8.6267      2.00000
    672       8.6267      2.00000
    673       8.6267      2.00000
    674       8.6267      2.00000
    675       8.6268      2.00000
    676       8.6268      2.00000
    677       8.6919      2.00000
    678       8.6919      2.00000
    679       8.6919      2.00000
    680       8.6919      2.00000
    681       8.6919      2.00000
    682       8.6919      2.00000
    683       8.6920      2.00000
    684       8.6920      2.00000
    685       8.7354      2.00000
    686       8.7354      2.00000
    687       8.7355      2.00000
    688       8.7355      2.00000
    689       8.7355      2.00000
    690       8.7355      2.00000
    691       8.7355      2.00000
    692       8.7356      2.00000
    693       8.7356      2.00000
    694       8.7356      2.00000
    695       8.7356      2.00000
    696       8.7357      2.00000
    697       8.7357      2.00000
    698       8.7357      2.00000
    699       8.7358      2.00000
    700       8.7358      2.00000
    701       8.7394      2.00000
    702       8.7394      2.00000
    703       8.7395      2.00000
    704       8.7395      2.00000
    705       8.7396      2.00000
    706       8.7396      2.00000
    707       8.7396      2.00000
    708       8.7396      2.00000
    709       8.7398      2.00000
    710       8.7398      2.00000
    711       8.7398      2.00000
    712       8.7398      2.00000
    713       8.7399      2.00000
    714       8.7399      2.00000
    715       8.7399      2.00000
    716       8.7399      2.00000
    717       8.8530      2.00000
    718       8.8531      2.00000
    719       8.8531      2.00000
    720       8.8531      2.00000
    721       8.8984      2.00000
    722       8.8984      2.00000
    723       8.8985      2.00000
    724       8.8985      2.00000
    725       8.8987      2.00000
    726       8.8987      2.00000
    727       8.8987      2.00000
    728       8.8988      2.00000
    729       9.0358      2.00000
    730       9.0358      2.00000
    731       9.0359      2.00000
    732       9.0359      2.00000
    733       9.0361      2.00000
    734       9.0361      2.00000
    735       9.0362      2.00000
    736       9.0362      2.00000
    737       9.0568      2.00000
    738       9.0568      2.00000
    739       9.0568      2.00000
    740       9.0569      2.00000
    741       9.0569      2.00000
    742       9.0569      2.00000
    743       9.0569      2.00000
    744       9.0569      2.00000
    745       9.0569      2.00000
    746       9.0570      2.00000
    747       9.0570      2.00000
    748       9.0570      2.00000
    749       9.0570      2.00000
    750       9.0570      2.00000
    751       9.0571      2.00000
    752       9.0571      2.00000
    753       9.1162      2.00002
    754       9.1162      2.00002
    755       9.1162      2.00002
    756       9.1162      2.00002
    757       9.1162      2.00002
    758       9.1163      2.00002
    759       9.1163      2.00002
    760       9.1163      2.00002
    761       9.1557      2.00008
    762       9.1557      2.00008
    763       9.1558      2.00008
    764       9.1558      2.00008
    765       9.3098      2.00392
    766       9.3098      2.00393
    767       9.3099      2.00393
    768       9.3099      2.00393
    769       9.3099      2.00393
    770       9.3099      2.00393
    771       9.3099      2.00393
    772       9.3099      2.00393
    773       9.4320      2.03145
    774       9.4320      2.03145
    775       9.4320      2.03146
    776       9.4320      2.03146
    777       9.4321      2.03148
    778       9.4321      2.03148
    779       9.4321      2.03148
    780       9.4321      2.03149
    781       9.4321      2.03150
    782       9.4321      2.03150
    783       9.4322      2.03151
    784       9.4322      2.03151
    785       9.4322      2.03153
    786       9.4322      2.03153
    787       9.4322      2.03154
    788       9.4322      2.03154
    789       9.5118      2.06573
    790       9.5118      2.06573
    791       9.5118      2.06574
    792       9.5118      2.06574
    793       9.5118      2.06575
    794       9.5118      2.06575
    795       9.5119      2.06575
    796       9.5119      2.06576
    797       9.5119      2.06576
    798       9.5119      2.06577
    799       9.5119      2.06577
    800       9.5119      2.06577
    801       9.5119      2.06578
    802       9.5119      2.06578
    803       9.5120      2.06579
    804       9.5120      2.06579
    805       9.6407      1.93590
    806       9.6407      1.93581
    807       9.6407      1.93574
    808       9.6407      1.93565
    809       9.6408      1.93538
    810       9.6408      1.93531
    811       9.6409      1.93522
    812       9.6409      1.93514
    813       9.6791      1.77385
    814       9.6791      1.77379
    815       9.6792      1.77355
    816       9.6792      1.77350
    817       9.6792      1.77342
    818       9.6792      1.77337
    819       9.6793      1.77319
    820       9.6793      1.77301
    821       9.7308      1.44418
    822       9.7308      1.44414
    823       9.7308      1.44405
    824       9.7308      1.44403
    825       9.7308      1.44388
    826       9.7308      1.44388
    827       9.7308      1.44377
    828       9.7308      1.44374
    829       9.7978      0.89530
    830       9.7979      0.89518
    831       9.7979      0.89480
    832       9.7979      0.89467
    833       9.7979      0.89443
    834       9.7980      0.89427
    835       9.7980      0.89389
    836       9.7980      0.89378
    837       9.8121      0.77633
    838       9.8121      0.77623
    839       9.8122      0.77616
    840       9.8122      0.77613
    841       9.9034      0.16913
    842       9.9034      0.16911
    843       9.9034      0.16904
    844       9.9035      0.16894
    845       9.9035      0.16870
    846       9.9035      0.16869
    847       9.9035      0.16857
    848       9.9036      0.16851
    849       9.9468      0.01655
    850       9.9468      0.01651
    851       9.9468      0.01645
    852       9.9468      0.01640
    853      10.1181     -0.04036
    854      10.1182     -0.04030
    855      10.1184     -0.04020
    856      10.1185     -0.04016
    857      10.2031     -0.01189
    858      10.2031     -0.01189
    859      10.2032     -0.01189
    860      10.2032     -0.01188
    861      10.2032     -0.01187
    862      10.2032     -0.01187
    863      10.2032     -0.01187
    864      10.2033     -0.01186
    865      10.2034     -0.01184
    866      10.2034     -0.01184
    867      10.2034     -0.01183
    868      10.2034     -0.01183
    869      10.2034     -0.01182
    870      10.2035     -0.01182
    871      10.2035     -0.01182
    872      10.2035     -0.01182
    873      10.3053     -0.00147
    874      10.3054     -0.00147
    875      10.3054     -0.00147
    876      10.3054     -0.00147
    877      10.6474     -0.00000
    878      10.6474     -0.00000
    879      10.6474     -0.00000
    880      10.6474     -0.00000
    881      10.6542     -0.00000
    882      10.6542     -0.00000
    883      10.6542     -0.00000
    884      10.6543     -0.00000
    885      10.6543     -0.00000
    886      10.6543     -0.00000
    887      10.6544     -0.00000
    888      10.6544     -0.00000
    889      10.6679     -0.00000
    890      10.6679     -0.00000
    891      10.6679     -0.00000
    892      10.6679     -0.00000
    893      10.6680     -0.00000
    894      10.6680     -0.00000
    895      10.6680     -0.00000
    896      10.6680     -0.00000
    897      11.0600     -0.00000
    898      11.0600     -0.00000
    899      11.0600     -0.00000
    900      11.0600     -0.00000
    901      11.0600     -0.00000
    902      11.0600     -0.00000
    903      11.0600     -0.00000
    904      11.0600     -0.00000
    905      11.1859     -0.00000
    906      11.1859     -0.00000
    907      11.1859     -0.00000
    908      11.1859     -0.00000
    909      11.1860     -0.00000
    910      11.1860     -0.00000
    911      11.1861     -0.00000
    912      11.1861     -0.00000
    913      11.2491     -0.00000
    914      11.2491     -0.00000
    915      11.2492     -0.00000
    916      11.2492     -0.00000
    917      11.2493     -0.00000
    918      11.2493     -0.00000
    919      11.2494     -0.00000
    920      11.2494     -0.00000
    921      11.5601     -0.00000
    922      11.5601     -0.00000
    923      11.5601     -0.00000
    924      11.5601     -0.00000
    925      11.5602     -0.00000
    926      11.5602     -0.00000
    927      11.5603     -0.00000
    928      11.5603     -0.00000
    929      11.6873     -0.00000
    930      11.6873     -0.00000
    931      11.6873     -0.00000
    932      11.6873     -0.00000
    933      11.6875     -0.00000
    934      11.6875     -0.00000
    935      11.6875     -0.00000
    936      11.6875     -0.00000
    937      11.6876     -0.00000
    938      11.6876     -0.00000
    939      11.6876     -0.00000
    940      11.6876     -0.00000
    941      11.6876     -0.00000
    942      11.6876     -0.00000
    943      11.6876     -0.00000
    944      11.6876     -0.00000
    945      11.6877     -0.00000
    946      11.6877     -0.00000
    947      11.6877     -0.00000
    948      11.6877     -0.00000
    949      11.7142     -0.00000
    950      11.7143     -0.00000
    951      11.7143     -0.00000
    952      11.7144     -0.00000
    953      11.7145     -0.00000
    954      11.7145     -0.00000
    955      11.7145     -0.00000
    956      11.7145     -0.00000
    957      11.7145     -0.00000
    958      11.7146     -0.00000
    959      11.7146     -0.00000
    960      11.7146     -0.00000
    961      11.7146     -0.00000
    962      11.7146     -0.00000
    963      11.7146     -0.00000
    964      11.7147     -0.00000
    965      11.8337     -0.00000
    966      11.8337     -0.00000
    967      11.8338     -0.00000
    968      11.8338     -0.00000
    969      11.8338     -0.00000
    970      11.8338     -0.00000
    971      11.8339     -0.00000
    972      11.8339     -0.00000
    973      11.8339     -0.00000
    974      11.8339     -0.00000
    975      11.8340     -0.00000
    976      11.8340     -0.00000
    977      11.8340     -0.00000
    978      11.8340     -0.00000
    979      11.8341     -0.00000
    980      11.8341     -0.00000
    981      11.9702     -0.00000
    982      11.9704     -0.00000
    983      11.9706     -0.00000
    984      11.9707     -0.00000
    985      12.1275     -0.00000
    986      12.1275     -0.00000
    987      12.1275     -0.00000
    988      12.1276     -0.00000
    989      12.1276     -0.00000
    990      12.1277     -0.00000
    991      12.1277     -0.00000
    992      12.1278     -0.00000
    993      12.1279     -0.00000
    994      12.1279     -0.00000
    995      12.1279     -0.00000
    996      12.1279     -0.00000
    997      12.1314     -0.00000
    998      12.1342     -0.00000
    999      12.1407     -0.00000
   1000      12.1480     -0.00000

 k-point     4 :       0.5000    0.5000    0.5000
  band No.  band energies     occupation 
      1     -53.8697      2.00000
      2     -53.8697      2.00000
      3     -53.8696      2.00000
      4     -53.8695      2.00000
      5     -53.8694      2.00000
      6     -53.8693      2.00000
      7     -53.8693      2.00000
      8     -53.8691      2.00000
      9     -53.7800      2.00000
     10     -53.7800      2.00000
     11     -53.7800      2.00000
     12     -53.7799      2.00000
     13     -53.7799      2.00000
     14     -53.7799      2.00000
     15     -53.7798      2.00000
     16     -53.7798      2.00000
     17     -53.7798      2.00000
     18     -53.7798      2.00000
     19     -53.7798      2.00000
     20     -53.7797      2.00000
     21     -53.7797      2.00000
     22     -53.7797      2.00000
     23     -53.7796      2.00000
     24     -53.7796      2.00000
     25     -53.7796      2.00000
     26     -53.7796      2.00000
     27     -53.7796      2.00000
     28     -53.7795      2.00000
     29     -53.7795      2.00000
     30     -53.7795      2.00000
     31     -53.7794      2.00000
     32     -53.7794      2.00000
     33     -53.7355      2.00000
     34     -53.7355      2.00000
     35     -53.7355      2.00000
     36     -53.7354      2.00000
     37     -53.7354      2.00000
     38     -53.7354      2.00000
     39     -53.7354      2.00000
     40     -53.7353      2.00000
     41     -53.7353      2.00000
     42     -53.7353      2.00000
     43     -53.7353      2.00000
     44     -53.7353      2.00000
     45     -53.7353      2.00000
     46     -53.7353      2.00000
     47     -53.7352      2.00000
     48     -53.7352      2.00000
     49     -53.7352      2.00000
     50     -53.7352      2.00000
     51     -53.7352      2.00000
     52     -53.7352      2.00000
     53     -53.7351      2.00000
     54     -53.7351      2.00000
     55     -53.7350      2.00000
     56     -53.7350      2.00000
     57     -53.7099      2.00000
     58     -53.7099      2.00000
     59     -53.7099      2.00000
     60     -53.7099      2.00000
     61     -53.7098      2.00000
     62     -53.7098      2.00000
     63     -53.7097      2.00000
     64     -53.7097      2.00000
     65     -53.6914      2.00000
     66     -53.6914      2.00000
     67     -53.6913      2.00000
     68     -53.6913      2.00000
     69     -53.6913      2.00000
     70     -53.6913      2.00000
     71     -53.6912      2.00000
     72     -53.6912      2.00000
     73     -53.6891      2.00000
     74     -53.6891      2.00000
     75     -53.6890      2.00000
     76     -53.6890      2.00000
     77     -53.6890      2.00000
     78     -53.6890      2.00000
     79     -53.6890      2.00000
     80     -53.6889      2.00000
     81     -53.6889      2.00000
     82     -53.6889      2.00000
     83     -53.6889      2.00000
     84     -53.6889      2.00000
     85     -53.6889      2.00000
     86     -53.6889      2.00000
     87     -53.6888      2.00000
     88     -53.6888      2.00000
     89     -53.6888      2.00000
     90     -53.6888      2.00000
     91     -53.6888      2.00000
     92     -53.6887      2.00000
     93     -53.6887      2.00000
     94     -53.6887      2.00000
     95     -53.6886      2.00000
     96     -53.6886      2.00000
     97     -53.6683      2.00000
     98     -53.6683      2.00000
     99     -53.6683      2.00000
    100     -53.6682      2.00000
    101     -53.6682      2.00000
    102     -53.6682      2.00000
    103     -53.6681      2.00000
    104     -53.6681      2.00000
    105     -53.6681      2.00000
    106     -53.6681      2.00000
    107     -53.6681      2.00000
    108     -53.6681      2.00000
    109     -53.6680      2.00000
    110     -53.6680      2.00000
    111     -53.6679      2.00000
    112     -53.6679      2.00000
    113     -53.6679      2.00000
    114     -53.6679      2.00000
    115     -53.6679      2.00000
    116     -53.6678      2.00000
    117     -53.6678      2.00000
    118     -53.6678      2.00000
    119     -53.6677      2.00000
    120     -53.6677      2.00000
    121     -53.6010      2.00000
    122     -53.6009      2.00000
    123     -53.6009      2.00000
    124     -53.6007      2.00000
    125     -53.6006      2.00000
    126     -53.6006      2.00000
    127     -53.6005      2.00000
    128     -53.6003      2.00000
    129     -28.0588      2.00000
    130     -28.0588      2.00000
    131     -28.0587      2.00000
    132     -28.0587      2.00000
    133     -28.0587      2.00000
    134     -28.0587      2.00000
    135     -28.0586      2.00000
    136     -28.0586      2.00000
    137     -28.0586      2.00000
    138     -28.0586      2.00000
    139     -28.0586      2.00000
    140     -28.0585      2.00000
    141     -28.0585      2.00000
    142     -28.0585      2.00000
    143     -28.0585      2.00000
    144     -28.0585      2.00000
    145     -28.0585      2.00000
    146     -28.0585      2.00000
    147     -28.0584      2.00000
    148     -28.0584      2.00000
    149     -28.0584      2.00000
    150     -28.0584      2.00000
    151     -28.0583      2.00000
    152     -28.0583      2.00000
    153     -27.9924      2.00000
    154     -27.9924      2.00000
    155     -27.9923      2.00000
    156     -27.9923      2.00000
    157     -27.9923      2.00000
    158     -27.9923      2.00000
    159     -27.9923      2.00000
    160     -27.9923      2.00000
    161     -27.9922      2.00000
    162     -27.9922      2.00000
    163     -27.9922      2.00000
    164     -27.9922      2.00000
    165     -27.9922      2.00000
    166     -27.9922      2.00000
    167     -27.9921      2.00000
    168     -27.9921      2.00000
    169     -27.9921      2.00000
    170     -27.9921      2.00000
    171     -27.9921      2.00000
    172     -27.9921      2.00000
    173     -27.9920      2.00000
    174     -27.9920      2.00000
    175     -27.9920      2.00000
    176     -27.9920      2.00000
    177     -27.9302      2.00000
    178     -27.9302      2.00000
    179     -27.9301      2.00000
    180     -27.9301      2.00000
    181     -27.9301      2.00000
    182     -27.9301      2.00000
    183     -27.9301      2.00000
    184     -27.9301      2.00000
    185     -27.9206      2.00000
    186     -27.9206      2.00000
    187     -27.9206      2.00000
    188     -27.9205      2.00000
    189     -27.9205      2.00000
    190     -27.9205      2.00000
    191     -27.9205      2.00000
    192     -27.9205      2.00000
    193     -27.9205      2.00000
    194     -27.9205      2.00000
    195     -27.9204      2.00000
    196     -27.9204      2.00000
    197     -27.9204      2.00000
    198     -27.9204      2.00000
    199     -27.9203      2.00000
    200     -27.9203      2.00000
    201     -27.9203      2.00000
    202     -27.9203      2.00000
    203     -27.9203      2.00000
    204     -27.9203      2.00000
    205     -27.9202      2.00000
    206     -27.9202      2.00000
    207     -27.9202      2.00000
    208     -27.9202      2.00000
    209     -27.8607      2.00000
    210     -27.8607      2.00000
    211     -27.8607      2.00000
    212     -27.8606      2.00000
    213     -27.8606      2.00000
    214     -27.8606      2.00000
    215     -27.8605      2.00000
    216     -27.8605      2.00000
    217     -27.8605      2.00000
    218     -27.8604      2.00000
    219     -27.8604      2.00000
    220     -27.8603      2.00000
    221     -27.8603      2.00000
    222     -27.8603      2.00000
    223     -27.8602      2.00000
    224     -27.8602      2.00000
    225     -27.8182      2.00000
    226     -27.8181      2.00000
    227     -27.8181      2.00000
    228     -27.8181      2.00000
    229     -27.8181      2.00000
    230     -27.8181      2.00000
    231     -27.8181      2.00000
    232     -27.8181      2.00000
    233     -27.8181      2.00000
    234     -27.8181      2.00000
    235     -27.8180      2.00000
    236     -27.8180      2.00000
    237     -27.8180      2.00000
    238     -27.8180      2.00000
    239     -27.8180      2.00000
    240     -27.8180      2.00000
    241     -27.7391      2.00000
    242     -27.7391      2.00000
    243     -27.7390      2.00000
    244     -27.7390      2.00000
    245     -27.7390      2.00000
    246     -27.7390      2.00000
    247     -27.7389      2.00000
    248     -27.7389      2.00000
    249     -27.7389      2.00000
    250     -27.7389      2.00000
    251     -27.7389      2.00000
    252     -27.7389      2.00000
    253     -27.7389      2.00000
    254     -27.7389      2.00000
    255     -27.7388      2.00000
    256     -27.7388      2.00000
    257     -27.7388      2.00000
    258     -27.7388      2.00000
    259     -27.7388      2.00000
    260     -27.7388      2.00000
    261     -27.7387      2.00000
    262     -27.7387      2.00000
    263     -27.7387      2.00000
    264     -27.7387      2.00000
    265     -27.6778      2.00000
    266     -27.6777      2.00000
    267     -27.6777      2.00000
    268     -27.6777      2.00000
    269     -27.6777      2.00000
    270     -27.6776      2.00000
    271     -27.6776      2.00000
    272     -27.6776      2.00000
    273     -27.6726      2.00000
    274     -27.6726      2.00000
    275     -27.6725      2.00000
    276     -27.6725      2.00000
    277     -27.6725      2.00000
    278     -27.6725      2.00000
    279     -27.6725      2.00000
    280     -27.6725      2.00000
    281     -27.6725      2.00000
    282     -27.6725      2.00000
    283     -27.6725      2.00000
    284     -27.6725      2.00000
    285     -27.6725      2.00000
    286     -27.6725      2.00000
    287     -27.6725      2.00000
    288     -27.6725      2.00000
    289     -27.6724      2.00000
    290     -27.6724      2.00000
    291     -27.6724      2.00000
    292     -27.6724      2.00000
    293     -27.6724      2.00000
    294     -27.6724      2.00000
    295     -27.6724      2.00000
    296     -27.6724      2.00000
    297     -27.6055      2.00000
    298     -27.6055      2.00000
    299     -27.6055      2.00000
    300     -27.6055      2.00000
    301     -27.6055      2.00000
    302     -27.6054      2.00000
    303     -27.6054      2.00000
    304     -27.6054      2.00000
    305     -27.6054      2.00000
    306     -27.6054      2.00000
    307     -27.6054      2.00000
    308     -27.6054      2.00000
    309     -27.6054      2.00000
    310     -27.6053      2.00000
    311     -27.6053      2.00000
    312     -27.6053      2.00000
    313     -27.6053      2.00000
    314     -27.6053      2.00000
    315     -27.6053      2.00000
    316     -27.6053      2.00000
    317     -27.6052      2.00000
    318     -27.6052      2.00000
    319     -27.6052      2.00000
    320     -27.6052      2.00000
    321     -27.4842      2.00000
    322     -27.4842      2.00000
    323     -27.4842      2.00000
    324     -27.4842      2.00000
    325     -27.4842      2.00000
    326     -27.4842      2.00000
    327     -27.4841      2.00000
    328     -27.4841      2.00000
    329     -27.4841      2.00000
    330     -27.4841      2.00000
    331     -27.4841      2.00000
    332     -27.4841      2.00000
    333     -27.4841      2.00000
    334     -27.4841      2.00000
    335     -27.4841      2.00000
    336     -27.4841      2.00000
    337     -27.4759      2.00000
    338     -27.4759      2.00000
    339     -27.4758      2.00000
    340     -27.4758      2.00000
    341     -27.4758      2.00000
    342     -27.4758      2.00000
    343     -27.4758      2.00000
    344     -27.4758      2.00000
    345     -27.4757      2.00000
    346     -27.4757      2.00000
    347     -27.4757      2.00000
    348     -27.4757      2.00000
    349     -27.4757      2.00000
    350     -27.4757      2.00000
    351     -27.4757      2.00000
    352     -27.4756      2.00000
    353     -27.4756      2.00000
    354     -27.4756      2.00000
    355     -27.4756      2.00000
    356     -27.4756      2.00000
    357     -27.4756      2.00000
    358     -27.4756      2.00000
    359     -27.4755      2.00000
    360     -27.4755      2.00000
    361     -27.4735      2.00000
    362     -27.4735      2.00000
    363     -27.4735      2.00000
    364     -27.4735      2.00000
    365     -27.4734      2.00000
    366     -27.4734      2.00000
    367     -27.4734      2.00000
    368     -27.4734      2.00000
    369     -27.4734      2.00000
    370     -27.4734      2.00000
    371     -27.4734      2.00000
    372     -27.4734      2.00000
    373     -27.4734      2.00000
    374     -27.4733      2.00000
    375     -27.4733      2.00000
    376     -27.4733      2.00000
    377     -27.4733      2.00000
    378     -27.4733      2.00000
    379     -27.4733      2.00000
    380     -27.4733      2.00000
    381     -27.4733      2.00000
    382     -27.4732      2.00000
    383     -27.4732      2.00000
    384     -27.4732      2.00000
    385     -27.4336      2.00000
    386     -27.4335      2.00000
    387     -27.4335      2.00000
    388     -27.4335      2.00000
    389     -27.4335      2.00000
    390     -27.4334      2.00000
    391     -27.4334      2.00000
    392     -27.4334      2.00000
    393     -27.4166      2.00000
    394     -27.4166      2.00000
    395     -27.4165      2.00000
    396     -27.4165      2.00000
    397     -27.4165      2.00000
    398     -27.4165      2.00000
    399     -27.4165      2.00000
    400     -27.4165      2.00000
    401     -27.4165      2.00000
    402     -27.4165      2.00000
    403     -27.4165      2.00000
    404     -27.4165      2.00000
    405     -27.4165      2.00000
    406     -27.4165      2.00000
    407     -27.4165      2.00000
    408     -27.4165      2.00000
    409     -27.4164      2.00000
    410     -27.4164      2.00000
    411     -27.4164      2.00000
    412     -27.4164      2.00000
    413     -27.4164      2.00000
    414     -27.4164      2.00000
    415     -27.4164      2.00000
    416     -27.4164      2.00000
    417     -27.3680      2.00000
    418     -27.3680      2.00000
    419     -27.3680      2.00000
    420     -27.3679      2.00000
    421     -27.3679      2.00000
    422     -27.3679      2.00000
    423     -27.3679      2.00000
    424     -27.3679      2.00000
    425     -27.3119      2.00000
    426     -27.3119      2.00000
    427     -27.3118      2.00000
    428     -27.3118      2.00000
    429     -27.3118      2.00000
    430     -27.3118      2.00000
    431     -27.3118      2.00000
    432     -27.3118      2.00000
    433     -27.3118      2.00000
    434     -27.3117      2.00000
    435     -27.3117      2.00000
    436     -27.3117      2.00000
    437     -27.3117      2.00000
    438     -27.3117      2.00000
    439     -27.3117      2.00000
    440     -27.3117      2.00000
    441     -27.3116      2.00000
    442     -27.3116      2.00000
    443     -27.3116      2.00000
    444     -27.3116      2.00000
    445     -27.3116      2.00000
    446     -27.3116      2.00000
    447     -27.3115      2.00000
    448     -27.3115      2.00000
    449     -27.2990      2.00000
    450     -27.2990      2.00000
    451     -27.2990      2.00000
    452     -27.2990      2.00000
    453     -27.2989      2.00000
    454     -27.2989      2.00000
    455     -27.2989      2.00000
    456     -27.2989      2.00000
    457     -27.2989      2.00000
    458     -27.2989      2.00000
    459     -27.2989      2.00000
    460     -27.2989      2.00000
    461     -27.2989      2.00000
    462     -27.2989      2.00000
    463     -27.2988      2.00000
    464     -27.2988      2.00000
    465     -27.2988      2.00000
    466     -27.2988      2.00000
    467     -27.2988      2.00000
    468     -27.2988      2.00000
    469     -27.2988      2.00000
    470     -27.2988      2.00000
    471     -27.2988      2.00000
    472     -27.2988      2.00000
    473     -27.2548      2.00000
    474     -27.2548      2.00000
    475     -27.2547      2.00000
    476     -27.2547      2.00000
    477     -27.2547      2.00000
    478     -27.2547      2.00000
    479     -27.2547      2.00000
    480     -27.2546      2.00000
    481     -27.2546      2.00000
    482     -27.2546      2.00000
    483     -27.2546      2.00000
    484     -27.2546      2.00000
    485     -27.2545      2.00000
    486     -27.2545      2.00000
    487     -27.2545      2.00000
    488     -27.2545      2.00000
    489     -27.2545      2.00000
    490     -27.2545      2.00000
    491     -27.2545      2.00000
    492     -27.2544      2.00000
    493     -27.2544      2.00000
    494     -27.2544      2.00000
    495     -27.2543      2.00000
    496     -27.2543      2.00000
    497     -27.2423      2.00000
    498     -27.2423      2.00000
    499     -27.2423      2.00000
    500     -27.2423      2.00000
    501     -27.2422      2.00000
    502     -27.2422      2.00000
    503     -27.2422      2.00000
    504     -27.2421      2.00000
    505     -27.2421      2.00000
    506     -27.2421      2.00000
    507     -27.2420      2.00000
    508     -27.2420      2.00000
    509     -27.2420      2.00000
    510     -27.2419      2.00000
    511     -27.2419      2.00000
    512     -27.2419      2.00000
    513       4.0909      2.00000
    514       4.0909      2.00000
    515       4.0910      2.00000
    516       4.0911      2.00000
    517       4.0913      2.00000
    518       4.0913      2.00000
    519       4.0914      2.00000
    520       4.0916      2.00000
    521       6.0244      2.00000
    522       6.0244      2.00000
    523       6.0244      2.00000
    524       6.0244      2.00000
    525       6.0245      2.00000
    526       6.0245      2.00000
    527       6.0245      2.00000
    528       6.0245      2.00000
    529       6.0246      2.00000
    530       6.0246      2.00000
    531       6.0246      2.00000
    532       6.0246      2.00000
    533       6.0247      2.00000
    534       6.0247      2.00000
    535       6.0247      2.00000
    536       6.0248      2.00000
    537       6.0248      2.00000
    538       6.0248      2.00000
    539       6.0248      2.00000
    540       6.0248      2.00000
    541       6.0249      2.00000
    542       6.0249      2.00000
    543       6.0249      2.00000
    544       6.0250      2.00000
    545       6.7612      2.00000
    546       6.7612      2.00000
    547       6.7612      2.00000
    548       6.7612      2.00000
    549       6.7613      2.00000
    550       6.7613      2.00000
    551       6.7613      2.00000
    552       6.7613      2.00000
    553       6.7613      2.00000
    554       6.7614      2.00000
    555       6.7614      2.00000
    556       6.7614      2.00000
    557       6.7614      2.00000
    558       6.7614      2.00000
    559       6.7615      2.00000
    560       6.7615      2.00000
    561       6.7615      2.00000
    562       6.7615      2.00000
    563       6.7615      2.00000
    564       6.7615      2.00000
    565       6.7616      2.00000
    566       6.7616      2.00000
    567       6.7616      2.00000
    568       6.7616      2.00000
    569       7.2546      2.00000
    570       7.2547      2.00000
    571       7.2547      2.00000
    572       7.2547      2.00000
    573       7.2547      2.00000
    574       7.2548      2.00000
    575       7.2548      2.00000
    576       7.2548      2.00000
    577       7.2548      2.00000
    578       7.2548      2.00000
    579       7.2549      2.00000
    580       7.2549      2.00000
    581       7.2549      2.00000
    582       7.2549      2.00000
    583       7.2549      2.00000
    584       7.2549      2.00000
    585       7.2549      2.00000
    586       7.2550      2.00000
    587       7.2550      2.00000
    588       7.2550      2.00000
    589       7.2550      2.00000
    590       7.2550      2.00000
    591       7.2551      2.00000
    592       7.2551      2.00000
    593       7.2672      2.00000
    594       7.2672      2.00000
    595       7.2672      2.00000
    596       7.2672      2.00000
    597       7.2673      2.00000
    598       7.2673      2.00000
    599       7.2674      2.00000
    600       7.2674      2.00000
    601       7.2676      2.00000
    602       7.2676      2.00000
    603       7.2676      2.00000
    604       7.2676      2.00000
    605       7.2677      2.00000
    606       7.2677      2.00000
    607       7.2678      2.00000
    608       7.2678      2.00000
    609       7.7259      2.00000
    610       7.7259      2.00000
    611       7.7259      2.00000
    612       7.7259      2.00000
    613       7.7260      2.00000
    614       7.7260      2.00000
    615       7.7260      2.00000
    616       7.7260      2.00000
    617       7.7260      2.00000
    618       7.7260      2.00000
    619       7.7261      2.00000
    620       7.7261      2.00000
    621       7.7261      2.00000
    622       7.7261      2.00000
    623       7.7262      2.00000
    624       7.7262      2.00000
    625       7.7263      2.00000
    626       7.7263      2.00000
    627       7.7263      2.00000
    628       7.7263      2.00000
    629       7.7263      2.00000
    630       7.7264      2.00000
    631       7.7264      2.00000
    632       7.7264      2.00000
    633       8.0851      2.00000
    634       8.0851      2.00000
    635       8.0851      2.00000
    636       8.0851      2.00000
    637       8.0851      2.00000
    638       8.0851      2.00000
    639       8.0852      2.00000
    640       8.0852      2.00000
    641       8.2606      2.00000
    642       8.2607      2.00000
    643       8.2607      2.00000
    644       8.2607      2.00000
    645       8.2608      2.00000
    646       8.2608      2.00000
    647       8.2608      2.00000
    648       8.2608      2.00000
    649       8.2608      2.00000
    650       8.2608      2.00000
    651       8.2609      2.00000
    652       8.2609      2.00000
    653       8.2609      2.00000
    654       8.2609      2.00000
    655       8.2610      2.00000
    656       8.2610      2.00000
    657       8.2610      2.00000
    658       8.2610      2.00000
    659       8.2610      2.00000
    660       8.2610      2.00000
    661       8.2611      2.00000
    662       8.2611      2.00000
    663       8.2611      2.00000
    664       8.2612      2.00000
    665       8.4233      2.00000
    666       8.4233      2.00000
    667       8.4233      2.00000
    668       8.4233      2.00000
    669       8.4233      2.00000
    670       8.4233      2.00000
    671       8.4233      2.00000
    672       8.4234      2.00000
    673       8.5337      2.00000
    674       8.5337      2.00000
    675       8.5337      2.00000
    676       8.5337      2.00000
    677       8.5337      2.00000
    678       8.5337      2.00000
    679       8.5338      2.00000
    680       8.5338      2.00000
    681       8.5338      2.00000
    682       8.5338      2.00000
    683       8.5338      2.00000
    684       8.5338      2.00000
    685       8.5338      2.00000
    686       8.5338      2.00000
    687       8.5338      2.00000
    688       8.5338      2.00000
    689       8.7793      2.00000
    690       8.7793      2.00000
    691       8.7794      2.00000
    692       8.7794      2.00000
    693       8.7794      2.00000
    694       8.7794      2.00000
    695       8.7794      2.00000
    696       8.7794      2.00000
    697       8.7795      2.00000
    698       8.7795      2.00000
    699       8.7795      2.00000
    700       8.7795      2.00000
    701       8.7795      2.00000
    702       8.7795      2.00000
    703       8.7796      2.00000
    704       8.7796      2.00000
    705       8.7796      2.00000
    706       8.7796      2.00000
    707       8.7796      2.00000
    708       8.7796      2.00000
    709       8.7797      2.00000
    710       8.7797      2.00000
    711       8.7797      2.00000
    712       8.7797      2.00000
    713       8.8967      2.00000
    714       8.8967      2.00000
    715       8.8967      2.00000
    716       8.8967      2.00000
    717       8.8967      2.00000
    718       8.8967      2.00000
    719       8.8967      2.00000
    720       8.8968      2.00000
    721       8.8968      2.00000
    722       8.8968      2.00000
    723       8.8968      2.00000
    724       8.8968      2.00000
    725       8.8968      2.00000
    726       8.8968      2.00000
    727       8.8968      2.00000
    728       8.8968      2.00000
    729       8.9716      2.00000
    730       8.9716      2.00000
    731       8.9716      2.00000
    732       8.9717      2.00000
    733       8.9717      2.00000
    734       8.9717      2.00000
    735       8.9717      2.00000
    736       8.9717      2.00000
    737       8.9717      2.00000
    738       8.9718      2.00000
    739       8.9718      2.00000
    740       8.9718      2.00000
    741       8.9718      2.00000
    742       8.9718      2.00000
    743       8.9718      2.00000
    744       8.9718      2.00000
    745       8.9718      2.00000
    746       8.9719      2.00000
    747       8.9719      2.00000
    748       8.9719      2.00000
    749       8.9719      2.00000
    750       8.9719      2.00000
    751       8.9720      2.00000
    752       8.9720      2.00000
    753       9.3842      2.01568
    754       9.3842      2.01568
    755       9.3842      2.01568
    756       9.3843      2.01569
    757       9.3843      2.01569
    758       9.3843      2.01569
    759       9.3843      2.01569
    760       9.3843      2.01570
    761       9.3843      2.01570
    762       9.3843      2.01570
    763       9.3843      2.01571
    764       9.3843      2.01571
    765       9.3844      2.01571
    766       9.3844      2.01571
    767       9.3844      2.01572
    768       9.3844      2.01572
    769       9.3844      2.01572
    770       9.3844      2.01572
    771       9.3844      2.01572
    772       9.3844      2.01573
    773       9.3844      2.01573
    774       9.3845      2.01574
    775       9.3845      2.01574
    776       9.3845      2.01574
    777       9.6651      1.84170
    778       9.6651      1.84166
    779       9.6651      1.84164
    780       9.6651      1.84155
    781       9.6651      1.84148
    782       9.6651      1.84140
    783       9.6651      1.84139
    784       9.6651      1.84135
    785       9.6652      1.84132
    786       9.6652      1.84130
    787       9.6652      1.84122
    788       9.6652      1.84120
    789       9.6652      1.84115
    790       9.6652      1.84111
    791       9.6652      1.84107
    792       9.6652      1.84101
    793       9.6652      1.84099
    794       9.6652      1.84097
    795       9.6652      1.84091
    796       9.6652      1.84088
    797       9.6653      1.84081
    798       9.6653      1.84077
    799       9.6653      1.84073
    800       9.6653      1.84066
    801       9.6729      1.80533
    802       9.6729      1.80526
    803       9.6729      1.80520
    804       9.6729      1.80513
    805       9.6730      1.80486
    806       9.6730      1.80483
    807       9.6730      1.80475
    808       9.6730      1.80473
    809       9.6730      1.80469
    810       9.6730      1.80466
    811       9.6730      1.80461
    812       9.6730      1.80449
    813       9.6731      1.80432
    814       9.6731      1.80426
    815       9.6731      1.80419
    816       9.6731      1.80415
    817       9.6731      1.80411
    818       9.6731      1.80408
    819       9.6731      1.80403
    820       9.6731      1.80397
    821       9.6732      1.80368
    822       9.6732      1.80367
    823       9.6732      1.80357
    824       9.6732      1.80349
    825       9.8716      0.34019
    826       9.8717      0.34009
    827       9.8717      0.33995
    828       9.8717      0.33986
    829       9.8717      0.33972
    830       9.8718      0.33947
    831       9.8718      0.33938
    832       9.8718      0.33896
    833       9.8719      0.33882
    834       9.8719      0.33852
    835       9.8720      0.33826
    836       9.8720      0.33808
    837       9.8720      0.33796
    838       9.8720      0.33787
    839       9.8721      0.33757
    840       9.8721      0.33752
    841       9.8732      0.33058
    842       9.8732      0.33052
    843       9.8733      0.33035
    844       9.8733      0.33027
    845       9.8733      0.33011
    846       9.8733      0.33007
    847       9.8733      0.33003
    848       9.8733      0.32999
    849       9.8733      0.32990
    850       9.8733      0.32983
    851       9.8734      0.32975
    852       9.8734      0.32966
    853       9.8734      0.32957
    854       9.8734      0.32952
    855       9.8734      0.32945
    856       9.8734      0.32936
    857       9.8734      0.32928
    858       9.8734      0.32924
    859       9.8734      0.32923
    860       9.8734      0.32918
    861       9.8735      0.32897
    862       9.8735      0.32896
    863       9.8735      0.32876
    864       9.8735      0.32869
    865      10.1413     -0.03049
    866      10.1413     -0.03049
    867      10.1413     -0.03048
    868      10.1413     -0.03048
    869      10.1413     -0.03048
    870      10.1413     -0.03047
    871      10.1413     -0.03047
    872      10.1413     -0.03047
    873      10.1413     -0.03046
    874      10.1413     -0.03046
    875      10.1414     -0.03046
    876      10.1414     -0.03046
    877      10.1414     -0.03045
    878      10.1414     -0.03045
    879      10.1414     -0.03044
    880      10.1414     -0.03044
    881      10.1414     -0.03044
    882      10.1414     -0.03044
    883      10.1414     -0.03044
    884      10.1414     -0.03043
    885      10.1414     -0.03043
    886      10.1414     -0.03042
    887      10.1414     -0.03042
    888      10.1415     -0.03042
    889      10.9876     -0.00000
    890      10.9877     -0.00000
    891      10.9877     -0.00000
    892      10.9877     -0.00000
    893      10.9877     -0.00000
    894      10.9878     -0.00000
    895      10.9878     -0.00000
    896      10.9878     -0.00000
    897      11.2968     -0.00000
    898      11.2968     -0.00000
    899      11.2968     -0.00000
    900      11.2969     -0.00000
    901      11.2969     -0.00000
    902      11.2969     -0.00000
    903      11.2969     -0.00000
    904      11.2969     -0.00000
    905      11.2969     -0.00000
    906      11.2969     -0.00000
    907      11.2970     -0.00000
    908      11.2970     -0.00000
    909      11.2970     -0.00000
    910      11.2970     -0.00000
    911      11.2971     -0.00000
    912      11.2971     -0.00000
    913      11.2971     -0.00000
    914      11.2971     -0.00000
    915      11.2971     -0.00000
    916      11.2971     -0.00000
    917      11.2971     -0.00000
    918      11.2971     -0.00000
    919      11.2972     -0.00000
    920      11.2972     -0.00000
    921      11.5513     -0.00000
    922      11.5513     -0.00000
    923      11.5513     -0.00000
    924      11.5513     -0.00000
    925      11.5513     -0.00000
    926      11.5513     -0.00000
    927      11.5514     -0.00000
    928      11.5514     -0.00000
    929      11.5514     -0.00000
    930      11.5514     -0.00000
    931      11.5514     -0.00000
    932      11.5514     -0.00000
    933      11.5514     -0.00000
    934      11.5514     -0.00000
    935      11.5514     -0.00000
    936      11.5514     -0.00000
    937      11.5514     -0.00000
    938      11.5514     -0.00000
    939      11.5514     -0.00000
    940      11.5514     -0.00000
    941      11.5514     -0.00000
    942      11.5514     -0.00000
    943      11.5515     -0.00000
    944      11.5515     -0.00000
    945      11.5819     -0.00000
    946      11.5819     -0.00000
    947      11.5819     -0.00000
    948      11.5820     -0.00000
    949      11.5820     -0.00000
    950      11.5820     -0.00000
    951      11.5820     -0.00000
    952      11.5820     -0.00000
    953      11.8817     -0.00000
    954      11.8817     -0.00000
    955      11.8818     -0.00000
    956      11.8818     -0.00000
    957      11.8818     -0.00000
    958      11.8818     -0.00000
    959      11.8818     -0.00000
    960      11.8818     -0.00000
    961      11.8819     -0.00000
    962      11.8819     -0.00000
    963      11.8819     -0.00000
    964      11.8819     -0.00000
    965      11.8819     -0.00000
    966      11.8819     -0.00000
    967      11.8820     -0.00000
    968      11.8820     -0.00000
    969      11.8820     -0.00000
    970      11.8820     -0.00000
    971      11.8820     -0.00000
    972      11.8820     -0.00000
    973      11.8821     -0.00000
    974      11.8821     -0.00000
    975      11.8821     -0.00000
    976      11.8821     -0.00000
    977      12.0933     -0.00000
    978      12.0933     -0.00000
    979      12.0934     -0.00000
    980      12.0934     -0.00000
    981      12.0934     -0.00000
    982      12.0935     -0.00000
    983      12.0936     -0.00000
    984      12.0936     -0.00000
    985      12.0936     -0.00000
    986      12.0937     -0.00000
    987      12.0937     -0.00000
    988      12.0937     -0.00000
    989      12.0938     -0.00000
    990      12.0938     -0.00000
    991      12.0939     -0.00000
    992      12.0940     -0.00000
    993      12.1766     -0.00000
    994      12.1770     -0.00000
    995      12.1774     -0.00000
    996      12.1776     -0.00000
    997      12.1780     -0.00000
    998      12.1792     -0.00000
    999      12.1795     -0.00000
   1000      12.1805     -0.00000


--------------------------------------------------------------------------------------------------------


 soft charge-density along one line, spin component            1
         0         1         2         3         4         5         6         7         8         9
 total charge-density along one line
 
 pseudopotential strength for first ion, spin component:            1
-18.201  10.651  -0.000  -0.000  -0.000   0.000   0.000   0.000
 10.651   3.232   0.000   0.000   0.000  -0.000  -0.000  -0.000
 -0.000   0.000 -27.383  -0.000  -0.000   7.449   0.000   0.000
 -0.000   0.000  -0.000 -27.383   0.000   0.000   7.449  -0.000
 -0.000   0.000  -0.000   0.000 -27.383   0.000  -0.000   7.449
  0.000  -0.000   7.449   0.000   0.000   5.825  -0.000  -0.000
  0.000  -0.000   0.000   7.449  -0.000  -0.000   5.825   0.000
  0.000  -0.000   0.000  -0.000   7.449  -0.000   0.000   5.825
 -0.000   0.000  -0.000  -0.000  -0.000   0.000   0.000   0.000
 -0.000   0.000   0.000  -0.000  -0.000  -0.000   0.000   0.000
  0.000  -0.000   0.000   0.000   0.000  -0.000  -0.000  -0.000
  0.000  -0.000  -0.000  -0.000  -0.000   0.000   0.000   0.000
 -0.000   0.000   0.000  -0.000  -0.000  -0.000   0.000   0.000
 -0.000   0.000  -0.000  -0.000  -0.000   0.000   0.000   0.000
 -0.000   0.000   0.000  -0.000  -0.000  -0.000   0.000   0.000
  0.000  -0.000   0.000   0.000   0.000  -0.000  -0.000  -0.000
  0.000  -0.000  -0.000  -0.000  -0.000   0.000   0.000   0.000
 -0.000   0.000   0.000  -0.000  -0.000  -0.000   0.000   0.000
 total augmentation occupancy for first ion, spin component:            1
  1.995  -0.051   0.000   0.000   0.000  -0.000  -0.000   0.000   0.000   0.000   0.000  -0.000   0.000  -0.000  -0.000  -0.000
 -0.051   1.718  -0.000  -0.000   0.000  -0.000   0.000  -0.000  -0.000  -0.000  -0.000   0.000  -0.000   0.000   0.000   0.000
  0.000  -0.000   1.986  -0.000  -0.000  -0.045   0.000   0.000   0.000  -0.000  -0.000  -0.000  -0.000  -0.000  -0.000   0.000
  0.000  -0.000  -0.000   1.986   0.000   0.000  -0.045  -0.000  -0.000  -0.000   0.000  -0.000   0.000   0.000   0.000   0.000
  0.000   0.000  -0.000   0.000   1.986   0.000  -0.000  -0.045  -0.000  -0.000   0.000  -0.000   0.000  -0.000   0.000  -0.000
 -0.000  -0.000  -0.045   0.000   0.000   0.125  -0.000  -0.000  -0.000  -0.000   0.000  -0.000  -0.000   0.000   0.000   0.000
 -0.000   0.000   0.000  -0.045  -0.000  -0.000   0.125   0.000  -0.000   0.000  -0.000   0.000   0.000   0.000  -0.000   0.000
  0.000  -0.000   0.000  -0.000  -0.045  -0.000   0.000   0.125   0.000   0.000  -0.000   0.000  -0.000   0.000  -0.000  -0.000
  0.000  -0.000   0.000   0.000  -0.000  -0.000   0.000   0.000   4.023   0.000   0.000  -0.000   0.000  -2.056  -0.000  -0.000
  0.000  -0.000   0.000   0.000  -0.000  -0.000   0.000   0.000   0.000   4.023  -0.000  -0.000   0.000  -0.000  -2.056   0.000
  0.000  -0.000   0.000   0.000  -0.000  -0.000  -0.000  -0.000   0.000  -0.000   4.218   0.000   0.000  -0.000   0.000  -2.372
 -0.000   0.000  -0.000   0.000  -0.000  -0.000  -0.000  -0.000  -0.000  -0.000   0.000   4.023   0.000   0.000   0.000  -0.000
  0.000  -0.000  -0.000   0.000  -0.000  -0.000  -0.000   0.000   0.000   0.000   0.000   0.000   4.218  -0.000  -0.000  -0.000
 -0.000   0.000   0.000  -0.000  -0.000   0.000   0.000   0.000  -2.056  -0.000  -0.000   0.000  -0.000   1.100   0.000   0.000
 -0.000   0.000   0.000   0.000   0.000   0.000  -0.000  -0.000  -0.000  -2.056   0.000   0.000  -0.000   0.000   1.100  -0.000
 -0.000   0.000  -0.000  -0.000  -0.000   0.000   0.000  -0.000  -0.000   0.000  -2.372  -0.000  -0.000   0.000  -0.000   1.361
  0.000  -0.000  -0.000   0.000  -0.000  -0.000   0.000  -0.000   0.000   0.000  -0.000  -2.056  -0.000  -0.000  -0.000   0.000
 -0.000   0.000   0.000  -0.000  -0.000  -0.000  -0.000  -0.000  -0.000  -0.000  -0.000  -0.000  -2.372   0.000   0.000   0.000


------------------------ aborting loop because EDIFF is reached ----------------------------------------


    CHARGE:  cpu time      0.4824: real time      0.3325
    FORLOC:  cpu time      0.0188: real time      0.0012
    FORNL :  cpu time      1.0073: real time      0.7819
    STRESS:  cpu time      2.5408: real time      1.9701
    FORCOR:  cpu time      0.0359: real time      0.0070
    FORHAR:  cpu time      0.0020: real time      0.0019
    MIXING:  cpu time      0.0376: real time      0.0038
    OFIELD:  cpu time      0.0001: real time      0.0000

  FORCE on cell =-STRESS in cart. coord.  units (eV):
  Direction    XX          YY          ZZ          XY          YZ          ZX
  --------------------------------------------------------------------------------------
  Alpha Z 11678.81341 11678.81341 11678.81341
  Ewald  -63149.16806-63149.16869-63149.16781     0.00033     0.00057    -0.00058
  Hartree 16702.49956 16702.50060 16702.49915     0.00002     0.00003    -0.00004
  E(xc)   -9294.31311 -9294.31308 -9294.31312    -0.00000    -0.00000     0.00000
  Local   15133.01560 15133.01267 15133.01675    -0.00013    -0.00022     0.00023
  n-local -4725.30024 -4721.71737 -4720.16406    -0.00002    -0.00004     0.00004
  augment  9434.57790  9434.57874  9434.57757    -0.00007    -0.00011     0.00012
  Kinetic 24216.49384 24218.74379 24215.59364     0.00004     0.00007    -0.00007
  Fock        0.00000     0.00000     0.00000     0.00000     0.00000     0.00000
  -------------------------------------------------------------------------------------
  Total      -0.02517    -0.02517    -0.02517     0.00000     0.00000    -0.00000
  in kB      -0.02353    -0.02353    -0.02353     0.00000     0.00000    -0.00000
  external pressure =       -0.02 kB  Pullay stress =        0.00 kB


 VOLUME and BASIS-vectors are now :
 -----------------------------------------------------------------------------
  energy-cutoff  :      350.00
  volume of cell :     1714.05
      direct lattice vectors                 reciprocal lattice vectors
    11.967616404 -0.000000046  0.000000088     0.083558828  0.000000000 -0.000000001
    -0.000000056 11.967617138 -0.000000096     0.000000000  0.083558823  0.000000001
     0.000000093 -0.000000082 11.967616119    -0.000000001  0.000000001  0.083558830

  length of vectors
    11.967616404 11.967617138 11.967616119     0.083558828  0.083558823  0.083558830


 FORCES acting on ions
    electron-ion (+dipol)            ewald-force                    non-local-force                 convergence-correction
 -----------------------------------------------------------------------------------------------
   -.254E-02 -.304E-02 -.122E-02   -.788E-04 -.406E-02 0.127E-02   -.694E-21 0.466E-20 -.194E-20   -.358E-06 0.347E-05 -.133E-05
   -.199E-02 0.742E-03 -.211E-02   0.199E-02 0.964E-03 -.234E-03   0.277E-20 0.424E-21 -.514E-20   -.107E-05 0.312E-06 0.187E-06
   -.104E-03 0.309E-02 0.281E-02   -.165E-02 0.375E-02 0.159E-02   0.511E-20 -.246E-20 -.413E-20   0.369E-06 -.327E-06 -.187E-06
   -.170E-02 -.281E-02 -.168E-02   -.357E-02 -.413E-03 0.496E-03   0.334E-20 -.143E-20 0.680E-20   -.487E-06 0.221E-05 0.813E-06
   0.441E-02 0.234E-03 0.203E-02   0.189E-02 0.412E-02 0.186E-02   0.169E-19 -.116E-19 -.855E-20   0.102E-05 -.268E-05 0.817E-06
   -.538E-03 -.270E-02 -.102E-03   -.113E-02 -.333E-02 -.118E-02   0.378E-21 0.328E-20 -.200E-20   -.497E-06 0.222E-05 0.106E-05
   0.108E-02 0.192E-02 0.201E-02   0.112E-03 0.301E-02 0.395E-02   -.614E-20 -.180E-19 -.291E-20   0.102E-05 -.268E-05 -.788E-06
   0.123E-02 0.420E-02 -.236E-03   -.102E-02 0.245E-02 -.331E-03   0.961E-20 -.490E-20 -.816E-20   0.106E-05 0.306E-06 -.132E-05
   0.241E-02 0.475E-03 -.219E-02   0.252E-02 0.391E-02 -.405E-02   -.707E-20 -.244E-20 -.167E-20   -.105E-05 -.346E-05 0.134E-05
   -.225E-02 0.265E-02 0.903E-03   -.295E-02 -.960E-03 0.255E-02   -.209E-19 0.799E-20 -.114E-19   -.494E-06 -.222E-05 0.819E-06
   0.129E-02 -.345E-02 0.708E-03   0.157E-02 -.405E-02 -.802E-03   -.176E-19 -.973E-20 0.201E-19   -.105E-05 0.323E-06 0.132E-05
   -.355E-02 0.227E-02 -.951E-03   -.437E-02 -.396E-02 0.261E-02   0.217E-19 -.519E-20 0.214E-19   0.475E-06 0.225E-05 -.803E-06
   -.168E-02 -.315E-03 0.186E-02   -.313E-02 -.168E-03 0.181E-02   0.117E-19 0.106E-21 -.100E-19   0.464E-06 -.222E-05 0.822E-06
   -.273E-02 -.106E-02 -.481E-03   -.371E-02 0.133E-02 -.118E-02   0.148E-19 -.138E-20 -.306E-20   0.466E-06 -.223E-05 -.110E-05
   0.278E-02 0.409E-03 0.566E-02   0.199E-02 0.228E-02 0.511E-02   -.139E-19 0.214E-19 0.186E-19   -.104E-05 -.346E-05 -.187E-06
   -.279E-02 0.119E-02 -.417E-02   -.198E-02 0.518E-02 -.287E-02   0.115E-19 0.124E-19 0.701E-20   0.365E-06 -.348E-05 0.191E-06
   0.131E-03 0.138E-02 0.407E-03   0.130E-02 0.104E-02 0.496E-03   -.214E-19 0.197E-20 -.122E-19   -.372E-06 -.325E-06 -.193E-06
   0.111E-02 0.111E-02 0.402E-03   0.268E-02 -.118E-02 0.992E-03   -.265E-19 -.229E-19 0.199E-19   -.986E-06 0.269E-05 0.820E-06
   0.158E-02 -.193E-02 0.968E-04   0.398E-03 -.360E-02 -.209E-02   -.655E-20 -.733E-20 0.784E-20   -.369E-06 0.346E-05 0.132E-05
   0.232E-03 -.240E-02 -.467E-02   0.178E-02 -.439E-02 -.163E-02   0.159E-19 -.741E-21 0.487E-20   0.104E-05 0.346E-05 -.174E-06
   -.139E-02 0.453E-02 -.990E-03   -.323E-02 0.658E-02 -.184E-02   0.105E-20 0.487E-20 0.394E-20   0.107E-05 -.347E-05 0.196E-06
   0.225E-02 0.788E-03 -.356E-02   0.546E-02 0.150E-02 -.611E-02   -.383E-20 0.302E-20 -.106E-21   -.995E-06 -.224E-05 0.107E-05
   -.993E-04 -.161E-02 0.207E-03   0.272E-03 -.137E-02 0.211E-02   -.849E-20 0.556E-21 0.104E-19   -.105E-05 -.317E-06 -.134E-05
   -.397E-03 -.829E-03 0.411E-03   0.998E-03 -.533E-02 0.202E-02   0.828E-20 -.667E-20 0.596E-20   0.101E-05 0.224E-05 -.795E-06
   -.117E-02 -.174E-03 0.166E-02   -.232E-02 -.240E-02 0.380E-03   -.127E-19 -.707E-20 -.598E-20   -.104E-05 0.346E-05 -.180E-06
   -.367E-02 -.142E-03 -.478E-02   -.508E-02 -.303E-02 -.431E-02   -.133E-19 0.115E-19 0.762E-20   0.466E-06 0.223E-05 0.106E-05
   0.408E-02 0.127E-02 0.240E-02   0.490E-02 -.421E-02 0.454E-02   0.310E-20 0.155E-19 -.148E-19   -.984E-06 0.224E-05 -.798E-06
   0.205E-02 0.478E-03 0.384E-02   0.520E-02 0.134E-02 0.510E-02   -.150E-19 -.641E-20 0.183E-19   -.997E-06 -.267E-05 -.800E-06
   0.384E-02 -.995E-03 0.324E-02   0.328E-02 -.121E-02 0.255E-02   0.723E-20 -.667E-20 -.265E-21   0.101E-05 0.221E-05 0.819E-06
   0.532E-03 0.174E-02 -.860E-03   0.791E-03 0.178E-02 0.524E-03   -.669E-20 -.136E-19 0.238E-19   0.366E-06 0.319E-06 0.185E-06
   -.191E-02 0.364E-02 -.317E-02   -.127E-02 0.438E-02 -.318E-02   -.366E-20 0.108E-19 -.104E-19   0.106E-05 -.347E-05 0.133E-05
   -.179E-02 0.175E-02 -.475E-02   -.261E-02 0.129E-02 -.232E-02   0.269E-20 0.217E-19 0.291E-20   -.497E-06 -.223E-05 -.109E-05
   -.441E-02 0.185E-02 -.495E-02   -.620E-02 -.214E-03 -.344E-02   0.638E-20 -.116E-19 0.112E-19   0.469E-06 0.268E-05 0.104E-05
   0.147E-03 0.226E-02 -.379E-02   0.142E-02 0.299E-02 -.189E-02   0.117E-19 0.185E-20 -.142E-19   0.102E-05 -.268E-05 -.109E-05
   -.320E-03 -.417E-02 0.301E-02   0.521E-03 -.271E-02 0.498E-02   -.107E-19 0.148E-19 0.111E-19   -.366E-06 -.306E-06 -.134E-05
   0.666E-02 -.771E-03 0.963E-03   0.438E-02 -.154E-02 -.185E-02   -.145E-19 0.198E-20 -.754E-20   -.982E-06 0.268E-05 -.108E-05
   0.180E-02 -.636E-03 -.219E-02   0.219E-02 -.118E-02 -.625E-03   0.147E-20 -.138E-20 -.688E-21   -.106E-05 -.313E-06 0.197E-06
   -.582E-03 -.260E-02 0.670E-04   0.592E-03 -.633E-02 0.205E-02   -.170E-19 0.115E-19 0.905E-20   0.363E-06 0.348E-05 0.182E-06
   -.137E-02 0.106E-02 -.401E-02   -.181E-02 0.388E-02 -.291E-03   -.777E-20 0.527E-20 -.167E-20   -.488E-06 -.268E-05 -.109E-05
   0.589E-03 -.326E-02 0.175E-02   -.530E-03 -.357E-02 0.664E-03   -.510E-20 0.607E-20 0.667E-20   0.369E-06 0.329E-06 -.180E-06
   0.214E-02 -.457E-03 0.315E-03   -.139E-03 -.266E-02 -.640E-03   0.911E-20 -.204E-20 0.139E-19   0.367E-06 0.347E-05 -.176E-06
   0.653E-05 -.312E-02 0.363E-02   -.717E-03 -.132E-02 0.338E-02   0.123E-19 -.146E-19 -.148E-19   0.105E-05 -.302E-06 -.133E-05
   0.651E-03 0.136E-02 0.189E-02   0.398E-03 0.178E-02 0.113E-02   0.179E-20 -.103E-19 0.336E-19   -.362E-06 0.302E-06 0.190E-06
   -.294E-02 -.212E-02 -.205E-02   -.345E-02 -.165E-02 -.253E-02   -.153E-19 0.741E-21 0.444E-20   -.493E-06 0.222E-05 -.108E-05
   -.195E-02 -.114E-02 -.263E-03   0.483E-03 -.250E-02 0.187E-02   0.744E-20 -.450E-20 0.610E-20   0.102E-05 0.268E-05 -.789E-06
   -.171E-03 0.259E-02 0.461E-02   -.773E-04 0.310E-02 0.409E-02   -.130E-19 0.572E-20 0.424E-21   -.503E-06 -.268E-05 -.792E-06
   0.790E-03 -.197E-03 -.382E-02   0.173E-02 0.196E-02 -.345E-02   0.970E-20 0.540E-20 -.852E-20   0.102E-05 -.223E-05 -.109E-05
   -.191E-02 0.478E-03 0.341E-02   -.176E-02 0.293E-02 0.155E-02   -.544E-20 -.116E-19 0.286E-20   0.461E-06 -.268E-05 0.827E-06
   -.272E-02 -.343E-03 -.996E-03   -.371E-02 -.380E-02 0.204E-02   -.469E-20 -.101E-19 0.858E-20   -.495E-06 0.269E-05 0.814E-06
   -.259E-03 -.238E-02 0.363E-03   0.147E-02 -.503E-02 0.177E-02   -.819E-20 0.164E-19 -.741E-21   -.106E-05 0.347E-05 0.188E-06
   -.854E-03 0.701E-03 -.134E-02   0.386E-02 0.391E-02 -.699E-02   -.117E-19 0.524E-20 -.108E-19   -.998E-06 -.267E-05 0.108E-05
   0.977E-03 0.237E-02 -.558E-02   0.352E-02 0.526E-02 -.442E-02   -.459E-20 -.213E-19 0.868E-20   -.107E-05 -.347E-05 0.191E-06
   -.330E-02 -.359E-03 -.355E-02   -.303E-02 -.344E-02 -.541E-02   -.187E-19 -.757E-20 -.222E-19   -.498E-06 0.268E-05 -.107E-05
   0.129E-02 -.118E-02 0.146E-02   -.298E-03 -.440E-02 -.466E-03   0.332E-20 0.167E-19 -.529E-20   -.105E-05 0.346E-05 0.132E-05
   0.901E-03 0.219E-02 0.281E-02   -.318E-02 0.275E-02 0.220E-02   -.129E-20 -.974E-20 -.263E-20   0.106E-05 0.308E-06 0.189E-06
   -.621E-03 -.244E-02 -.257E-02   0.220E-02 -.382E-02 -.324E-02   -.862E-20 -.180E-20 -.116E-19   -.993E-06 0.223E-05 0.107E-05
   -.451E-02 -.159E-02 -.345E-02   -.870E-03 -.506E-02 -.167E-02   -.928E-20 0.175E-19 0.111E-19   -.105E-05 0.347E-05 -.133E-05
   -.167E-02 -.167E-02 0.438E-02   -.131E-02 -.166E-02 0.216E-02   0.230E-19 -.932E-20 -.135E-20   0.461E-06 0.221E-05 0.828E-06
   0.299E-02 0.589E-02 -.183E-02   0.163E-02 0.587E-02 -.282E-02   -.124E-20 0.221E-19 -.336E-20   -.367E-06 -.347E-05 0.197E-06
   0.366E-03 0.103E-02 -.274E-02   0.105E-02 0.193E-02 -.591E-03   0.211E-19 0.123E-19 -.148E-20   0.104E-05 -.322E-06 -.190E-06
   -.121E-02 0.138E-02 -.130E-02   -.270E-02 0.222E-02 0.838E-03   0.200E-19 0.228E-20 -.543E-20   0.463E-06 -.267E-05 -.110E-05
   -.499E-02 -.185E-02 -.115E-03   -.702E-02 -.208E-02 0.337E-02   0.112E-19 -.132E-19 0.103E-19   0.473E-06 0.267E-05 -.794E-06
   -.171E-02 0.157E-02 -.214E-02   -.100E-03 0.132E-02 -.207E-02   0.853E-21 -.353E-19 0.244E-20   0.105E-05 -.325E-06 0.133E-05
   -.196E-03 0.365E-02 0.405E-02   -.657E-03 0.307E-02 0.268E-02   -.103E-19 -.302E-20 -.142E-19   -.104E-05 -.330E-06 -.189E-06
   -.205E-02 -.358E-02 -.374E-03   -.156E-02 -.404E-02 0.490E-03   0.108E-19 -.318E-20 0.953E-20   0.365E-06 0.326E-06 0.131E-05
   0.522E-03 -.206E-03 0.569E-03   -.453E-04 0.488E-03 0.133E-02   0.350E-20 -.424E-20 -.102E-19   0.367E-06 -.312E-06 -.133E-05
   0.254E-02 0.169E-02 -.649E-03   0.847E-03 0.154E-02 -.171E-02   0.185E-19 -.128E-19 -.222E-20   0.368E-06 0.319E-06 -.132E-05
   0.392E-02 -.310E-02 -.134E-02   0.124E-02 -.622E-02 -.305E-02   -.455E-20 0.109E-20 -.100E-19   0.362E-06 0.347E-05 -.132E-05
   -.139E-02 0.595E-03 -.101E-02   0.897E-03 0.890E-03 -.102E-03   0.125E-19 -.124E-20 0.858E-20   -.106E-05 0.316E-06 -.133E-05
   -.146E-02 -.189E-02 -.930E-03   -.187E-02 -.133E-02 -.624E-03   0.425E-20 0.254E-20 0.487E-20   0.105E-05 0.326E-06 0.132E-05
   0.309E-02 -.432E-02 0.178E-03   -.324E-03 -.677E-02 -.115E-02   0.175E-19 -.179E-19 0.701E-20   0.105E-05 0.347E-05 -.132E-05
   -.522E-02 0.358E-02 -.125E-02   -.271E-02 0.385E-02 -.253E-02   0.244E-19 -.109E-19 -.285E-19   0.368E-06 -.326E-06 0.132E-05
   -.137E-02 -.165E-02 -.421E-02   0.657E-03 -.250E-02 -.880E-03   -.910E-20 -.868E-20 0.413E-20   -.366E-06 0.346E-05 -.178E-06
   -.845E-03 -.320E-02 0.238E-03   0.309E-03 -.436E-02 0.101E-02   0.114E-19 0.940E-20 -.318E-20   0.105E-05 0.347E-05 0.132E-05
   -.669E-03 0.237E-02 0.214E-02   0.171E-02 0.548E-02 0.334E-02   0.152E-19 -.175E-19 -.104E-19   -.106E-05 -.347E-05 -.134E-05
   -.179E-02 0.968E-03 -.151E-02   -.335E-02 0.528E-02 0.742E-03   0.803E-20 0.402E-20 0.224E-19   -.488E-06 -.268E-05 0.817E-06
   0.718E-02 -.143E-02 0.331E-02   0.669E-02 -.125E-02 0.456E-02   -.953E-22 -.150E-19 0.120E-19   -.982E-06 0.267E-05 -.793E-06
   -.113E-02 0.123E-02 0.356E-02   -.259E-02 -.121E-02 0.172E-02   0.141E-19 0.106E-20 0.506E-20   0.464E-06 0.268E-05 0.821E-06
   0.124E-03 0.140E-02 0.383E-02   -.470E-03 0.397E-02 0.408E-02   -.951E-20 0.741E-20 -.614E-20   -.510E-06 -.224E-05 -.788E-06
   0.417E-02 0.257E-02 -.293E-02   0.107E-02 0.202E-02 -.471E-02   -.122E-19 0.257E-20 -.199E-19   -.374E-06 -.321E-06 0.134E-05
   0.219E-02 -.226E-02 0.728E-03   0.191E-02 -.160E-02 -.223E-02   -.433E-20 0.588E-20 0.635E-21   -.365E-06 0.322E-06 0.133E-05
   0.156E-02 0.123E-02 -.475E-02   0.440E-02 -.156E-02 -.371E-02   -.426E-20 -.244E-20 -.412E-21   -.989E-06 0.268E-05 0.105E-05
   -.301E-02 0.824E-03 0.524E-02   -.322E-02 0.249E-02 0.376E-02   0.929E-20 0.159E-19 0.194E-19   0.369E-06 -.347E-05 -.187E-06
   -.401E-02 0.101E-02 -.384E-02   -.384E-02 0.423E-02 -.320E-02   -.731E-20 -.524E-20 0.146E-20   0.364E-06 -.347E-05 0.132E-05
   -.224E-02 0.314E-02 -.971E-03   -.712E-03 0.148E-02 0.152E-02   -.145E-19 -.750E-20 0.103E-19   -.367E-06 0.303E-06 -.133E-05
   -.124E-02 0.138E-03 -.205E-02   0.205E-02 -.158E-02 -.334E-02   0.579E-20 0.445E-20 0.122E-19   0.101E-05 0.223E-05 -.107E-05
   -.683E-03 0.121E-02 -.590E-03   0.319E-02 0.352E-02 0.259E-03   -.123E-19 0.149E-19 -.516E-20   -.989E-06 -.268E-05 0.827E-06
   0.278E-03 0.150E-02 0.162E-02   -.113E-02 -.115E-02 -.361E-03   0.154E-19 -.318E-20 0.318E-20   0.468E-06 0.223E-05 -.108E-05
   -.423E-02 -.326E-03 -.253E-02   -.486E-02 0.206E-02 -.709E-02   0.241E-19 -.439E-20 0.103E-19   0.471E-06 -.267E-05 0.107E-05
   0.174E-02 0.315E-02 0.282E-02   -.710E-03 0.572E-02 0.345E-02   0.251E-19 0.213E-19 -.164E-19   0.106E-05 -.347E-05 -.133E-05
   -.797E-03 -.578E-03 0.186E-02   0.682E-03 0.473E-02 0.288E-02   0.171E-19 0.619E-20 -.134E-19   0.103E-05 -.224E-05 -.786E-06
   0.159E-03 -.145E-02 0.473E-02   -.873E-04 -.222E-02 0.376E-02   0.279E-20 0.540E-20 0.111E-20   -.507E-06 0.268E-05 -.786E-06
   0.226E-02 0.725E-03 -.205E-02   0.305E-02 0.175E-02 0.163E-02   -.877E-20 -.156E-19 -.560E-20   -.993E-06 -.268E-05 -.111E-05
   -.304E-02 0.110E-02 0.105E-02   -.522E-02 0.208E-02 0.489E-02   0.408E-20 0.486E-20 0.323E-20   0.475E-06 -.267E-05 -.797E-06
   0.898E-03 -.387E-02 0.509E-02   0.340E-03 -.423E-02 0.162E-02   -.136E-19 0.635E-20 -.238E-20   -.360E-06 0.348E-05 0.182E-06
   0.280E-02 0.137E-02 0.146E-02   0.145E-02 0.443E-03 0.309E-02   -.912E-20 0.911E-20 -.381E-20   0.102E-05 -.222E-05 0.816E-06
   0.255E-02 -.276E-03 0.338E-02   0.358E-02 -.331E-02 0.332E-02   -.869E-21 0.199E-20 0.970E-20   0.102E-05 0.269E-05 0.816E-06
   -.198E-02 -.284E-02 -.213E-02   0.224E-02 -.353E-02 -.573E-02   -.186E-20 -.205E-19 -.142E-19   0.101E-05 0.268E-05 -.107E-05
   0.192E-02 0.116E-02 0.408E-03   0.121E-02 0.271E-02 -.250E-02   -.811E-20 0.593E-20 0.222E-20   0.103E-05 -.223E-05 0.106E-05
   0.122E-02 0.898E-03 0.945E-03   0.127E-02 0.199E-02 0.244E-02   -.108E-19 0.175E-20 -.123E-19   -.376E-06 -.346E-05 -.197E-06
   0.292E-02 0.415E-02 -.198E-02   0.174E-02 0.448E-02 -.415E-02   -.313E-20 0.136E-19 0.529E-22   -.105E-05 -.322E-06 0.133E-05
   0.205E-03 0.160E-02 0.269E-02   -.594E-03 0.426E-02 0.228E-02   0.967E-21 0.138E-19 -.214E-19   0.371E-06 -.348E-05 -.133E-05
   0.511E-02 -.219E-02 -.167E-02   0.404E-02 -.439E-02 -.121E-02   -.551E-21 0.884E-20 -.311E-20   0.102E-05 0.223E-05 0.105E-05
   -.117E-02 -.309E-02 0.105E-02   -.164E-02 -.314E-02 -.806E-03   0.124E-19 -.445E-20 0.104E-19   0.106E-05 -.309E-06 0.187E-06
   -.103E-02 0.109E-02 0.108E-02   0.439E-05 0.326E-02 0.149E-02   0.234E-19 -.238E-20 0.953E-20   0.105E-05 -.346E-05 -.196E-06
   -.280E-03 -.396E-02 0.235E-02   0.406E-04 -.303E-02 0.111E-02   -.304E-20 0.469E-20 -.107E-19   -.105E-05 0.330E-06 -.183E-06
   0.390E-02 -.382E-03 0.103E-02   0.253E-02 -.195E-02 -.259E-03   -.212E-19 -.118E-19 0.241E-20   -.982E-06 0.222E-05 -.109E-05
   -.188E-02 -.107E-02 0.104E-02   -.381E-03 -.413E-02 0.166E-02   0.533E-20 -.132E-21 -.222E-20   0.369E-06 0.347E-05 0.131E-05
   0.172E-02 -.311E-02 -.449E-03   0.805E-03 -.336E-02 -.817E-03   -.119E-20 -.725E-20 -.206E-20   -.366E-06 -.306E-06 0.193E-06
   -.321E-04 -.278E-02 0.401E-02   -.150E-02 -.488E-02 0.325E-02   -.224E-19 0.720E-20 0.215E-19   -.505E-06 0.223E-05 -.791E-06
   -.143E-02 -.209E-02 0.189E-02   -.360E-02 -.251E-02 -.156E-02   0.181E-19 0.551E-20 0.554E-20   0.466E-06 0.267E-05 -.107E-05
   -.114E-04 0.290E-02 0.975E-03   -.120E-02 0.534E-02 -.451E-02   0.971E-20 -.143E-19 -.265E-20   -.501E-06 -.268E-05 0.107E-05
   0.538E-02 0.158E-02 -.567E-03   0.227E-02 0.396E-02 -.392E-02   -.207E-20 -.176E-19 -.699E-20   0.103E-05 -.268E-05 0.107E-05
   0.552E-02 -.694E-03 0.532E-02   0.608E-02 0.404E-02 0.529E-02   0.566E-20 -.836E-20 0.212E-20   -.998E-06 -.224E-05 -.795E-06
   -.405E-03 -.335E-02 -.935E-03   0.160E-02 -.185E-02 -.105E-02   -.118E-19 0.203E-19 0.155E-19   -.987E-06 0.221E-05 0.819E-06
   -.475E-02 -.152E-02 0.230E-02   -.626E-02 0.396E-02 0.472E-02   0.311E-20 -.381E-20 0.306E-20   0.477E-06 -.225E-05 -.791E-06
   -.497E-02 -.137E-02 -.356E-02   -.567E-02 0.119E-02 -.529E-02   0.651E-20 0.124E-19 -.226E-19   0.475E-06 -.224E-05 0.107E-05
   -.244E-02 -.520E-03 -.240E-02   -.141E-02 -.655E-03 -.436E-03   -.694E-20 -.217E-20 0.723E-20   0.364E-06 -.315E-06 0.191E-06
   0.165E-03 -.147E-02 -.292E-03   -.627E-03 -.323E-02 -.399E-03   -.683E-20 -.134E-19 -.400E-20   -.503E-06 0.269E-05 0.105E-05
   -.155E-02 -.197E-03 -.130E-02   -.283E-03 -.427E-03 -.390E-03   -.963E-20 0.804E-21 0.106E-19   -.372E-06 0.327E-06 -.187E-06
   -.153E-02 0.405E-02 0.264E-02   -.428E-03 0.531E-02 0.518E-02   0.273E-20 -.100E-19 -.900E-21   -.375E-06 -.347E-05 -.135E-05
   0.356E-02 0.160E-02 -.208E-02   0.261E-02 0.319E-02 -.493E-02   -.146E-20 0.211E-19 -.151E-19   -.369E-06 -.346E-05 0.135E-05
   0.701E-03 0.157E-02 0.310E-03   -.102E-02 0.130E-02 -.422E-02   0.556E-20 0.149E-19 -.111E-19   -.508E-06 -.223E-05 0.106E-05
   0.112E-02 0.506E-03 -.167E-02   0.803E-03 -.681E-03 -.128E-02   0.108E-19 -.118E-19 0.160E-19   0.105E-05 0.326E-06 -.185E-06
   0.255E-02 -.408E-03 -.106E-02   0.238E-02 -.222E-02 0.545E-03   -.228E-20 0.121E-19 0.351E-20   0.102E-05 0.269E-05 0.104E-05
   0.745E-03 0.102E-02 0.244E-03   0.454E-02 -.500E-03 0.196E-02   -.113E-19 -.108E-19 0.146E-19   -.988E-06 -.222E-05 0.828E-06
   0.703E-04 -.403E-02 0.411E-02   -.242E-02 -.624E-02 0.170E-02   0.470E-20 0.238E-21 0.226E-19   0.105E-05 0.348E-05 0.175E-06
   0.348E-02 0.817E-03 -.187E-02   0.454E-02 0.182E-02 -.110E-02   -.517E-20 0.161E-19 -.470E-20   -.993E-06 -.222E-05 -.110E-05
 -----------------------------------------------------------------------------------------------
   -.964E-10 0.310E-09 -.999E-10   0.159E-13 -.880E-12 -.186E-11   0.358E-19 -.148E-19 0.111E-18   -.645E-11 0.315E-11 -.143E-10
 
 
 POSITION                                       TOTAL-FORCE (eV/Angst)
 -----------------------------------------------------------------------------------
      4.48786      1.49595      7.47976         0.000000      0.000000     -0.000000
      1.49595      4.48786     10.47167        -0.000000     -0.000000      0.000000
     10.47166     10.47166      4.48785         0.000000     -0.000000      0.000000
      0.00000      0.00000      2.99190        -0.000000     -0.000000      0.000000
      8.97571      8.97571      2.99190         0.000000     -0.000000      0.000000
      0.00000      0.00000      0.00000        -0.000000     -0.000000     -0.000000
      8.97571      8.97571      8.97571         0.000000     -0.000000      0.000000
      7.47976      4.48785      7.47976        -0.000000      0.000000      0.000000
      1.49595      7.47976      1.49595        -0.000000      0.000000     -0.000000
      0.00000      5.98381      2.99190        -0.000000     -0.000000      0.000000
      1.49595      4.48786      1.49595         0.000000      0.000000      0.000000
      5.98381     11.96762      8.97571        -0.000000     -0.000000     -0.000000
      5.98381      5.98381      2.99190         0.000000      0.000000     -0.000000
      5.98381      5.98381      5.98381        -0.000000      0.000000      0.000000
      1.49595      7.47976      4.48785        -0.000000     -0.000000      0.000000
     10.47167      7.47976     10.47167        -0.000000      0.000000      0.000000
      4.48786     10.47166      4.48786         0.000000     -0.000000      0.000000
      2.99190      2.99190      2.99190         0.000000     -0.000000     -0.000000
      4.48786      1.49595      1.49595         0.000000      0.000000      0.000000
      7.47976      1.49595      4.48786        -0.000000      0.000000      0.000000
      7.47976      7.47976     10.47167        -0.000000      0.000000     -0.000000
      2.99190      5.98381      0.00000         0.000000      0.000000      0.000000
      1.49595     10.47167      7.47976        -0.000000      0.000000     -0.000000
      8.97571      0.00000      8.97571        -0.000000      0.000000      0.000000
      1.49595      1.49595      4.48785         0.000000     -0.000000      0.000000
      5.98381      0.00000      0.00000        -0.000000     -0.000000     -0.000000
      2.99190      0.00000      8.97571         0.000000      0.000000      0.000000
      2.99190      8.97571      8.97571         0.000000      0.000000      0.000000
      8.97571      0.00000      2.99190         0.000000      0.000000      0.000000
     10.47166      4.48785     10.47166         0.000000      0.000000     -0.000000
      7.47976      7.47976      1.49595        -0.000000      0.000000     -0.000000
      0.00000      5.98381      5.98381        -0.000000     -0.000000      0.000000
      5.98381      2.99190      0.00000        -0.000000     -0.000000     -0.000000
      8.97571      8.97571      5.98381        -0.000000      0.000000     -0.000000
      4.48786     10.47167      7.47976         0.000000     -0.000000     -0.000000
      2.99190      2.99191      5.98381         0.000000     -0.000000     -0.000000
      1.49595     10.47167     10.47167         0.000000      0.000000     -0.000000
     10.47166      1.49595     10.47166        -0.000000      0.000000     -0.000000
      0.00000      8.97571      5.98381        -0.000000     -0.000000     -0.000000
     10.47166      4.48786      4.48785         0.000000      0.000000     -0.000000
     10.47166      1.49595      4.48786         0.000000      0.000000      0.000000
      7.47976     10.47167      7.47976         0.000000      0.000000      0.000000
      4.48786      4.48786     10.47166         0.000000     -0.000000      0.000000
      0.00000      0.00000      5.98381        -0.000000      0.000000     -0.000000
      8.97571      2.99191      8.97571        -0.000000      0.000000      0.000000
      0.00000      8.97571      8.97571         0.000000     -0.000000      0.000000
      8.97571      5.98381      5.98381         0.000000      0.000000     -0.000000
      5.98381      8.97571      2.99190        -0.000000     -0.000000      0.000000
      0.00000      2.99191      2.99190        -0.000000     -0.000000      0.000000
      1.49595      1.49595     10.47166        -0.000000      0.000000      0.000000
      2.99190      8.97571      0.00000         0.000000     -0.000000     -0.000000
      1.49595      7.47976     10.47167         0.000000      0.000000      0.000000
      0.00000      2.99191      5.98381        -0.000000     -0.000000      0.000000
      1.49595      1.49595      1.49595        -0.000000      0.000000     -0.000000
      7.47976      4.48785     10.47166        -0.000000     -0.000000      0.000000
      2.99190      0.00000      0.00000         0.000000      0.000000     -0.000000
      1.49595      1.49595      7.47976        -0.000000      0.000000     -0.000000
      5.98381      0.00000      2.99190        -0.000000      0.000000      0.000000
      4.48785      7.47976     10.47167         0.000000      0.000000     -0.000000
      7.47976     10.47166      4.48786        -0.000000      0.000000     -0.000000
      5.98381      8.97571      5.98381        -0.000000      0.000000     -0.000000
      5.98381      2.99191      8.97571        -0.000000      0.000000      0.000000
      7.47976     10.47166      1.49595        -0.000000     -0.000000      0.000000
      1.49595     10.47166      4.48785        -0.000000     -0.000000     -0.000000
     10.47167      4.48786      1.49595        -0.000000      0.000000     -0.000000
     10.47166     10.47166      7.47976         0.000000     -0.000000      0.000000
     10.47166      4.48785      7.47976         0.000000      0.000000      0.000000
     10.47166      1.49596      7.47976        -0.000000      0.000000     -0.000000
      1.49595      4.48786      7.47976        -0.000000      0.000000     -0.000000
      7.47976      4.48786      1.49595        -0.000000     -0.000000      0.000000
      7.47976      1.49596      7.47976        -0.000000      0.000000      0.000000
     10.47167     10.47166      1.49595         0.000000      0.000000      0.000000
      4.48786      1.49595      4.48786         0.000000     -0.000000     -0.000000
      7.47976      1.49595      1.49595        -0.000000     -0.000000     -0.000000
      1.49595      7.47976      7.47976        -0.000000      0.000000      0.000000
      0.00000      8.97571      2.99190        -0.000000     -0.000000      0.000000
      2.99190      2.99191      8.97571         0.000000     -0.000000      0.000000
      5.98381      2.99190      2.99190        -0.000000     -0.000000      0.000000
      0.00000      5.98381      8.97571         0.000000     -0.000000     -0.000000
      4.48785     10.47166      1.49595         0.000000     -0.000000     -0.000000
      4.48785      4.48786      1.49595         0.000000     -0.000000      0.000000
      2.99190      2.99190      0.00000         0.000000     -0.000000      0.000000
     10.47167      7.47976      4.48785         0.000000     -0.000000     -0.000000
     10.47167      7.47976      1.49596         0.000000     -0.000000     -0.000000
      4.48786      4.48785      7.47976        -0.000000     -0.000000      0.000000
      8.97571      0.00000      5.98381         0.000000      0.000000     -0.000000
      2.99190      8.97571      2.99190         0.000000     -0.000000      0.000000
      5.98381     11.96762      5.98381        -0.000000      0.000000     -0.000000
      5.98381      8.97571      0.00000        -0.000000     -0.000000     -0.000000
      7.47976      7.47976      7.47976        -0.000000     -0.000000      0.000000
      8.97571      5.98381      8.97571         0.000000     -0.000000      0.000000
     11.96762      2.99191      8.97571        -0.000000     -0.000000     -0.000000
      2.99190      8.97571      5.98381         0.000000     -0.000000      0.000000
      5.98381      8.97571      8.97571        -0.000000     -0.000000      0.000000
      4.48786      1.49596     10.47166         0.000000      0.000000      0.000000
      8.97571      5.98381      2.99190         0.000000      0.000000      0.000000
      8.97571      2.99191      2.99190         0.000000     -0.000000     -0.000000
      8.97571      2.99191      5.98381         0.000000      0.000000     -0.000000
      8.97571      5.98381      0.00000        -0.000000      0.000000     -0.000000
      4.48786      7.47976      4.48785         0.000000      0.000000      0.000000
      1.49595     10.47166      1.49595         0.000000     -0.000000     -0.000000
     10.47166      7.47976      7.47976         0.000000      0.000000     -0.000000
      8.97571      0.00000      0.00000        -0.000000     -0.000000      0.000000
      7.47976     10.47167     10.47166        -0.000000     -0.000000      0.000000
      7.47976      7.47976      4.48786        -0.000000      0.000000      0.000000
      1.49595      4.48786      4.48785        -0.000000      0.000000      0.000000
      2.99190      0.00000      5.98381         0.000000      0.000000     -0.000000
     10.47167      1.49595      1.49595         0.000000      0.000000     -0.000000
      4.48785     10.47167     10.47166         0.000000     -0.000000     -0.000000
      0.00000      0.00000      8.97571         0.000000     -0.000000     -0.000000
      5.98381      2.99191      5.98381        -0.000000     -0.000000     -0.000000
      0.00000      8.97571      0.00000         0.000000      0.000000      0.000000
      8.97571      8.97571      0.00000         0.000000      0.000000      0.000000
      2.99190      5.98381      8.97571         0.000000     -0.000000     -0.000000
      2.99190      0.00000      2.99190         0.000000      0.000000      0.000000
      5.98381      5.98381      8.97571        -0.000000      0.000000      0.000000
      5.98381      5.98381      0.00000        -0.000000      0.000000     -0.000000
     10.47167     10.47167     10.47167        -0.000000      0.000000      0.000000
      0.00000      2.99191      0.00000         0.000000      0.000000      0.000000
      4.48786      4.48786      4.48786         0.000000     -0.000000     -0.000000
      4.48786      7.47976      7.47976        -0.000000      0.000000     -0.000000
      4.48785      7.47976      1.49595         0.000000      0.000000     -0.000000
     11.96762      5.98381      0.00000        -0.000000     -0.000000     -0.000000
      7.47976      4.48786      4.48786         0.000000      0.000000     -0.000000
      8.97571      2.99190      0.00000         0.000000     -0.000000     -0.000000
      2.99190      5.98381      2.99190         0.000000     -0.000000      0.000000
      7.47976      1.49596     10.47166        -0.000000      0.000000      0.000000
      2.99190      5.98381      5.98381        -0.000000     -0.000000      0.000000
 -----------------------------------------------------------------------------------
    total drift:                               -0.000000      0.000000     -0.000000


--------------------------------------------------------------------------------------------------------



  FREE ENERGIE OF THE ION-ELECTRON SYSTEM (eV)
  ---------------------------------------------------
  free  energy   TOTEN  =     -1150.82543123 eV

  energy  without entropy=    -1150.39949218  energy(sigma->0) =    -1150.68345155
 d Force = 0.0000000E+00[ 0.000E+00, 0.000E+00]  d Energy =-0.4567519E-04 0.457E-04
 d Force = 0.0000000E+00[ 0.000E+00, 0.000E+00]  d Ewald  = 0.2492515E+02-0.249E+02
 


--------------------------------------------------------------------------------------------------------


    POTLOK:  cpu time      0.1194: real time      0.0196


--------------------------------------------------------------------------------------------------------




--------------------------------------------------------------------------------------------------------


  
 reached required accuracy - stopping structural energy minimisation
     LOOP+:  cpu time     28.3962: real time     25.0540
    4ORBIT:  cpu time      0.0000: real time      0.0000

 total amount of memory used by VASP MPI-rank0   546878. kBytes
=======================================================================

   base                                    :      30000. kBytes
   nonlr-proj                              :      31964. kBytes
   fftplans                                :      12710. kBytes
   grid                                    :      24134. kBytes
   one-center                              :       1990. kBytes
   wavefun                                 :     446080. kBytes
 
  
  
 General timing and accounting informations for this job:
 ========================================================
  
                  Total CPU time used (sec):      200.763
                            User time (sec):      186.971
                          System time (sec):       13.792
                         Elapsed time (sec):      159.303
  
                   Maximum memory used (kb):     1858888.
                   Average memory used (kb):          N/A
  
                          Minor page faults:       210927
                          Major page faults:         1176
                 Voluntary context switches:        98289
