 V                                      
    1.000000000000000     
    11.9676164044246516   -0.0000000455922182    0.0000000879318610
    -0.0000000555926168   11.9676171377190403   -0.0000000962005582
     0.0000000931512234   -0.0000000817259271   11.9676161190247168
  V             
   128
Direct
     0.3750001279663167    0.1250002252457065    0.6250000378223248
     0.1250000630185610    0.3749999454856834    0.8750001097314737
     0.8750000350900606    0.8749997778285987    0.3749998312093155
     0.0000001495475956    0.0000001475550775    0.2500000747975903
     0.7499997457166998    0.7499999136330544    0.2499998652602002
     0.0000000473366057    0.0000001952159820    0.0000000264545292
     0.7499999439169613    0.7499998498167102    0.7499998278823128
     0.6249999568559730    0.3749997463440877    0.6250000177509278
     0.1249998342975900    0.6249999054259021    0.1250001827392850
     0.0000001656287765    0.4999998854049750    0.2499999088048810
     0.1249999072279451    0.3750002453817913    0.1249999792287682
     0.5000002564525161    0.9999999584982717    0.7500000001164864
     0.5000001407548567    0.5000000187919227    0.2499998743086707
     0.5000002036806350    0.5000000286979187    0.5000000453506388
     0.1249998252137772    0.6249999383010874    0.3749996251017222
     0.8750001749599647    0.6249998464421154    0.8750002598616788
     0.3749999698492701    0.8749999122808845    0.3749999706912845
     0.2499998958888341    0.2499999663278203    0.2499999619577409
     0.3749999139783284    0.1250001617861543    0.1250000330282077
     0.6249999561769783    0.1250001995751546    0.3750002625425140
     0.6250001279834265    0.6249996548433643    0.8750000828547044
     0.2499997888126231    0.4999999334590939    0.0000002883882857
     0.1250000000215579    0.8750001052039735    0.6249999514606372
     0.7500000016888251    0.0000001380890708    0.7499999427944530
     0.1250001004395145    0.1250000523002228    0.3749999104339281
     0.5000002750747825    0.0000000620414724    0.0000003164854760
     0.2499997078160590    0.0000000131209887    0.7499997976630581
     0.2499998033614403    0.7499999519034475    0.7499997162569514
     0.7499997487935062    0.0000000715810344    0.2499997921549593
     0.8749999590951205    0.3749998808985282    0.8750000333802390
     0.6250001182953184    0.6249997390960047    0.1250002157223378
     0.0000001367660403    0.4999998893279525    0.5000002791286633
     0.5000003325466196    0.2499999117141201    0.0000003092318366
     0.7499999669645021    0.7499998332556217    0.5000002232453724
     0.3750000065276495    0.8750002571453166    0.6249997596296879
     0.2499995881700414    0.2500000664742359    0.4999999854625159
     0.1249998704988826    0.8750000531129203    0.8750001206365425
     0.8750000182782287    0.1250002444851077    0.8749999595438851
     0.0000001009909241    0.7499998766447433    0.5000002051783525
     0.8749999802316495    0.3750002275451934    0.3749999004703497
     0.8749998957121790    0.1250000710993930    0.3749999958787384
     0.6250000126773685    0.8750001792888256    0.6249997579037583
     0.3749999603024534    0.3749998999188975    0.8749998855116701
     0.0000002092456910    0.0000001357097901    0.5000001478936653
     0.7500000886824409    0.2500001023004543    0.7499999791302727
     0.0000000099334940    0.7499998144454310    0.7499996959199962
     0.7499999291581858    0.4999999742608381    0.5000002532684817
     0.5000001271103685    0.7499999230236583    0.2499998015712492
     0.0000002028642641    0.2500000860418794    0.2500000126695667
     0.1249999862350606    0.1250002098462417    0.8749999498557486
     0.2499999726133524    0.7499998941778259    0.0000001933615650
     0.1249998874755534    0.6249997864129853    0.8750003585888919
     0.0000002193585686    0.2500000803710591    0.5000002750181096
     0.1249999412671698    0.1250001386380859    0.1249999356574349
     0.6250000127011432    0.3749998408799726    0.8749998198624382
     0.2499999910301582    0.0000001910529477    0.0000001870462469
     0.1250002407033861    0.1250001712579873    0.6250002025574801
     0.5000001073329727    0.0000001134232264    0.2499997422629505
     0.3749998215555763    0.6249995995931599    0.8750001426155691
     0.6249999626730798    0.8749999137948876    0.3750001472579640
     0.5000001094598261    0.7499998910960954    0.5000000497263883
     0.5000003762457652    0.2500001300853683    0.7499999446294368
     0.6250000869067449    0.8749998977458020    0.1250001441079007
     0.1250000216758096    0.8749997623290824    0.3749997493823614
     0.8750001305853488    0.3750002517942903    0.1250000097636104
     0.8749999747600086    0.8750000014072938    0.6249999475746861
     0.8749998579146308    0.3749998879556529    0.6250000633796375
     0.8749997819068014    0.1250002675311066    0.6250001220156918
     0.1250000530296873    0.3749999541771771    0.6250000524673780
     0.6250001068464854    0.3750001187299503    0.1250000576813619
     0.6249998517690116    0.1250003380975286    0.6250000120228449
     0.8750003095149239    0.8749997516074899    0.1250001080489866
     0.3750000562444882    0.1250001278767101    0.3750002259032144
     0.6250000365557540    0.1250002386690170    0.1249999697059465
     0.1250000024159306    0.6249997823438989    0.6249998326317794
     0.0000001500740368    0.7499998559497527    0.2500000618127487
     0.2499995203279113    0.2500000938199065    0.7499997524298223
     0.5000001031084338    0.2499999608475747    0.2499997910688592
     0.0000000023456934    0.4999998583643972    0.7499997348540148
     0.3749997728156771    0.8749998350328099    0.1250002317710468
     0.3749998560678591    0.3750001415945050    0.1250000041686405
     0.2499998422658933    0.2499999669084119    0.0000003042070702
     0.8750002082410759    0.6249999136686384    0.3749996704520697
     0.8750002699023298    0.6249998729586252    0.1250002497392373
     0.3750001244628507    0.3749998164262394    0.6250000208440980
     0.7500000249335130    0.0000000218371667    0.5000001629232642
     0.2499999761843839    0.7499998759636455    0.2500000247639207
     0.5000000066590147    0.9999999458478115    0.4999999259876375
     0.5000002988630712    0.7499999789655689    0.0000002546422309
     0.6249999258699717    0.6249997392041138    0.6249997965338068
     0.7500000273745400    0.4999999429676691    0.7499998550896336
     0.9999999936377577    0.2500001127436917    0.7499996960661974
     0.2499998317746019    0.7499999320023747    0.5000000728006171
     0.5000002463651683    0.7499999074768624    0.7499998588022976
     0.3749999490477265    0.1250002694761534    0.8749997165580439
     0.7499998338969789    0.4999999234328314    0.2499998711547136
     0.7499998076189272    0.2500000738221928    0.2499997712645339
     0.7500000579461243    0.2500002056798891    0.5000002102706915
     0.7499998824281704    0.4999998928466525    0.0000000250107988
     0.3749999162022561    0.6249999191058748    0.3749999086482063
     0.1249998230416196    0.8749997119251134    0.1250001740023094
     0.8750000005329639    0.6249998427232057    0.6249998245664230
     0.7499996718264228    0.0000001888382144    0.0000001052461656
     0.6250000879709816    0.8750002110655259    0.8749999622468465
     0.6250000510922149    0.6249998866466200    0.3749999190514259
     0.1250000132243301    0.3750002522636038    0.3749998627114906
     0.2499997595053998    0.0000000544499983    0.4999999534274835
     0.8750001008032910    0.1250001285402718    0.1249999181255674
     0.3749998995533588    0.8750002160759891    0.8750000372267408
     0.0000000288932043    0.0000002273727304    0.7499997407090362
     0.5000001363780981    0.2500001499992095    0.4999999343520543
     0.0000000222998509    0.7499997584113629    0.0000000331359686
     0.7499996903022179    0.7499998493628439    0.0000000993737856
     0.2499996140417764    0.4999999612781991    0.7499996385325645
     0.2499999911187132    0.0000002007234912    0.2500000656690204
     0.5000003505534352    0.5000000041453774    0.7499997996996015
     0.5000003508836741    0.5000000467954564    0.0000002734123044
     0.8750001475497982    0.8750000377996017    0.8750001274908001
     0.0000000031549590    0.2500001318068641    0.0000000218307434
     0.3750000822149460    0.3750000175551307    0.3750000720375652
     0.3750000839408330    0.6249997015225688    0.6249997743634310
     0.3749997751956613    0.6249998621925954    0.1250001930545324
     0.9999999835482356    0.4999998981165206    0.0000000611873432
     0.6249999294383457    0.3749999871179099    0.3750001065803090
     0.7499998294671357    0.2500000605400601    0.0000000429247606
     0.2499998804600878    0.4999999579559855    0.2499999522216712
     0.6250000403112921    0.1250003142583935    0.8749997642753229
     0.2499997439045600    0.4999999263084689    0.5000001130447203
 
  0.00000000E+00  0.00000000E+00  0.00000000E+00
  0.00000000E+00  0.00000000E+00  0.00000000E+00
  0.00000000E+00  0.00000000E+00  0.00000000E+00
  0.00000000E+00  0.00000000E+00  0.00000000E+00
  0.00000000E+00  0.00000000E+00  0.00000000E+00
  0.00000000E+00  0.00000000E+00  0.00000000E+00
  0.00000000E+00  0.00000000E+00  0.00000000E+00
  0.00000000E+00  0.00000000E+00  0.00000000E+00
  0.00000000E+00  0.00000000E+00  0.00000000E+00
  0.00000000E+00  0.00000000E+00  0.00000000E+00
  0.00000000E+00  0.00000000E+00  0.00000000E+00
  0.00000000E+00  0.00000000E+00  0.00000000E+00
  0.00000000E+00  0.00000000E+00  0.00000000E+00
  0.00000000E+00  0.00000000E+00  0.00000000E+00
  0.00000000E+00  0.00000000E+00  0.00000000E+00
  0.00000000E+00  0.00000000E+00  0.00000000E+00
  0.00000000E+00  0.00000000E+00  0.00000000E+00
  0.00000000E+00  0.00000000E+00  0.00000000E+00
  0.00000000E+00  0.00000000E+00  0.00000000E+00
  0.00000000E+00  0.00000000E+00  0.00000000E+00
  0.00000000E+00  0.00000000E+00  0.00000000E+00
  0.00000000E+00  0.00000000E+00  0.00000000E+00
  0.00000000E+00  0.00000000E+00  0.00000000E+00
  0.00000000E+00  0.00000000E+00  0.00000000E+00
  0.00000000E+00  0.00000000E+00  0.00000000E+00
  0.00000000E+00  0.00000000E+00  0.00000000E+00
  0.00000000E+00  0.00000000E+00  0.00000000E+00
  0.00000000E+00  0.00000000E+00  0.00000000E+00
  0.00000000E+00  0.00000000E+00  0.00000000E+00
  0.00000000E+00  0.00000000E+00  0.00000000E+00
  0.00000000E+00  0.00000000E+00  0.00000000E+00
  0.00000000E+00  0.00000000E+00  0.00000000E+00
  0.00000000E+00  0.00000000E+00  0.00000000E+00
  0.00000000E+00  0.00000000E+00  0.00000000E+00
  0.00000000E+00  0.00000000E+00  0.00000000E+00
  0.00000000E+00  0.00000000E+00  0.00000000E+00
  0.00000000E+00  0.00000000E+00  0.00000000E+00
  0.00000000E+00  0.00000000E+00  0.00000000E+00
  0.00000000E+00  0.00000000E+00  0.00000000E+00
  0.00000000E+00  0.00000000E+00  0.00000000E+00
  0.00000000E+00  0.00000000E+00  0.00000000E+00
  0.00000000E+00  0.00000000E+00  0.00000000E+00
  0.00000000E+00  0.00000000E+00  0.00000000E+00
  0.00000000E+00  0.00000000E+00  0.00000000E+00
  0.00000000E+00  0.00000000E+00  0.00000000E+00
  0.00000000E+00  0.00000000E+00  0.00000000E+00
  0.00000000E+00  0.00000000E+00  0.00000000E+00
  0.00000000E+00  0.00000000E+00  0.00000000E+00
  0.00000000E+00  0.00000000E+00  0.00000000E+00
  0.00000000E+00  0.00000000E+00  0.00000000E+00
  0.00000000E+00  0.00000000E+00  0.00000000E+00
  0.00000000E+00  0.00000000E+00  0.00000000E+00
  0.00000000E+00  0.00000000E+00  0.00000000E+00
  0.00000000E+00  0.00000000E+00  0.00000000E+00
  0.00000000E+00  0.00000000E+00  0.00000000E+00
  0.00000000E+00  0.00000000E+00  0.00000000E+00
  0.00000000E+00  0.00000000E+00  0.00000000E+00
  0.00000000E+00  0.00000000E+00  0.00000000E+00
  0.00000000E+00  0.00000000E+00  0.00000000E+00
  0.00000000E+00  0.00000000E+00  0.00000000E+00
  0.00000000E+00  0.00000000E+00  0.00000000E+00
  0.00000000E+00  0.00000000E+00  0.00000000E+00
  0.00000000E+00  0.00000000E+00  0.00000000E+00
  0.00000000E+00  0.00000000E+00  0.00000000E+00
  0.00000000E+00  0.00000000E+00  0.00000000E+00
  0.00000000E+00  0.00000000E+00  0.00000000E+00
  0.00000000E+00  0.00000000E+00  0.00000000E+00
  0.00000000E+00  0.00000000E+00  0.00000000E+00
  0.00000000E+00  0.00000000E+00  0.00000000E+00
  0.00000000E+00  0.00000000E+00  0.00000000E+00
  0.00000000E+00  0.00000000E+00  0.00000000E+00
  0.00000000E+00  0.00000000E+00  0.00000000E+00
  0.00000000E+00  0.00000000E+00  0.00000000E+00
  0.00000000E+00  0.00000000E+00  0.00000000E+00
  0.00000000E+00  0.00000000E+00  0.00000000E+00
  0.00000000E+00  0.00000000E+00  0.00000000E+00
  0.00000000E+00  0.00000000E+00  0.00000000E+00
  0.00000000E+00  0.00000000E+00  0.00000000E+00
  0.00000000E+00  0.00000000E+00  0.00000000E+00
  0.00000000E+00  0.00000000E+00  0.00000000E+00
  0.00000000E+00  0.00000000E+00  0.00000000E+00
  0.00000000E+00  0.00000000E+00  0.00000000E+00
  0.00000000E+00  0.00000000E+00  0.00000000E+00
  0.00000000E+00  0.00000000E+00  0.00000000E+00
  0.00000000E+00  0.00000000E+00  0.00000000E+00
  0.00000000E+00  0.00000000E+00  0.00000000E+00
  0.00000000E+00  0.00000000E+00  0.00000000E+00
  0.00000000E+00  0.00000000E+00  0.00000000E+00
  0.00000000E+00  0.00000000E+00  0.00000000E+00
  0.00000000E+00  0.00000000E+00  0.00000000E+00
  0.00000000E+00  0.00000000E+00  0.00000000E+00
  0.00000000E+00  0.00000000E+00  0.00000000E+00
  0.00000000E+00  0.00000000E+00  0.00000000E+00
  0.00000000E+00  0.00000000E+00  0.00000000E+00
  0.00000000E+00  0.00000000E+00  0.00000000E+00
  0.00000000E+00  0.00000000E+00  0.00000000E+00
  0.00000000E+00  0.00000000E+00  0.00000000E+00
  0.00000000E+00  0.00000000E+00  0.00000000E+00
  0.00000000E+00  0.00000000E+00  0.00000000E+00
  0.00000000E+00  0.00000000E+00  0.00000000E+00
  0.00000000E+00  0.00000000E+00  0.00000000E+00
  0.00000000E+00  0.00000000E+00  0.00000000E+00
  0.00000000E+00  0.00000000E+00  0.00000000E+00
  0.00000000E+00  0.00000000E+00  0.00000000E+00
  0.00000000E+00  0.00000000E+00  0.00000000E+00
  0.00000000E+00  0.00000000E+00  0.00000000E+00
  0.00000000E+00  0.00000000E+00  0.00000000E+00
  0.00000000E+00  0.00000000E+00  0.00000000E+00
  0.00000000E+00  0.00000000E+00  0.00000000E+00
  0.00000000E+00  0.00000000E+00  0.00000000E+00
  0.00000000E+00  0.00000000E+00  0.00000000E+00
  0.00000000E+00  0.00000000E+00  0.00000000E+00
  0.00000000E+00  0.00000000E+00  0.00000000E+00
  0.00000000E+00  0.00000000E+00  0.00000000E+00
  0.00000000E+00  0.00000000E+00  0.00000000E+00
  0.00000000E+00  0.00000000E+00  0.00000000E+00
  0.00000000E+00  0.00000000E+00  0.00000000E+00
  0.00000000E+00  0.00000000E+00  0.00000000E+00
  0.00000000E+00  0.00000000E+00  0.00000000E+00
  0.00000000E+00  0.00000000E+00  0.00000000E+00
  0.00000000E+00  0.00000000E+00  0.00000000E+00
  0.00000000E+00  0.00000000E+00  0.00000000E+00
  0.00000000E+00  0.00000000E+00  0.00000000E+00
  0.00000000E+00  0.00000000E+00  0.00000000E+00
  0.00000000E+00  0.00000000E+00  0.00000000E+00
  0.00000000E+00  0.00000000E+00  0.00000000E+00
  0.00000000E+00  0.00000000E+00  0.00000000E+00
  0.00000000E+00  0.00000000E+00  0.00000000E+00
