 running    4 mpi-ranks, with   16 threads/rank, on    1 nodes
 distrk:  each k-point on    4 cores,    1 groups
 distr:  one band on    1 cores,    4 groups
 Offloading initialized ...    4 GPUs detected
 vasp.6.5.1 10Mar25 (build Aug 28 2025 04:51:22) complex                         
 POSCAR found type information on POSCAR V 
 POSCAR found :  1 types and     128 ions
 Reading from existing POTCAR
 scaLAPACK will be used selectively (only on CPU)
 Reading from existing POTCAR
 LDA part: xc-table for (Slater+PW92), standard interpolation
 POSCAR, INCAR and KPOINTS ok, starting setup
 FFT: planning ... GRIDC
 FFT: planning ... GRID_SOFT
 FFT: planning ... GRID
 WAVECAR not read
 entering main loop
       N       E                     dE             d eps       ncg     rms          rms(c)
DAV:   1     0.245531663324E+05    0.24553E+05   -0.79793E+05  8152   0.152E+03
DAV:   2     0.336598062198E+03   -0.24217E+05   -0.23681E+05  8000   0.600E+02
DAV:   3    -0.124170964617E+04   -0.15783E+04   -0.14960E+04 10568   0.163E+02
DAV:   4    -0.132555332764E+04   -0.83844E+02   -0.80237E+02  9992   0.294E+01
DAV:   5    -0.132751342319E+04   -0.19601E+01   -0.19445E+01  9704   0.480E+00    0.208E+02
DAV:   6    -0.115354156459E+04    0.17397E+03   -0.86239E+02  8280   0.446E+01    0.211E+01
DAV:   7    -0.115179184583E+04    0.17497E+01   -0.12143E+01  9376   0.433E+00    0.106E+01
DAV:   8    -0.115083786073E+04    0.95399E+00   -0.14486E+00  9048   0.241E+00    0.152E+00
DAV:   9    -0.115082040212E+04    0.17459E-01   -0.14367E-01  9224   0.594E-01    0.313E-01
DAV:  10    -0.115082109247E+04   -0.69035E-03   -0.52759E-03  9872   0.844E-02    0.135E-01
DAV:  11    -0.115082098958E+04    0.10288E-03   -0.77009E-04  9104   0.426E-02    0.990E-03
DAV:  12    -0.115082100308E+04   -0.13498E-04   -0.17397E-05  8616   0.599E-03    0.305E-03
DAV:  13    -0.115082101629E+04   -0.13208E-04   -0.65380E-07  5480   0.138E-03    0.694E-04
DAV:  14    -0.115082101814E+04   -0.18494E-05   -0.20209E-07  5112   0.622E-04    0.338E-04
DAV:  15    -0.115082101883E+04   -0.69583E-06   -0.14046E-07  5072   0.862E-04
   1 F= -.11508210E+04 E0= -.11506802E+04  d E =-.115082E+04
 curvature:   0.00 expect dE= 0.000E+00 dE for cont linesearch  0.000E+00
 trial: gam= 0.00000 g(F)=  0.120E-37 g(S)=  0.141E-01 ort = 0.000E+00 (trialstep = 0.100E+01)
 search vector abs. value=  0.141E-01
 bond charge predicted
       N       E                     dE             d eps       ncg     rms          rms(c)
DAV:   1    -0.115128615845E+04   -0.46514E+00   -0.10410E+01  8272   0.620E+00    0.724E+00
DAV:   2    -0.115082875902E+04    0.45740E+00   -0.26533E+00  8400   0.244E+00    0.140E+00
DAV:   3    -0.115082519790E+04    0.35611E-02   -0.23232E-02  8712   0.185E-01    0.863E-01
DAV:   4    -0.115082260723E+04    0.25907E-02   -0.73548E-03  8376   0.129E-01    0.143E-01
DAV:   5    -0.115082263893E+04   -0.31698E-04   -0.13124E-03  8784   0.514E-02    0.440E-02
DAV:   6    -0.115082267245E+04   -0.33514E-04   -0.13788E-04  8712   0.164E-02    0.941E-03
DAV:   7    -0.115082266672E+04    0.57256E-05   -0.38749E-06  6208   0.190E-03    0.343E-03
DAV:   8    -0.115082266721E+04   -0.49217E-06   -0.35723E-07  4656   0.988E-04
   2 F= -.11508227E+04 E0= -.11506795E+04  d E =-.164838E-02
 trial-energy change:   -0.001648  1 .order    0.000524   -0.014082    0.015130
 step:   0.5900(harm=  0.4821)  dis= 0.00000  next Energy= -1150.825619 (dE=-0.460E-02)
 bond charge predicted
       N       E                     dE             d eps       ncg     rms          rms(c)
DAV:   1    -0.115090325138E+04   -0.80585E-01   -0.17478E+00  8208   0.253E+00    0.298E+00
DAV:   2    -0.115082641637E+04    0.76835E-01   -0.44448E-01  8328   0.100E+00    0.582E-01
DAV:   3    -0.115082590489E+04    0.51148E-03   -0.39485E-03  8544   0.766E-02    0.360E-01
DAV:   4    -0.115082552909E+04    0.37580E-03   -0.12442E-03  8240   0.530E-02    0.581E-02
DAV:   5    -0.115082550059E+04    0.28506E-04   -0.21854E-04  8632   0.209E-02    0.170E-02
Warning: ieee_invalid is signaling
Warning: ieee_divide_by_zero is signaling
Warning: ieee_underflow is signaling
Warning: ieee_inexact is signaling
FORTRAN STOP
Warning: ieee_invalid is signaling
Warning: ieee_divide_by_zero is signaling
Warning: ieee_underflow is signaling
Warning: ieee_inexact is signaling
FORTRAN STOP
Warning: ieee_invalid is signaling
Warning: ieee_divide_by_zero is signaling
Warning: ieee_underflow is signaling
Warning: ieee_inexact is signaling
FORTRAN STOP
Warning: ieee_invalid is signaling
Warning: ieee_divide_by_zero is signaling
Warning: ieee_underflow is signaling
Warning: ieee_inexact is signaling
FORTRAN STOP
DAV:   6    -0.115082547521E+04    0.25378E-04   -0.21431E-05  8480   0.644E-03    0.406E-03
DAV:   7    -0.115082547749E+04   -0.22822E-05   -0.47788E-07  4624   0.800E-04    0.110E-03
DAV:   8    -0.115082547691E+04    0.58016E-06   -0.12500E-07  4352   0.383E-04
   3 F= -.11508255E+04 E0= -.11506833E+04  d E =-.445808E-02
 curvature:  -0.23 expect dE=-0.132E-03 dE for cont linesearch -0.132E-03
 ZBRENT: interpolating
 opt :   0.4910  next Energy= -1150.825617 (dE=-0.460E-02)
 bond charge predicted
       N       E                     dE             d eps       ncg     rms          rms(c)
DAV:   1    -0.115082995468E+04   -0.44772E-02   -0.10192E-01  8232   0.613E-01    0.720E-01
DAV:   2    -0.115082547642E+04    0.44783E-02   -0.25901E-02  8344   0.241E-01    0.140E-01
DAV:   3    -0.115082545662E+04    0.19795E-04   -0.22691E-04  8496   0.184E-02    0.868E-02
DAV:   4    -0.115082544277E+04    0.13854E-04   -0.72357E-05  8240   0.128E-02    0.142E-02
DAV:   5    -0.115082543668E+04    0.60926E-05   -0.12890E-05  7800   0.510E-03    0.429E-03
DAV:   6    -0.115082543113E+04    0.55464E-05   -0.11989E-06  4464   0.160E-03    0.690E-04
DAV:   7    -0.115082543123E+04   -0.10454E-06   -0.12291E-07  4312   0.394E-04
   4 F= -.11508254E+04 E0= -.11506835E+04  d E =-.441240E-02
 curvature:  -0.25 expect dE=-0.176E-06 dE for cont linesearch -0.176E-06
 trial: gam= 0.00000 g(F)=  0.168E-37 g(S)=  0.716E-06 ort =-0.100E-03 (trialstep = 0.898E+00)
 search vector abs. value=  0.716E-06
 reached required accuracy - stopping structural energy minimisation
