<?xml version="1.0" encoding="ISO-8859-1"?>
<modeling>
 <generator>
  <i name="program" type="string">vasp </i>
  <i name="version" type="string">6.5.1  </i>
  <i name="subversion" type="string">10Mar25 (build Aug 28 2025 04:51:22) complex                          parallel </i>
  <i name="platform" type="string">LinuxNV </i>
  <i name="date" type="string">2026 05 18 </i>
  <i name="time" type="string">15:23:13 </i>
 </generator>
 <incar>
  <i type="string" name="SYSTEM">bcc_NbZr_Zr128</i>
  <i type="int" name="ISTART">     0</i>
  <i type="string" name="PREC">Normal</i>
  <i type="string" name="ALGO">Normal</i>
  <i type="int" name="ICHARG">     2</i>
  <i type="int" name="NELM">   120</i>
  <i type="int" name="IBRION">     2</i>
  <i name="EDIFF">      0.00000100</i>
  <i type="int" name="NSW">   100</i>
  <i type="int" name="ISIF">     3</i>
  <i type="int" name="ISYM">     2</i>
  <i name="ENCUT">    350.00000000</i>
  <i type="string" name="LREAL">Auto</i>
  <i type="int" name="ISMEAR">     1</i>
  <i name="SIGMA">      0.20000000</i>
  <i type="logical" name="LWAVE"> F  </i>
  <i type="logical" name="LCHARG"> F  </i>
 </incar>
 <primitive_cell>
  <structure name="primitive_cell" >
   <crystal>
    <varray name="basis" >
     <v>       1.49497320       1.49497513      -1.49497734 </v>
     <v>      -1.49497321       1.49497571       1.49497731 </v>
     <v>       1.49497446      -1.49497573       1.49497461 </v>
    </varray>
    <i name="volume">     13.36478086 </i>
    <varray name="rec_basis" >
     <v>       0.33445408       0.33445366      -0.00000014 </v>
     <v>       0.00000037       0.33445366       0.33445354 </v>
     <v>       0.33445432       0.00000000       0.33445340 </v>
    </varray>
   </crystal>
   <varray name="positions" >
    <v>       0.00000270       0.00000237       0.00000242 </v>
   </varray>
  </structure>
  <varray name="primitive_index" >
   <v type="int" >        1 </v>
  </varray>
 </primitive_cell>
 <kpoints>
  <generation param="Gamma">
   <v type="int" name="divisions">       2        2        2 </v>
   <v name="usershift">      0.00000000       0.00000000       0.00000000 </v>
   <v name="genvec1">      0.50000000      -0.00000000      -0.00000000 </v>
   <v name="genvec2">      0.00000000       0.50000000      -0.00000000 </v>
   <v name="genvec3">     -0.00000000      -0.00000000       0.50000000 </v>
   <v name="shift">      0.00000000       0.00000000       0.00000000 </v>
  </generation>
  <varray name="kpointlist" >
   <v>       0.00000000       0.00000000       0.00000000 </v>
   <v>       0.50000000       0.00000000       0.00000000 </v>
   <v>       0.50000000       0.50000000       0.00000000 </v>
   <v>       0.50000000       0.50000000       0.50000000 </v>
  </varray>
  <varray name="weights" >
   <v>       0.12500000 </v>
   <v>       0.37500000 </v>
   <v>       0.37500000 </v>
   <v>       0.12500000 </v>
  </varray>
 </kpoints>
 <parameters>
  <separator name="general" >
   <i type="string" name="SYSTEM">bcc_NbZr_Zr128</i>
   <i type="logical" name="LCOMPAT"> F  </i>
  </separator>
  <separator name="electronic" >
   <i type="string" name="PREC">normal</i>
   <i name="ENMAX">    350.00000000</i>
   <i name="ENAUG">    526.56800000</i>
   <i name="EDIFF">      0.00000100</i>
   <i type="int" name="IALGO">    38</i>
   <i type="int" name="IWAVPR">    11</i>
   <i type="int" name="NBANDS">  1000</i>
   <i type="int" name="NBANDSLOW">    -1</i>
   <i type="int" name="NBANDSHIGH">    -1</i>
   <i name="NELECT">   1664.00000000</i>
   <i type="int" name="TURBO">     0</i>
   <i type="int" name="IRESTART">     0</i>
   <i type="int" name="NREBOOT">     0</i>
   <i type="int" name="NMIN">     0</i>
   <i name="EREF">      0.00000000</i>
   <separator name="electronic smearing" >
    <i type="int" name="ISMEAR">     1</i>
    <i name="SIGMA">      0.20000000</i>
    <i name="KSPACING">      0.50000000</i>
    <i type="logical" name="KGAMMA"> T  </i>
    <i type="logical" name="KBLOWUP"> T  </i>
   </separator>
   <separator name="electronic projectors" >
    <i type="logical" name="LREAL"> T  </i>
    <v name="ROPT">     -0.00050000</v>
    <i type="int" name="LMAXPAW">  -100</i>
    <i type="int" name="LMAXMIX">     2</i>
    <i type="logical" name="NLSPLINE"> F  </i>
   </separator>
   <separator name="electronic startup" >
    <i type="int" name="ISTART">     0</i>
    <i type="int" name="ICHARG">     2</i>
    <i type="int" name="INIWAV">     1</i>
   </separator>
   <separator name="electronic spin" >
    <i type="int" name="ISPIN">     1</i>
    <i type="logical" name="LNONCOLLINEAR"> F  </i>
    <v name="MAGMOM">      1.00000000      1.00000000      1.00000000      1.00000000      1.00000000      1.00000000      1.00000000      1.00000000      1.00000000      1.00000000      1.00000000      1.00000000      1.00000000      1.00000000      1.00000000      1.00000000      1.00000000      1.00000000      1.00000000      1.00000000
      1.00000000      1.00000000      1.00000000      1.00000000      1.00000000      1.00000000      1.00000000      1.00000000      1.00000000      1.00000000      1.00000000      1.00000000      1.00000000      1.00000000      1.00000000      1.00000000      1.00000000      1.00000000      1.00000000      1.00000000
      1.00000000      1.00000000      1.00000000      1.00000000      1.00000000      1.00000000      1.00000000      1.00000000      1.00000000      1.00000000      1.00000000      1.00000000      1.00000000      1.00000000      1.00000000      1.00000000      1.00000000      1.00000000      1.00000000      1.00000000
      1.00000000      1.00000000      1.00000000      1.00000000      1.00000000      1.00000000      1.00000000      1.00000000      1.00000000      1.00000000      1.00000000      1.00000000      1.00000000      1.00000000      1.00000000      1.00000000      1.00000000      1.00000000      1.00000000      1.00000000
      1.00000000      1.00000000      1.00000000      1.00000000      1.00000000      1.00000000      1.00000000      1.00000000      1.00000000      1.00000000      1.00000000      1.00000000      1.00000000      1.00000000      1.00000000      1.00000000      1.00000000      1.00000000      1.00000000      1.00000000
      1.00000000      1.00000000      1.00000000      1.00000000      1.00000000      1.00000000      1.00000000      1.00000000      1.00000000      1.00000000      1.00000000      1.00000000      1.00000000      1.00000000      1.00000000      1.00000000      1.00000000      1.00000000      1.00000000      1.00000000
      1.00000000      1.00000000      1.00000000      1.00000000      1.00000000      1.00000000      1.00000000      1.00000000</v>
    <i name="NUPDOWN">     -1.00000000</i>
    <i type="logical" name="LSORBIT"> F  </i>
    <v name="SAXIS">      0.00000000      0.00000000      1.00000000</v>
    <i type="logical" name="LSPIRAL"> F  </i>
    <v name="QSPIRAL">      0.00000000      0.00000000      0.00000000</v>
    <i type="logical" name="LZEROZ"> F  </i>
   </separator>
   <separator name="electronic exchange-correlation" >
    <i type="logical" name="LASPH"> F  </i>
   </separator>
   <separator name="electronic convergence" >
    <i type="int" name="NELM">   120</i>
    <i type="int" name="NELMDL">    -5</i>
    <i type="int" name="NELMIN">     2</i>
    <i name="ENINI">    350.00000000</i>
    <separator name="electronic convergence detail" >
     <i type="logical" name="LDIAG"> T  </i>
     <i type="logical" name="LSUBROT"> F  </i>
     <i type="logical" name="LROBUST"> F  </i>
     <i type="int" name="ISEARCH">     0</i>
     <i name="WEIMIN">      0.00100000</i>
     <i name="EBREAK">      0.00000000</i>
     <i name="DEPER">      0.30000000</i>
     <i type="int" name="NRMM">     4</i>
     <i name="TIME">      0.40000000</i>
    </separator>
   </separator>
   <separator name="electronic mixer" >
    <i name="AMIX">      0.40000000</i>
    <i name="BMIX">      1.00000000</i>
    <i name="AMIN">      0.10000000</i>
    <i name="AMIX_MAG">      1.60000000</i>
    <i name="BMIX_MAG">      1.00000000</i>
    <separator name="electronic mixer details" >
     <i type="int" name="IMIX">     4</i>
     <i type="logical" name="MIXFIRST"> F  </i>
     <i type="int" name="MAXMIX">   -45</i>
     <i name="WC">    100.00000000</i>
     <i type="int" name="INIMIX">     1</i>
     <i type="int" name="MIXPRE">     1</i>
     <i type="int" name="MREMOVE">     5</i>
    </separator>
   </separator>
   <separator name="electronic dipolcorrection" >
    <i type="logical" name="LDIPOL"> F  </i>
    <i type="logical" name="LMONO"> F  </i>
    <i type="int" name="IDIPOL">     0</i>
    <i name="EPSILON">      1.00000000</i>
    <v name="DIPOL">   -100.00000000   -100.00000000   -100.00000000</v>
    <i name="EFIELD">      0.00000000</i>
    <i type="logical" name="LVACPOTAV"> F  </i>
   </separator>
  </separator>
  <separator name="grids" >
   <i type="int" name="NGX">    56</i>
   <i type="int" name="NGY">    56</i>
   <i type="int" name="NGZ">    56</i>
   <i type="int" name="NGXF">   112</i>
   <i type="int" name="NGYF">   112</i>
   <i type="int" name="NGZF">   112</i>
   <i type="logical" name="ADDGRID"> F  </i>
  </separator>
  <separator name="ionic" >
   <i type="int" name="NSW">   100</i>
   <i type="int" name="IBRION">     2</i>
   <i type="int" name="MDALGO">     0</i>
   <i type="int" name="ISIF">     3</i>
   <i name="PSTRESS">      0.00000000</i>
   <i name="EDIFFG">      0.00001000</i>
   <i type="int" name="NFREE">     1</i>
   <i name="POTIM">      0.50000000</i>
   <i name="SMASS">     -3.00000000</i>
   <i name="SCALEE">      1.00000000</i>
  </separator>
  <separator name="ionic md" >
   <i name="TEBEG">      0.00010000</i>
   <i name="TEEND">      0.00010000</i>
   <i type="int" name="NBLOCK">     1</i>
   <i type="int" name="KBLOCK">   100</i>
   <i type="int" name="NPACO">   256</i>
   <i name="APACO">     10.00000000</i>
  </separator>
  <separator name="symmetry" >
   <i type="int" name="ISYM">     2</i>
   <i name="SYMPREC">      0.00001000</i>
  </separator>
  <separator name="dos" >
   <i type="int" name="LORBIT">     0</i>
   <v name="RWIGS">     -1.00000000</v>
   <i type="int" name="NEDOS">   301</i>
   <i name="EMIN">     10.00000000</i>
   <i name="EMAX">    -10.00000000</i>
   <i name="EFERMI">      0.00000000</i>
  </separator>
  <separator name="writing" >
   <i type="int" name="NWRITE">     2</i>
   <i type="logical" name="LWAVE"> F  </i>
   <i type="logical" name="LDOWNSAMPLE"> F  </i>
   <i type="logical" name="LCHARG"> F  </i>
   <i type="logical" name="LPARD"> F  </i>
   <i type="logical" name="LVTOT"> F  </i>
   <i type="logical" name="LVHAR"> F  </i>
   <i type="logical" name="LELF"> F  </i>
   <i type="logical" name="LOPTICS"> F  </i>
   <v name="STM">      0.00000000      0.00000000      0.00000000      0.00000000      0.00000000      0.00000000      0.00000000</v>
  </separator>
  <separator name="performance" >
   <i type="int" name="NPAR">     4</i>
   <i type="int" name="NSIM">     4</i>
   <i type="int" name="NBLK">    -1</i>
   <i type="logical" name="LPLANE"> T  </i>
   <i type="logical" name="LSCALAPACK"> T  </i>
   <i type="logical" name="LSCAAWARE"> F  </i>
   <i type="logical" name="LSCALU"> F  </i>
   <i type="logical" name="LASYNC"> F  </i>
   <i type="logical" name="LORBITALREAL"> F  </i>
  </separator>
  <separator name="miscellaneous" >
   <i type="int" name="IDIOT">     3</i>
   <i type="int" name="PHON_NSTRUCT">    -1</i>
   <i type="logical" name="LMUSIC"> F  </i>
   <v name="POMASS">     50.94100000</v>
   <v name="DARWINR">      0.00000000</v>
   <v name="DARWINV">      1.00000000</v>
   <i type="logical" name="LCORR"> T  </i>
  </separator>
  <i type="logical" name="GGA_COMPAT"> T  </i>
  <i type="logical" name="LBERRY"> F  </i>
  <i type="int" name="ICORELEVEL">     0</i>
  <i type="logical" name="LDAU"> F  </i>
  <i type="int" name="I_CONSTRAINED_M">     0</i>
  <separator name="electronic exchange-correlation" >
   <i type="string" name="GGA    ">PE</i>
   <i type="string" name="XC_C">1</i>
   <i type="int" name="VOSKOWN">     0</i>
   <i type="logical" name="LHFCALC"> F  </i>
   <i type="string" name="PRECFOCK"></i>
   <i type="logical" name="LSYMGRAD"> F  </i>
   <i type="logical" name="LHFONE"> F  </i>
   <i type="logical" name="LRHFCALC"> F  </i>
   <i type="logical" name="LTHOMAS"> F  </i>
   <i type="logical" name="LMODELHF"> F  </i>
   <i type="logical" name="LFOCKACE"> F  </i>
   <i name="ENCUT4O">     -1.00000000</i>
   <i type="int" name="EXXOEP">     0</i>
   <i type="int" name="FOURORBIT">     0</i>
   <i name="AEXX">      0.00000000</i>
   <i name="HFALPHA">      0.00000000</i>
   <i name="MCALPHA">      0.00000000</i>
   <i name="ALDAX">      1.00000000</i>
   <i name="AGGAX">      1.00000000</i>
   <i name="AMGGAX">      1.00000000</i>
   <i name="ALDAC">      1.00000000</i>
   <i name="AGGAC">      1.00000000</i>
   <i name="AMGGAC">      1.00000000</i>
   <i type="int" name="NKREDX">     1</i>
   <i type="int" name="NKREDY">     1</i>
   <i type="int" name="NKREDZ">     1</i>
   <i type="logical" name="SHIFTRED"> F  </i>
   <i type="logical" name="ODDONLY"> F  </i>
   <i type="logical" name="EVENONLY"> F  </i>
   <i type="int" name="LMAXFOCK">     0</i>
   <i type="int" name="NMAXFOCKAE">     0</i>
   <i type="logical" name="LFOCKAEDFT"> F  </i>
   <i name="HFSCREEN">      0.00000000</i>
   <i name="HFSCREENC">      0.00000000</i>
   <i type="int" name="NBANDSGWLOW">     0</i>
  </separator>
  <separator name="vdW DFT" >
   <i type="logical" name="LUSE_VDW"> F  </i>
   <i type="int" name="IVDW_NL">    -1</i>
   <i type="logical" name="LSPIN_VDW"> F  </i>
   <i name="ZAB_VDW">     -0.84910000</i>
   <i name="GAMMA_VDW">      1.39626340</i>
   <i name="ALPHA_VDW">      0.00000000</i>
   <i name="PARAM1">      0.12340000</i>
   <i name="PARAM2">      1.00000000</i>
   <i name="BPARAM">      6.30000000</i>
   <i name="CPARAM">      0.00930000</i>
  </separator>
  <separator name="model GW" >
   <i type="int" name="MODEL_GW">     0</i>
   <i name="MODEL_EPS0">      8.01887908</i>
   <i name="MODEL_ALPHA">      1.00000000</i>
  </separator>
  <separator name="linear response parameters" >
   <i type="logical" name="LEPSILON"> F  </i>
   <i type="logical" name="LRPA"> F  </i>
   <i type="logical" name="LNABLA"> F  </i>
   <i type="logical" name="LVEL"> F  </i>
   <i name="CSHIFT">      0.10000000</i>
   <i name="OMEGAMAX">     -1.00000000</i>
   <i name="DEG_THRESHOLD">      0.00200000</i>
   <i name="RTIME">     -0.10000000</i>
   <i name="WPLASMAI">      0.00000000</i>
   <v name="DFIELD">      0.00000000      0.00000000      0.00000000</v>
   <v name="WPLASMA">      0.00000000      0.00000000      0.00000000      0.00000000      0.00000000      0.00000000      0.00000000      0.00000000      0.00000000</v>
  </separator>
  <separator name="orbital magnetization" >
   <i type="logical" name="NUCIND"> F  </i>
   <v name="MAGPOS">      0.00000000      0.00000000      0.00000000</v>
   <i type="logical" name="LNICSALL"> T  </i>
   <i type="logical" name="ORBITALMAG"> F  </i>
   <i type="logical" name="LMAGBLOCH"> F  </i>
   <i type="logical" name="LCHIMAG"> F  </i>
   <i type="logical" name="LGAUGE"> T  </i>
   <i type="int" name="MAGATOM">     0</i>
   <v name="MAGDIPOL">      0.00000000      0.00000000      0.00000000</v>
   <v name="AVECCONST">      0.00000000      0.00000000      0.00000000</v>
  </separator>
  <separator name="response functions" >
   <i type="logical" name="LALL_IN_ONE"> F  </i>
   <i type="int" name="IALL_IN_ONE">    -1</i>
   <i type="int" name="NBANDS_WAVE">    -1</i>
   <i type="logical" name="LFINITE_TEMPERATURE"> F  </i>
   <i type="logical" name="LADDER"> F  </i>
   <i type="logical" name="LRPAFORCE"> F  </i>
   <i type="logical" name="LFXC"> F  </i>
   <i type="logical" name="LHARTREE"> T  </i>
   <i type="int" name="IBSE">     2</i>
   <v type="int" name="KPOINT">    -1     0     0     0</v>
   <i type="logical" name="LTCTC"> F  </i>
   <i type="logical" name="LTCTE"> F  </i>
   <i type="logical" name="LTETE"> F  </i>
   <i type="logical" name="LTRIPLET"> F  </i>
   <i type="logical" name="LFXCEPS"> F  </i>
   <i type="logical" name="LFXHEG"> F  </i>
   <i type="int" name="NATURALO">     2</i>
   <i type="logical" name="LHOLEGF"> F  </i>
   <i type="logical" name="L2ORDER"> F  </i>
   <i type="logical" name="LDMP1"> F  </i>
   <i type="logical" name="LMP2LT"> F  </i>
   <i type="logical" name="LSMP2LT"> F  </i>
   <i type="logical" name="LGWLF"> F  </i>
   <i name="ENCUTGW">     -1.60000002</i>
   <i name="ENCUTGWSOFT">     -1.60000002</i>
   <i name="ENCUTLF">     -1.00000000</i>
   <i type="logical" name="ESF_SPLINES"> F  </i>
   <i name="ESF_CONV">      0.01000000</i>
   <i type="int" name="ESF_NINTER">    15</i>
   <i type="int" name="LMAXMP2">    -1</i>
   <i name="SCISSOR">      0.00000000</i>
   <i type="int" name="NOMEGA">     0</i>
   <i type="int" name="NOMEGAR">     0</i>
   <i type="int" name="NBANDSGW">    -1</i>
   <i type="int" name="NBANDSO">    -1</i>
   <i type="int" name="NBANDSV">    -1</i>
   <i type="int" name="NELMGW">     1</i>
   <i type="int" name="NELMHF">     1</i>
   <i type="int" name="DIM">     3</i>
   <i type="int" name="IESPILON">     4</i>
   <i type="int" name="ANTIRES">     0</i>
   <i name="OMEGAMAX">    -30.00000000</i>
   <i name="OMEGAMIN">    -30.00000000</i>
   <i name="OMEGATL">   -200.00000000</i>
   <i type="int" name="OMEGAGRID">     0</i>
   <i name="CSHIFT">     -0.10000000</i>
   <i type="logical" name="LSELFENERGY"> F  </i>
   <i type="logical" name="LSPECTRAL"> F  </i>
   <i type="logical" name="LSPECTRALGW"> F  </i>
   <i type="logical" name="LSINGLES"> F  </i>
   <i type="logical" name="LFERMIGW"> F  </i>
   <i type="logical" name="ODDONLYGW"> F  </i>
   <i type="logical" name="EVENONLYGW"> F  </i>
   <i type="int" name="NKREDLFX">     1</i>
   <i type="int" name="NKREDLFY">     1</i>
   <i type="int" name="NKREDLFZ">     1</i>
   <i type="int" name="MAXMEM">  2800</i>
   <i type="int" name="TELESCOPE">     0</i>
   <i type="int" name="NTAUPAR">    -1</i>
   <i type="int" name="NOMEGAPAR">    -1</i>
   <i name="DAMP_NEWTON">      0.80000001</i>
   <i name="LAMBDA">      1.00000000</i>
  </separator>
  <separator name="External order field" >
   <i name="OFIELD_KAPPA">      0.00000000</i>
   <v name="OFIELD_K">      0.00000000      0.00000000      0.00000000</v>
   <i name="OFIELD_Q6_NEAR">      0.00000000</i>
   <i name="OFIELD_Q6_FAR">      0.00000000</i>
   <i name="OFIELD_A">      0.00000000</i>
  </separator>
  <separator name="optional k-points parameters" >
   <i type="int" name="KPOINTS_OPT_MODE">     1</i>
   <i type="logical" name="LKPOINTS_OPT"> F  </i>
  </separator>
 </parameters>
 <atominfo>
  <atoms>     128 </atoms>
  <types>       1 </types>
  <array name="atoms" >
   <dimension dim="1">ion</dimension>
   <field type="string">element</field>
   <field type="int">atomtype</field>
   <set>
    <rc><c>V </c><c>   1</c></rc>
    <rc><c>V </c><c>   1</c></rc>
    <rc><c>V </c><c>   1</c></rc>
    <rc><c>V </c><c>   1</c></rc>
    <rc><c>V </c><c>   1</c></rc>
    <rc><c>V </c><c>   1</c></rc>
    <rc><c>V </c><c>   1</c></rc>
    <rc><c>V </c><c>   1</c></rc>
    <rc><c>V </c><c>   1</c></rc>
    <rc><c>V </c><c>   1</c></rc>
    <rc><c>V </c><c>   1</c></rc>
    <rc><c>V </c><c>   1</c></rc>
    <rc><c>V </c><c>   1</c></rc>
    <rc><c>V </c><c>   1</c></rc>
    <rc><c>V </c><c>   1</c></rc>
    <rc><c>V </c><c>   1</c></rc>
    <rc><c>V </c><c>   1</c></rc>
    <rc><c>V </c><c>   1</c></rc>
    <rc><c>V </c><c>   1</c></rc>
    <rc><c>V </c><c>   1</c></rc>
    <rc><c>V </c><c>   1</c></rc>
    <rc><c>V </c><c>   1</c></rc>
    <rc><c>V </c><c>   1</c></rc>
    <rc><c>V </c><c>   1</c></rc>
    <rc><c>V </c><c>   1</c></rc>
    <rc><c>V </c><c>   1</c></rc>
    <rc><c>V </c><c>   1</c></rc>
    <rc><c>V </c><c>   1</c></rc>
    <rc><c>V </c><c>   1</c></rc>
    <rc><c>V </c><c>   1</c></rc>
    <rc><c>V </c><c>   1</c></rc>
    <rc><c>V </c><c>   1</c></rc>
    <rc><c>V </c><c>   1</c></rc>
    <rc><c>V </c><c>   1</c></rc>
    <rc><c>V </c><c>   1</c></rc>
    <rc><c>V </c><c>   1</c></rc>
    <rc><c>V </c><c>   1</c></rc>
    <rc><c>V </c><c>   1</c></rc>
    <rc><c>V </c><c>   1</c></rc>
    <rc><c>V </c><c>   1</c></rc>
    <rc><c>V </c><c>   1</c></rc>
    <rc><c>V </c><c>   1</c></rc>
    <rc><c>V </c><c>   1</c></rc>
    <rc><c>V </c><c>   1</c></rc>
    <rc><c>V </c><c>   1</c></rc>
    <rc><c>V </c><c>   1</c></rc>
    <rc><c>V </c><c>   1</c></rc>
    <rc><c>V </c><c>   1</c></rc>
    <rc><c>V </c><c>   1</c></rc>
    <rc><c>V </c><c>   1</c></rc>
    <rc><c>V </c><c>   1</c></rc>
    <rc><c>V </c><c>   1</c></rc>
    <rc><c>V </c><c>   1</c></rc>
    <rc><c>V </c><c>   1</c></rc>
    <rc><c>V </c><c>   1</c></rc>
    <rc><c>V </c><c>   1</c></rc>
    <rc><c>V </c><c>   1</c></rc>
    <rc><c>V </c><c>   1</c></rc>
    <rc><c>V </c><c>   1</c></rc>
    <rc><c>V </c><c>   1</c></rc>
    <rc><c>V </c><c>   1</c></rc>
    <rc><c>V </c><c>   1</c></rc>
    <rc><c>V </c><c>   1</c></rc>
    <rc><c>V </c><c>   1</c></rc>
    <rc><c>V </c><c>   1</c></rc>
    <rc><c>V </c><c>   1</c></rc>
    <rc><c>V </c><c>   1</c></rc>
    <rc><c>V </c><c>   1</c></rc>
    <rc><c>V </c><c>   1</c></rc>
    <rc><c>V </c><c>   1</c></rc>
    <rc><c>V </c><c>   1</c></rc>
    <rc><c>V </c><c>   1</c></rc>
    <rc><c>V </c><c>   1</c></rc>
    <rc><c>V </c><c>   1</c></rc>
    <rc><c>V </c><c>   1</c></rc>
    <rc><c>V </c><c>   1</c></rc>
    <rc><c>V </c><c>   1</c></rc>
    <rc><c>V </c><c>   1</c></rc>
    <rc><c>V </c><c>   1</c></rc>
    <rc><c>V </c><c>   1</c></rc>
    <rc><c>V </c><c>   1</c></rc>
    <rc><c>V </c><c>   1</c></rc>
    <rc><c>V </c><c>   1</c></rc>
    <rc><c>V </c><c>   1</c></rc>
    <rc><c>V </c><c>   1</c></rc>
    <rc><c>V </c><c>   1</c></rc>
    <rc><c>V </c><c>   1</c></rc>
    <rc><c>V </c><c>   1</c></rc>
    <rc><c>V </c><c>   1</c></rc>
    <rc><c>V </c><c>   1</c></rc>
    <rc><c>V </c><c>   1</c></rc>
    <rc><c>V </c><c>   1</c></rc>
    <rc><c>V </c><c>   1</c></rc>
    <rc><c>V </c><c>   1</c></rc>
    <rc><c>V </c><c>   1</c></rc>
    <rc><c>V </c><c>   1</c></rc>
    <rc><c>V </c><c>   1</c></rc>
    <rc><c>V </c><c>   1</c></rc>
    <rc><c>V </c><c>   1</c></rc>
    <rc><c>V </c><c>   1</c></rc>
    <rc><c>V </c><c>   1</c></rc>
    <rc><c>V </c><c>   1</c></rc>
    <rc><c>V </c><c>   1</c></rc>
    <rc><c>V </c><c>   1</c></rc>
    <rc><c>V </c><c>   1</c></rc>
    <rc><c>V </c><c>   1</c></rc>
    <rc><c>V </c><c>   1</c></rc>
    <rc><c>V </c><c>   1</c></rc>
    <rc><c>V </c><c>   1</c></rc>
    <rc><c>V </c><c>   1</c></rc>
    <rc><c>V </c><c>   1</c></rc>
    <rc><c>V </c><c>   1</c></rc>
    <rc><c>V </c><c>   1</c></rc>
    <rc><c>V </c><c>   1</c></rc>
    <rc><c>V </c><c>   1</c></rc>
    <rc><c>V </c><c>   1</c></rc>
    <rc><c>V </c><c>   1</c></rc>
    <rc><c>V </c><c>   1</c></rc>
    <rc><c>V </c><c>   1</c></rc>
    <rc><c>V </c><c>   1</c></rc>
    <rc><c>V </c><c>   1</c></rc>
    <rc><c>V </c><c>   1</c></rc>
    <rc><c>V </c><c>   1</c></rc>
    <rc><c>V </c><c>   1</c></rc>
    <rc><c>V </c><c>   1</c></rc>
    <rc><c>V </c><c>   1</c></rc>
    <rc><c>V </c><c>   1</c></rc>
    <rc><c>V </c><c>   1</c></rc>
   </set>
  </array>
  <array name="atomtypes" >
   <dimension dim="1">type</dimension>
   <field type="int">atomspertype</field>
   <field type="string">element</field>
   <field>mass</field>
   <field>valence</field>
   <field type="string">pseudopotential</field>
   <set>
    <rc><c> 128</c><c>V </c><c>     50.94100000</c><c>     13.00000000</c><c>  PAW_PBE V_sv 02Aug2007                </c></rc>
   </set>
  </array>
 </atominfo>
 <structure name="initialpos" >
  <crystal>
   <varray name="basis" >
    <v>      11.95980566      -0.00000005       0.00000009 </v>
    <v>      -0.00000006      11.95980639      -0.00000010 </v>
    <v>       0.00000009      -0.00000008      11.95980537 </v>
   </varray>
   <i name="volume">   1710.69420388 </i>
   <varray name="rec_basis" >
    <v>       0.08361340       0.00000000      -0.00000000 </v>
    <v>       0.00000000       0.08361339       0.00000000 </v>
    <v>      -0.00000000       0.00000000       0.08361340 </v>
   </varray>
  </crystal>
  <varray name="positions" >
   <v>       0.37500013       0.12500023       0.62500004 </v>
   <v>       0.12500006       0.37499995       0.87500011 </v>
   <v>       0.87500004       0.87499978       0.37499983 </v>
   <v>       0.00000015       0.00000015       0.25000007 </v>
   <v>       0.74999975       0.74999991       0.24999987 </v>
   <v>       0.00000005       0.00000020       0.00000003 </v>
   <v>       0.74999994       0.74999985       0.74999983 </v>
   <v>       0.62499996       0.37499975       0.62500002 </v>
   <v>       0.12499983       0.62499991       0.12500018 </v>
   <v>       0.00000017       0.49999989       0.24999991 </v>
   <v>       0.12499991       0.37500025       0.12499998 </v>
   <v>       0.50000026       0.99999996       0.75000000 </v>
   <v>       0.50000014       0.50000002       0.24999987 </v>
   <v>       0.50000020       0.50000003       0.50000005 </v>
   <v>       0.12499983       0.62499994       0.37499963 </v>
   <v>       0.87500017       0.62499985       0.87500026 </v>
   <v>       0.37499997       0.87499991       0.37499997 </v>
   <v>       0.24999990       0.24999997       0.24999996 </v>
   <v>       0.37499991       0.12500016       0.12500003 </v>
   <v>       0.62499996       0.12500020       0.37500026 </v>
   <v>       0.62500013       0.62499965       0.87500008 </v>
   <v>       0.24999979       0.49999993       0.00000029 </v>
   <v>       0.12500000       0.87500011       0.62499995 </v>
   <v>       0.75000000       0.00000014       0.74999994 </v>
   <v>       0.12500010       0.12500005       0.37499991 </v>
   <v>       0.50000028       0.00000006       0.00000032 </v>
   <v>       0.24999971       0.00000001       0.74999980 </v>
   <v>       0.24999980       0.74999995       0.74999972 </v>
   <v>       0.74999975       0.00000007       0.24999979 </v>
   <v>       0.87499996       0.37499988       0.87500003 </v>
   <v>       0.62500012       0.62499974       0.12500022 </v>
   <v>       0.00000014       0.49999989       0.50000028 </v>
   <v>       0.50000033       0.24999991       0.00000031 </v>
   <v>       0.74999997       0.74999983       0.50000022 </v>
   <v>       0.37500001       0.87500026       0.62499976 </v>
   <v>       0.24999959       0.25000007       0.49999999 </v>
   <v>       0.12499987       0.87500005       0.87500012 </v>
   <v>       0.87500002       0.12500024       0.87499996 </v>
   <v>       0.00000010       0.74999988       0.50000021 </v>
   <v>       0.87499998       0.37500023       0.37499990 </v>
   <v>       0.87499990       0.12500007       0.37500000 </v>
   <v>       0.62500001       0.87500018       0.62499976 </v>
   <v>       0.37499996       0.37499990       0.87499989 </v>
   <v>       0.00000021       0.00000014       0.50000015 </v>
   <v>       0.75000009       0.25000010       0.74999998 </v>
   <v>       0.00000001       0.74999981       0.74999970 </v>
   <v>       0.74999993       0.49999997       0.50000025 </v>
   <v>       0.50000013       0.74999992       0.24999980 </v>
   <v>       0.00000020       0.25000009       0.25000001 </v>
   <v>       0.12499999       0.12500021       0.87499995 </v>
   <v>       0.24999997       0.74999989       0.00000019 </v>
   <v>       0.12499989       0.62499979       0.87500036 </v>
   <v>       0.00000022       0.25000008       0.50000028 </v>
   <v>       0.12499994       0.12500014       0.12499994 </v>
   <v>       0.62500001       0.37499984       0.87499982 </v>
   <v>       0.24999999       0.00000019       0.00000019 </v>
   <v>       0.12500024       0.12500017       0.62500020 </v>
   <v>       0.50000011       0.00000011       0.24999974 </v>
   <v>       0.37499982       0.62499960       0.87500014 </v>
   <v>       0.62499996       0.87499991       0.37500015 </v>
   <v>       0.50000011       0.74999989       0.50000005 </v>
   <v>       0.50000038       0.25000013       0.74999994 </v>
   <v>       0.62500009       0.87499990       0.12500014 </v>
   <v>       0.12500002       0.87499976       0.37499975 </v>
   <v>       0.87500013       0.37500025       0.12500001 </v>
   <v>       0.87499997       0.87500000       0.62499995 </v>
   <v>       0.87499986       0.37499989       0.62500006 </v>
   <v>       0.87499978       0.12500027       0.62500012 </v>
   <v>       0.12500005       0.37499995       0.62500005 </v>
   <v>       0.62500011       0.37500012       0.12500006 </v>
   <v>       0.62499985       0.12500034       0.62500001 </v>
   <v>       0.87500031       0.87499975       0.12500011 </v>
   <v>       0.37500006       0.12500013       0.37500023 </v>
   <v>       0.62500004       0.12500024       0.12499997 </v>
   <v>       0.12500000       0.62499978       0.62499983 </v>
   <v>       0.00000015       0.74999986       0.25000006 </v>
   <v>       0.24999952       0.25000009       0.74999975 </v>
   <v>       0.50000010       0.24999996       0.24999979 </v>
   <v>       0.00000000       0.49999986       0.74999973 </v>
   <v>       0.37499977       0.87499984       0.12500023 </v>
   <v>       0.37499986       0.37500014       0.12500000 </v>
   <v>       0.24999984       0.24999997       0.00000030 </v>
   <v>       0.87500021       0.62499991       0.37499967 </v>
   <v>       0.87500027       0.62499987       0.12500025 </v>
   <v>       0.37500012       0.37499982       0.62500002 </v>
   <v>       0.75000002       0.00000002       0.50000016 </v>
   <v>       0.24999998       0.74999988       0.25000002 </v>
   <v>       0.50000001       0.99999995       0.49999993 </v>
   <v>       0.50000030       0.74999998       0.00000025 </v>
   <v>       0.62499993       0.62499974       0.62499980 </v>
   <v>       0.75000003       0.49999994       0.74999986 </v>
   <v>       0.99999999       0.25000011       0.74999970 </v>
   <v>       0.24999983       0.74999993       0.50000007 </v>
   <v>       0.50000025       0.74999991       0.74999986 </v>
   <v>       0.37499995       0.12500027       0.87499972 </v>
   <v>       0.74999983       0.49999992       0.24999987 </v>
   <v>       0.74999981       0.25000007       0.24999977 </v>
   <v>       0.75000006       0.25000021       0.50000021 </v>
   <v>       0.74999988       0.49999989       0.00000003 </v>
   <v>       0.37499992       0.62499992       0.37499991 </v>
   <v>       0.12499982       0.87499971       0.12500017 </v>
   <v>       0.87500000       0.62499984       0.62499982 </v>
   <v>       0.74999967       0.00000019       0.00000011 </v>
   <v>       0.62500009       0.87500021       0.87499996 </v>
   <v>       0.62500005       0.62499989       0.37499992 </v>
   <v>       0.12500001       0.37500025       0.37499986 </v>
   <v>       0.24999976       0.00000005       0.49999995 </v>
   <v>       0.87500010       0.12500013       0.12499992 </v>
   <v>       0.37499990       0.87500022       0.87500004 </v>
   <v>       0.00000003       0.00000023       0.74999974 </v>
   <v>       0.50000014       0.25000015       0.49999993 </v>
   <v>       0.00000002       0.74999976       0.00000003 </v>
   <v>       0.74999969       0.74999985       0.00000010 </v>
   <v>       0.24999961       0.49999996       0.74999964 </v>
   <v>       0.24999999       0.00000020       0.25000007 </v>
   <v>       0.50000035       0.50000000       0.74999980 </v>
   <v>       0.50000035       0.50000005       0.00000027 </v>
   <v>       0.87500015       0.87500004       0.87500013 </v>
   <v>       0.00000000       0.25000013       0.00000002 </v>
   <v>       0.37500008       0.37500002       0.37500007 </v>
   <v>       0.37500008       0.62499970       0.62499977 </v>
   <v>       0.37499978       0.62499986       0.12500019 </v>
   <v>       0.99999998       0.49999990       0.00000006 </v>
   <v>       0.62499993       0.37499999       0.37500011 </v>
   <v>       0.74999983       0.25000006       0.00000004 </v>
   <v>       0.24999988       0.49999996       0.24999995 </v>
   <v>       0.62500004       0.12500031       0.87499976 </v>
   <v>       0.24999974       0.49999993       0.50000011 </v>
  </varray>
 </structure>
 <calculation>
  <scstep>
   <time name="dav">    3.82    4.99</time>
   <time name="total">    4.06    5.08</time>
   <energy>
    <i name="alphaZ">  11701.71006411 </i>
    <i name="ewald">-189569.57575594 </i>
    <i name="hartreedc"> -54565.97708058 </i>
    <i name="XCdc">   9176.40002743 </i>
    <i name="pawpsdc"> 197890.18856006 </i>
    <i name="pawaedc">-199861.50478768 </i>
    <i name="eentropy">     -0.02013379 </i>
    <i name="bandstr">    -81.03409052 </i>
    <i name="atom"> 249862.97952924 </i>
    <i name="e_fr_energy">  24553.16633236 </i>
    <i name="e_wo_entrp">  24553.18646614 </i>
    <i name="e_0_energy">  24553.17304362 </i>
   </energy>
  </scstep>
  <scstep>
   <time name="dav">    3.11    3.09</time>
   <time name="total">    3.11    3.09</time>
   <energy>
    <i name="e_fr_energy">    336.59806220 </i>
    <i name="e_wo_entrp">    336.56027418 </i>
    <i name="e_0_energy">    336.58546619 </i>
   </energy>
  </scstep>
  <scstep>
   <time name="dav">    3.90    3.88</time>
   <time name="total">    3.90    3.88</time>
   <energy>
    <i name="e_fr_energy">  -1241.70964617 </i>
    <i name="e_wo_entrp">  -1241.96934775 </i>
    <i name="e_0_energy">  -1241.79621336 </i>
   </energy>
  </scstep>
  <scstep>
   <time name="dav">    3.72    3.70</time>
   <time name="total">    3.72    3.70</time>
   <energy>
    <i name="e_fr_energy">  -1325.55332764 </i>
    <i name="e_wo_entrp">  -1326.25217158 </i>
    <i name="e_0_energy">  -1325.78627562 </i>
   </energy>
  </scstep>
  <scstep>
   <time name="dav">    3.63    3.62</time>
   <time name="total">    4.12    3.90</time>
   <energy>
    <i name="e_fr_energy">  -1327.51342319 </i>
    <i name="e_wo_entrp">  -1328.21716855 </i>
    <i name="e_0_energy">  -1327.74800497 </i>
   </energy>
  </scstep>
  <scstep>
   <time name="dav">    3.22    3.16</time>
   <time name="total">    3.80    3.45</time>
   <energy>
    <i name="e_fr_energy">  -1153.54156459 </i>
    <i name="e_wo_entrp">  -1153.13293026 </i>
    <i name="e_0_energy">  -1153.40535315 </i>
   </energy>
  </scstep>
  <scstep>
   <time name="dav">    3.56    3.51</time>
   <time name="total">    4.14    3.80</time>
   <energy>
    <i name="e_fr_energy">  -1151.79184583 </i>
    <i name="e_wo_entrp">  -1151.36997985 </i>
    <i name="e_0_energy">  -1151.65122384 </i>
   </energy>
  </scstep>
  <scstep>
   <time name="dav">    3.46    3.40</time>
   <time name="total">    4.03    3.69</time>
   <energy>
    <i name="e_fr_energy">  -1150.83786073 </i>
    <i name="e_wo_entrp">  -1150.41034949 </i>
    <i name="e_0_energy">  -1150.69535699 </i>
   </energy>
  </scstep>
  <scstep>
   <time name="dav">    3.52    3.46</time>
   <time name="total">    4.10    3.76</time>
   <energy>
    <i name="e_fr_energy">  -1150.82040212 </i>
    <i name="e_wo_entrp">  -1150.39871003 </i>
    <i name="e_0_energy">  -1150.67983809 </i>
   </energy>
  </scstep>
  <scstep>
   <time name="dav">    3.71    3.65</time>
   <time name="total">    4.28    3.94</time>
   <energy>
    <i name="e_fr_energy">  -1150.82109247 </i>
    <i name="e_wo_entrp">  -1150.39931546 </i>
    <i name="e_0_energy">  -1150.68050013 </i>
   </energy>
  </scstep>
  <scstep>
   <time name="dav">    3.48    3.42</time>
   <time name="total">    4.06    3.71</time>
   <energy>
    <i name="e_fr_energy">  -1150.82098958 </i>
    <i name="e_wo_entrp">  -1150.39867662 </i>
    <i name="e_0_energy">  -1150.68021860 </i>
   </energy>
  </scstep>
  <scstep>
   <time name="dav">    3.35    3.30</time>
   <time name="total">    3.93    3.59</time>
   <energy>
    <i name="e_fr_energy">  -1150.82100308 </i>
    <i name="e_wo_entrp">  -1150.39869073 </i>
    <i name="e_0_energy">  -1150.68023230 </i>
   </energy>
  </scstep>
  <scstep>
   <time name="dav">    2.47    2.42</time>
   <time name="total">    3.05    2.72</time>
   <energy>
    <i name="e_fr_energy">  -1150.82101629 </i>
    <i name="e_wo_entrp">  -1150.39869445 </i>
    <i name="e_0_energy">  -1150.68024234 </i>
   </energy>
  </scstep>
  <scstep>
   <time name="dav">    2.36    2.31</time>
   <time name="total">    2.94    2.60</time>
   <energy>
    <i name="e_fr_energy">  -1150.82101814 </i>
    <i name="e_wo_entrp">  -1150.39870075 </i>
    <i name="e_0_energy">  -1150.68024568 </i>
   </energy>
  </scstep>
  <scstep>
   <time name="dav">    2.35    2.30</time>
   <time name="total">    2.47    2.33</time>
   <energy>
    <i name="alphaZ">  11701.71006411 </i>
    <i name="ewald">-189569.57575594 </i>
    <i name="hartreedc"> -50050.30771330 </i>
    <i name="XCdc">   8954.30534446 </i>
    <i name="pawpsdc"> 249589.16725055 </i>
    <i name="pawaedc">-251956.12109993 </i>
    <i name="eentropy">     -0.42231383 </i>
    <i name="bandstr"> -29682.55632421 </i>
    <i name="atom"> 249862.97952924 </i>
    <i name="e_fr_energy">  -1150.82101883 </i>
    <i name="e_wo_entrp">  -1150.39870501 </i>
    <i name="e_0_energy">  -1150.68024756 </i>
   </energy>
  </scstep>
  <structure>
   <crystal>
    <varray name="basis" >
     <v>      11.95980566      -0.00000005       0.00000009 </v>
     <v>      -0.00000006      11.95980639      -0.00000010 </v>
     <v>       0.00000009      -0.00000008      11.95980537 </v>
    </varray>
    <i name="volume">   1710.69420388 </i>
    <varray name="rec_basis" >
     <v>       0.08361340       0.00000000      -0.00000000 </v>
     <v>       0.00000000       0.08361339       0.00000000 </v>
     <v>      -0.00000000       0.00000000       0.08361340 </v>
    </varray>
   </crystal>
   <varray name="positions" >
    <v>       0.37500013       0.12500023       0.62500004 </v>
    <v>       0.12500006       0.37499995       0.87500011 </v>
    <v>       0.87500004       0.87499978       0.37499983 </v>
    <v>       0.00000015       0.00000015       0.25000007 </v>
    <v>       0.74999975       0.74999991       0.24999987 </v>
    <v>       0.00000005       0.00000020       0.00000003 </v>
    <v>       0.74999994       0.74999985       0.74999983 </v>
    <v>       0.62499996       0.37499975       0.62500002 </v>
    <v>       0.12499983       0.62499991       0.12500018 </v>
    <v>       0.00000017       0.49999989       0.24999991 </v>
    <v>       0.12499991       0.37500025       0.12499998 </v>
    <v>       0.50000026       0.99999996       0.75000000 </v>
    <v>       0.50000014       0.50000002       0.24999987 </v>
    <v>       0.50000020       0.50000003       0.50000005 </v>
    <v>       0.12499983       0.62499994       0.37499963 </v>
    <v>       0.87500017       0.62499985       0.87500026 </v>
    <v>       0.37499997       0.87499991       0.37499997 </v>
    <v>       0.24999990       0.24999997       0.24999996 </v>
    <v>       0.37499991       0.12500016       0.12500003 </v>
    <v>       0.62499996       0.12500020       0.37500026 </v>
    <v>       0.62500013       0.62499965       0.87500008 </v>
    <v>       0.24999979       0.49999993       0.00000029 </v>
    <v>       0.12500000       0.87500011       0.62499995 </v>
    <v>       0.75000000       0.00000014       0.74999994 </v>
    <v>       0.12500010       0.12500005       0.37499991 </v>
    <v>       0.50000028       0.00000006       0.00000032 </v>
    <v>       0.24999971       0.00000001       0.74999980 </v>
    <v>       0.24999980       0.74999995       0.74999972 </v>
    <v>       0.74999975       0.00000007       0.24999979 </v>
    <v>       0.87499996       0.37499988       0.87500003 </v>
    <v>       0.62500012       0.62499974       0.12500022 </v>
    <v>       0.00000014       0.49999989       0.50000028 </v>
    <v>       0.50000033       0.24999991       0.00000031 </v>
    <v>       0.74999997       0.74999983       0.50000022 </v>
    <v>       0.37500001       0.87500026       0.62499976 </v>
    <v>       0.24999959       0.25000007       0.49999999 </v>
    <v>       0.12499987       0.87500005       0.87500012 </v>
    <v>       0.87500002       0.12500024       0.87499996 </v>
    <v>       0.00000010       0.74999988       0.50000021 </v>
    <v>       0.87499998       0.37500023       0.37499990 </v>
    <v>       0.87499990       0.12500007       0.37500000 </v>
    <v>       0.62500001       0.87500018       0.62499976 </v>
    <v>       0.37499996       0.37499990       0.87499989 </v>
    <v>       0.00000021       0.00000014       0.50000015 </v>
    <v>       0.75000009       0.25000010       0.74999998 </v>
    <v>       0.00000001       0.74999981       0.74999970 </v>
    <v>       0.74999993       0.49999997       0.50000025 </v>
    <v>       0.50000013       0.74999992       0.24999980 </v>
    <v>       0.00000020       0.25000009       0.25000001 </v>
    <v>       0.12499999       0.12500021       0.87499995 </v>
    <v>       0.24999997       0.74999989       0.00000019 </v>
    <v>       0.12499989       0.62499979       0.87500036 </v>
    <v>       0.00000022       0.25000008       0.50000028 </v>
    <v>       0.12499994       0.12500014       0.12499994 </v>
    <v>       0.62500001       0.37499984       0.87499982 </v>
    <v>       0.24999999       0.00000019       0.00000019 </v>
    <v>       0.12500024       0.12500017       0.62500020 </v>
    <v>       0.50000011       0.00000011       0.24999974 </v>
    <v>       0.37499982       0.62499960       0.87500014 </v>
    <v>       0.62499996       0.87499991       0.37500015 </v>
    <v>       0.50000011       0.74999989       0.50000005 </v>
    <v>       0.50000038       0.25000013       0.74999994 </v>
    <v>       0.62500009       0.87499990       0.12500014 </v>
    <v>       0.12500002       0.87499976       0.37499975 </v>
    <v>       0.87500013       0.37500025       0.12500001 </v>
    <v>       0.87499997       0.87500000       0.62499995 </v>
    <v>       0.87499986       0.37499989       0.62500006 </v>
    <v>       0.87499978       0.12500027       0.62500012 </v>
    <v>       0.12500005       0.37499995       0.62500005 </v>
    <v>       0.62500011       0.37500012       0.12500006 </v>
    <v>       0.62499985       0.12500034       0.62500001 </v>
    <v>       0.87500031       0.87499975       0.12500011 </v>
    <v>       0.37500006       0.12500013       0.37500023 </v>
    <v>       0.62500004       0.12500024       0.12499997 </v>
    <v>       0.12500000       0.62499978       0.62499983 </v>
    <v>       0.00000015       0.74999986       0.25000006 </v>
    <v>       0.24999952       0.25000009       0.74999975 </v>
    <v>       0.50000010       0.24999996       0.24999979 </v>
    <v>       0.00000000       0.49999986       0.74999973 </v>
    <v>       0.37499977       0.87499984       0.12500023 </v>
    <v>       0.37499986       0.37500014       0.12500000 </v>
    <v>       0.24999984       0.24999997       0.00000030 </v>
    <v>       0.87500021       0.62499991       0.37499967 </v>
    <v>       0.87500027       0.62499987       0.12500025 </v>
    <v>       0.37500012       0.37499982       0.62500002 </v>
    <v>       0.75000002       0.00000002       0.50000016 </v>
    <v>       0.24999998       0.74999988       0.25000002 </v>
    <v>       0.50000001       0.99999995       0.49999993 </v>
    <v>       0.50000030       0.74999998       0.00000025 </v>
    <v>       0.62499993       0.62499974       0.62499980 </v>
    <v>       0.75000003       0.49999994       0.74999986 </v>
    <v>       0.99999999       0.25000011       0.74999970 </v>
    <v>       0.24999983       0.74999993       0.50000007 </v>
    <v>       0.50000025       0.74999991       0.74999986 </v>
    <v>       0.37499995       0.12500027       0.87499972 </v>
    <v>       0.74999983       0.49999992       0.24999987 </v>
    <v>       0.74999981       0.25000007       0.24999977 </v>
    <v>       0.75000006       0.25000021       0.50000021 </v>
    <v>       0.74999988       0.49999989       0.00000003 </v>
    <v>       0.37499992       0.62499992       0.37499991 </v>
    <v>       0.12499982       0.87499971       0.12500017 </v>
    <v>       0.87500000       0.62499984       0.62499982 </v>
    <v>       0.74999967       0.00000019       0.00000011 </v>
    <v>       0.62500009       0.87500021       0.87499996 </v>
    <v>       0.62500005       0.62499989       0.37499992 </v>
    <v>       0.12500001       0.37500025       0.37499986 </v>
    <v>       0.24999976       0.00000005       0.49999995 </v>
    <v>       0.87500010       0.12500013       0.12499992 </v>
    <v>       0.37499990       0.87500022       0.87500004 </v>
    <v>       0.00000003       0.00000023       0.74999974 </v>
    <v>       0.50000014       0.25000015       0.49999993 </v>
    <v>       0.00000002       0.74999976       0.00000003 </v>
    <v>       0.74999969       0.74999985       0.00000010 </v>
    <v>       0.24999961       0.49999996       0.74999964 </v>
    <v>       0.24999999       0.00000020       0.25000007 </v>
    <v>       0.50000035       0.50000000       0.74999980 </v>
    <v>       0.50000035       0.50000005       0.00000027 </v>
    <v>       0.87500015       0.87500004       0.87500013 </v>
    <v>       0.00000000       0.25000013       0.00000002 </v>
    <v>       0.37500008       0.37500002       0.37500007 </v>
    <v>       0.37500008       0.62499970       0.62499977 </v>
    <v>       0.37499978       0.62499986       0.12500019 </v>
    <v>       0.99999998       0.49999990       0.00000006 </v>
    <v>       0.62499993       0.37499999       0.37500011 </v>
    <v>       0.74999983       0.25000006       0.00000004 </v>
    <v>       0.24999988       0.49999996       0.24999995 </v>
    <v>       0.62500004       0.12500031       0.87499976 </v>
    <v>       0.24999974       0.49999993       0.50000011 </v>
   </varray>
  </structure>
  <varray name="forces" >
   <v>      -0.00000000       0.00000000       0.00000000 </v>
   <v>      -0.00000000       0.00000000       0.00000000 </v>
   <v>       0.00000000       0.00000000      -0.00000000 </v>
   <v>       0.00000000      -0.00000000      -0.00000000 </v>
   <v>      -0.00000000      -0.00000000       0.00000000 </v>
   <v>      -0.00000000       0.00000000       0.00000000 </v>
   <v>      -0.00000000       0.00000000       0.00000000 </v>
   <v>       0.00000000      -0.00000000       0.00000000 </v>
   <v>       0.00000000       0.00000000       0.00000000 </v>
   <v>       0.00000000       0.00000000      -0.00000000 </v>
   <v>       0.00000000       0.00000000      -0.00000000 </v>
   <v>       0.00000000       0.00000000       0.00000000 </v>
   <v>       0.00000000      -0.00000000      -0.00000000 </v>
   <v>      -0.00000000       0.00000000      -0.00000000 </v>
   <v>       0.00000000       0.00000000      -0.00000000 </v>
   <v>       0.00000000      -0.00000000      -0.00000000 </v>
   <v>      -0.00000000       0.00000000      -0.00000000 </v>
   <v>      -0.00000000       0.00000000      -0.00000000 </v>
   <v>      -0.00000000       0.00000000      -0.00000000 </v>
   <v>       0.00000000      -0.00000000      -0.00000000 </v>
   <v>      -0.00000000      -0.00000000      -0.00000000 </v>
   <v>       0.00000000       0.00000000       0.00000000 </v>
   <v>       0.00000000       0.00000000      -0.00000000 </v>
   <v>      -0.00000000      -0.00000000      -0.00000000 </v>
   <v>       0.00000000      -0.00000000       0.00000000 </v>
   <v>      -0.00000000       0.00000000       0.00000000 </v>
   <v>      -0.00000000       0.00000000      -0.00000000 </v>
   <v>       0.00000000       0.00000000      -0.00000000 </v>
   <v>      -0.00000000      -0.00000000       0.00000000 </v>
   <v>       0.00000000       0.00000000      -0.00000000 </v>
   <v>      -0.00000000      -0.00000000       0.00000000 </v>
   <v>       0.00000000       0.00000000      -0.00000000 </v>
   <v>       0.00000000       0.00000000       0.00000000 </v>
   <v>       0.00000000      -0.00000000       0.00000000 </v>
   <v>       0.00000000      -0.00000000       0.00000000 </v>
   <v>      -0.00000000      -0.00000000       0.00000000 </v>
   <v>      -0.00000000      -0.00000000       0.00000000 </v>
   <v>      -0.00000000       0.00000000      -0.00000000 </v>
   <v>       0.00000000      -0.00000000      -0.00000000 </v>
   <v>      -0.00000000      -0.00000000       0.00000000 </v>
   <v>      -0.00000000       0.00000000      -0.00000000 </v>
   <v>       0.00000000       0.00000000       0.00000000 </v>
   <v>       0.00000000      -0.00000000       0.00000000 </v>
   <v>      -0.00000000       0.00000000       0.00000000 </v>
   <v>      -0.00000000      -0.00000000      -0.00000000 </v>
   <v>       0.00000000       0.00000000       0.00000000 </v>
   <v>      -0.00000000       0.00000000      -0.00000000 </v>
   <v>       0.00000000       0.00000000      -0.00000000 </v>
   <v>      -0.00000000      -0.00000000      -0.00000000 </v>
   <v>       0.00000000       0.00000000       0.00000000 </v>
   <v>       0.00000000      -0.00000000      -0.00000000 </v>
   <v>       0.00000000       0.00000000       0.00000000 </v>
   <v>       0.00000000      -0.00000000       0.00000000 </v>
   <v>       0.00000000      -0.00000000      -0.00000000 </v>
   <v>      -0.00000000      -0.00000000      -0.00000000 </v>
   <v>      -0.00000000      -0.00000000      -0.00000000 </v>
   <v>      -0.00000000      -0.00000000      -0.00000000 </v>
   <v>      -0.00000000      -0.00000000      -0.00000000 </v>
   <v>      -0.00000000      -0.00000000       0.00000000 </v>
   <v>       0.00000000      -0.00000000      -0.00000000 </v>
   <v>       0.00000000      -0.00000000       0.00000000 </v>
   <v>       0.00000000      -0.00000000       0.00000000 </v>
   <v>      -0.00000000      -0.00000000       0.00000000 </v>
   <v>      -0.00000000      -0.00000000       0.00000000 </v>
   <v>       0.00000000      -0.00000000      -0.00000000 </v>
   <v>      -0.00000000       0.00000000       0.00000000 </v>
   <v>      -0.00000000      -0.00000000       0.00000000 </v>
   <v>      -0.00000000       0.00000000      -0.00000000 </v>
   <v>       0.00000000       0.00000000      -0.00000000 </v>
   <v>       0.00000000      -0.00000000       0.00000000 </v>
   <v>      -0.00000000       0.00000000       0.00000000 </v>
   <v>      -0.00000000      -0.00000000      -0.00000000 </v>
   <v>      -0.00000000       0.00000000       0.00000000 </v>
   <v>      -0.00000000       0.00000000      -0.00000000 </v>
   <v>      -0.00000000      -0.00000000      -0.00000000 </v>
   <v>       0.00000000      -0.00000000       0.00000000 </v>
   <v>      -0.00000000       0.00000000      -0.00000000 </v>
   <v>       0.00000000       0.00000000      -0.00000000 </v>
   <v>       0.00000000       0.00000000       0.00000000 </v>
   <v>      -0.00000000       0.00000000      -0.00000000 </v>
   <v>       0.00000000       0.00000000      -0.00000000 </v>
   <v>       0.00000000       0.00000000       0.00000000 </v>
   <v>      -0.00000000       0.00000000      -0.00000000 </v>
   <v>       0.00000000       0.00000000       0.00000000 </v>
   <v>      -0.00000000      -0.00000000      -0.00000000 </v>
   <v>       0.00000000       0.00000000       0.00000000 </v>
   <v>      -0.00000000      -0.00000000      -0.00000000 </v>
   <v>      -0.00000000       0.00000000       0.00000000 </v>
   <v>       0.00000000       0.00000000      -0.00000000 </v>
   <v>      -0.00000000       0.00000000       0.00000000 </v>
   <v>      -0.00000000      -0.00000000       0.00000000 </v>
   <v>      -0.00000000      -0.00000000      -0.00000000 </v>
   <v>      -0.00000000      -0.00000000       0.00000000 </v>
   <v>       0.00000000      -0.00000000       0.00000000 </v>
   <v>      -0.00000000       0.00000000       0.00000000 </v>
   <v>      -0.00000000      -0.00000000       0.00000000 </v>
   <v>       0.00000000       0.00000000       0.00000000 </v>
   <v>      -0.00000000      -0.00000000       0.00000000 </v>
   <v>       0.00000000      -0.00000000      -0.00000000 </v>
   <v>       0.00000000      -0.00000000       0.00000000 </v>
   <v>       0.00000000       0.00000000      -0.00000000 </v>
   <v>       0.00000000       0.00000000       0.00000000 </v>
   <v>      -0.00000000       0.00000000      -0.00000000 </v>
   <v>       0.00000000       0.00000000      -0.00000000 </v>
   <v>       0.00000000       0.00000000      -0.00000000 </v>
   <v>       0.00000000       0.00000000      -0.00000000 </v>
   <v>      -0.00000000       0.00000000       0.00000000 </v>
   <v>      -0.00000000      -0.00000000       0.00000000 </v>
   <v>      -0.00000000      -0.00000000      -0.00000000 </v>
   <v>       0.00000000       0.00000000       0.00000000 </v>
   <v>      -0.00000000      -0.00000000      -0.00000000 </v>
   <v>       0.00000000       0.00000000       0.00000000 </v>
   <v>      -0.00000000       0.00000000      -0.00000000 </v>
   <v>      -0.00000000       0.00000000      -0.00000000 </v>
   <v>      -0.00000000      -0.00000000      -0.00000000 </v>
   <v>      -0.00000000      -0.00000000       0.00000000 </v>
   <v>       0.00000000       0.00000000      -0.00000000 </v>
   <v>      -0.00000000       0.00000000      -0.00000000 </v>
   <v>       0.00000000       0.00000000       0.00000000 </v>
   <v>       0.00000000      -0.00000000       0.00000000 </v>
   <v>      -0.00000000      -0.00000000       0.00000000 </v>
   <v>      -0.00000000      -0.00000000      -0.00000000 </v>
   <v>      -0.00000000      -0.00000000       0.00000000 </v>
   <v>      -0.00000000       0.00000000      -0.00000000 </v>
   <v>       0.00000000      -0.00000000       0.00000000 </v>
   <v>       0.00000000       0.00000000      -0.00000000 </v>
   <v>       0.00000000       0.00000000      -0.00000000 </v>
   <v>      -0.00000000       0.00000000       0.00000000 </v>
  </varray>
  <varray name="stress" >
   <v>       3.30521809      -0.00000003       0.00000005 </v>
   <v>      -0.00000003       3.30521849      -0.00000005 </v>
   <v>       0.00000005      -0.00000005       3.30521793 </v>
  </varray>
  <energy>
   <i name="e_fr_energy">  -1150.82101883 </i>
   <i name="e_wo_entrp">  -1150.39870501 </i>
   <i name="e_0_energy">  -1150.68024756 </i>
  </energy>
  <time name="totalsc">   61.27   57.40</time>
 </calculation>
 <calculation>
  <scstep>
   <time name="dav">    3.21    3.16</time>
   <time name="total">    3.76    3.45</time>
   <energy>
    <i name="alphaZ">  11655.14079082 </i>
    <i name="ewald">-189317.76485605 </i>
    <i name="hartreedc"> -49983.83723192 </i>
    <i name="XCdc">   8942.90372430 </i>
    <i name="pawpsdc"> 249589.10023188 </i>
    <i name="pawaedc">-251956.05578101 </i>
    <i name="eentropy">     -0.39091134 </i>
    <i name="bandstr"> -29943.36165437 </i>
    <i name="atom"> 249862.97952924 </i>
    <i name="e_fr_energy">  -1151.28615845 </i>
    <i name="e_wo_entrp">  -1150.89524711 </i>
    <i name="e_0_energy">  -1151.15585467 </i>
   </energy>
  </scstep>
  <scstep>
   <time name="dav">    3.26    3.20</time>
   <time name="total">    3.83    3.49</time>
   <energy>
    <i name="e_fr_energy">  -1150.82875902 </i>
    <i name="e_wo_entrp">  -1150.40164427 </i>
    <i name="e_0_energy">  -1150.68638744 </i>
   </energy>
  </scstep>
  <scstep>
   <time name="dav">    3.35    3.30</time>
   <time name="total">    3.91    3.58</time>
   <energy>
    <i name="e_fr_energy">  -1150.82519790 </i>
    <i name="e_wo_entrp">  -1150.39706199 </i>
    <i name="e_0_energy">  -1150.68248593 </i>
   </energy>
  </scstep>
  <scstep>
   <time name="dav">    3.25    3.19</time>
   <time name="total">    3.82    3.48</time>
   <energy>
    <i name="e_fr_energy">  -1150.82260723 </i>
    <i name="e_wo_entrp">  -1150.39350055 </i>
    <i name="e_0_energy">  -1150.67957167 </i>
   </energy>
  </scstep>
  <scstep>
   <time name="dav">    3.37    3.32</time>
   <time name="total">    3.94    3.60</time>
   <energy>
    <i name="e_fr_energy">  -1150.82263893 </i>
    <i name="e_wo_entrp">  -1150.39294866 </i>
    <i name="e_0_energy">  -1150.67940884 </i>
   </energy>
  </scstep>
  <scstep>
   <time name="dav">    3.35    3.29</time>
   <time name="total">    3.92    3.58</time>
   <energy>
    <i name="e_fr_energy">  -1150.82267245 </i>
    <i name="e_wo_entrp">  -1150.39315518 </i>
    <i name="e_0_energy">  -1150.67950002 </i>
   </energy>
  </scstep>
  <scstep>
   <time name="dav">    2.66    2.62</time>
   <time name="total">    3.26    2.92</time>
   <energy>
    <i name="e_fr_energy">  -1150.82266672 </i>
    <i name="e_wo_entrp">  -1150.39315001 </i>
    <i name="e_0_energy">  -1150.67949448 </i>
   </energy>
  </scstep>
  <scstep>
   <time name="dav">    2.22    2.17</time>
   <time name="total">    2.35    2.21</time>
   <energy>
    <i name="alphaZ">  11655.14079082 </i>
    <i name="ewald">-189317.76485605 </i>
    <i name="hartreedc"> -50166.77176295 </i>
    <i name="XCdc">   8951.94868585 </i>
    <i name="pawpsdc"> 248792.16217200 </i>
    <i name="pawaedc">-251159.11865528 </i>
    <i name="eentropy">     -0.42951250 </i>
    <i name="bandstr"> -29768.96905833 </i>
    <i name="atom"> 249862.97952924 </i>
    <i name="e_fr_energy">  -1150.82266721 </i>
    <i name="e_wo_entrp">  -1150.39315471 </i>
    <i name="e_0_energy">  -1150.67949638 </i>
   </energy>
  </scstep>
  <structure>
   <crystal>
    <varray name="basis" >
     <v>      11.97571335      -0.00000005       0.00000009 </v>
     <v>      -0.00000006      11.97571409      -0.00000010 </v>
     <v>       0.00000009      -0.00000008      11.97571307 </v>
    </varray>
    <i name="volume">   1717.52945258 </i>
    <varray name="rec_basis" >
     <v>       0.08350233       0.00000000      -0.00000000 </v>
     <v>       0.00000000       0.08350233       0.00000000 </v>
     <v>      -0.00000000       0.00000000       0.08350233 </v>
    </varray>
   </crystal>
   <varray name="positions" >
    <v>       0.37500013       0.12500023       0.62500004 </v>
    <v>       0.12500006       0.37499995       0.87500011 </v>
    <v>       0.87500004       0.87499978       0.37499983 </v>
    <v>       0.00000015       0.00000015       0.25000007 </v>
    <v>       0.74999975       0.74999991       0.24999987 </v>
    <v>       0.00000005       0.00000020       0.00000003 </v>
    <v>       0.74999994       0.74999985       0.74999983 </v>
    <v>       0.62499996       0.37499975       0.62500002 </v>
    <v>       0.12499983       0.62499991       0.12500018 </v>
    <v>       0.00000017       0.49999989       0.24999991 </v>
    <v>       0.12499991       0.37500025       0.12499998 </v>
    <v>       0.50000026       0.99999996       0.75000000 </v>
    <v>       0.50000014       0.50000002       0.24999987 </v>
    <v>       0.50000020       0.50000003       0.50000005 </v>
    <v>       0.12499983       0.62499994       0.37499963 </v>
    <v>       0.87500017       0.62499985       0.87500026 </v>
    <v>       0.37499997       0.87499991       0.37499997 </v>
    <v>       0.24999990       0.24999997       0.24999996 </v>
    <v>       0.37499991       0.12500016       0.12500003 </v>
    <v>       0.62499996       0.12500020       0.37500026 </v>
    <v>       0.62500013       0.62499965       0.87500008 </v>
    <v>       0.24999979       0.49999993       0.00000029 </v>
    <v>       0.12500000       0.87500011       0.62499995 </v>
    <v>       0.75000000       0.00000014       0.74999994 </v>
    <v>       0.12500010       0.12500005       0.37499991 </v>
    <v>       0.50000028       0.00000006       0.00000032 </v>
    <v>       0.24999971       0.00000001       0.74999980 </v>
    <v>       0.24999980       0.74999995       0.74999972 </v>
    <v>       0.74999975       0.00000007       0.24999979 </v>
    <v>       0.87499996       0.37499988       0.87500003 </v>
    <v>       0.62500012       0.62499974       0.12500022 </v>
    <v>       0.00000014       0.49999989       0.50000028 </v>
    <v>       0.50000033       0.24999991       0.00000031 </v>
    <v>       0.74999997       0.74999983       0.50000022 </v>
    <v>       0.37500001       0.87500026       0.62499976 </v>
    <v>       0.24999959       0.25000007       0.49999999 </v>
    <v>       0.12499987       0.87500005       0.87500012 </v>
    <v>       0.87500002       0.12500024       0.87499996 </v>
    <v>       0.00000010       0.74999988       0.50000021 </v>
    <v>       0.87499998       0.37500023       0.37499990 </v>
    <v>       0.87499990       0.12500007       0.37500000 </v>
    <v>       0.62500001       0.87500018       0.62499976 </v>
    <v>       0.37499996       0.37499990       0.87499989 </v>
    <v>       0.00000021       0.00000014       0.50000015 </v>
    <v>       0.75000009       0.25000010       0.74999998 </v>
    <v>       0.00000001       0.74999981       0.74999970 </v>
    <v>       0.74999993       0.49999997       0.50000025 </v>
    <v>       0.50000013       0.74999992       0.24999980 </v>
    <v>       0.00000020       0.25000009       0.25000001 </v>
    <v>       0.12499999       0.12500021       0.87499995 </v>
    <v>       0.24999997       0.74999989       0.00000019 </v>
    <v>       0.12499989       0.62499979       0.87500036 </v>
    <v>       0.00000022       0.25000008       0.50000028 </v>
    <v>       0.12499994       0.12500014       0.12499994 </v>
    <v>       0.62500001       0.37499984       0.87499982 </v>
    <v>       0.24999999       0.00000019       0.00000019 </v>
    <v>       0.12500024       0.12500017       0.62500020 </v>
    <v>       0.50000011       0.00000011       0.24999974 </v>
    <v>       0.37499982       0.62499960       0.87500014 </v>
    <v>       0.62499996       0.87499991       0.37500015 </v>
    <v>       0.50000011       0.74999989       0.50000005 </v>
    <v>       0.50000038       0.25000013       0.74999994 </v>
    <v>       0.62500009       0.87499990       0.12500014 </v>
    <v>       0.12500002       0.87499976       0.37499975 </v>
    <v>       0.87500013       0.37500025       0.12500001 </v>
    <v>       0.87499997       0.87500000       0.62499995 </v>
    <v>       0.87499986       0.37499989       0.62500006 </v>
    <v>       0.87499978       0.12500027       0.62500012 </v>
    <v>       0.12500005       0.37499995       0.62500005 </v>
    <v>       0.62500011       0.37500012       0.12500006 </v>
    <v>       0.62499985       0.12500034       0.62500001 </v>
    <v>       0.87500031       0.87499975       0.12500011 </v>
    <v>       0.37500006       0.12500013       0.37500023 </v>
    <v>       0.62500004       0.12500024       0.12499997 </v>
    <v>       0.12500000       0.62499978       0.62499983 </v>
    <v>       0.00000015       0.74999986       0.25000006 </v>
    <v>       0.24999952       0.25000009       0.74999975 </v>
    <v>       0.50000010       0.24999996       0.24999979 </v>
    <v>       0.00000000       0.49999986       0.74999973 </v>
    <v>       0.37499977       0.87499984       0.12500023 </v>
    <v>       0.37499986       0.37500014       0.12500000 </v>
    <v>       0.24999984       0.24999997       0.00000030 </v>
    <v>       0.87500021       0.62499991       0.37499967 </v>
    <v>       0.87500027       0.62499987       0.12500025 </v>
    <v>       0.37500012       0.37499982       0.62500002 </v>
    <v>       0.75000002       0.00000002       0.50000016 </v>
    <v>       0.24999998       0.74999988       0.25000002 </v>
    <v>       0.50000001       0.99999995       0.49999993 </v>
    <v>       0.50000030       0.74999998       0.00000025 </v>
    <v>       0.62499993       0.62499974       0.62499980 </v>
    <v>       0.75000003       0.49999994       0.74999986 </v>
    <v>       0.99999999       0.25000011       0.74999970 </v>
    <v>       0.24999983       0.74999993       0.50000007 </v>
    <v>       0.50000025       0.74999991       0.74999986 </v>
    <v>       0.37499995       0.12500027       0.87499972 </v>
    <v>       0.74999983       0.49999992       0.24999987 </v>
    <v>       0.74999981       0.25000007       0.24999977 </v>
    <v>       0.75000006       0.25000021       0.50000021 </v>
    <v>       0.74999988       0.49999989       0.00000003 </v>
    <v>       0.37499992       0.62499992       0.37499991 </v>
    <v>       0.12499982       0.87499971       0.12500017 </v>
    <v>       0.87500000       0.62499984       0.62499982 </v>
    <v>       0.74999967       0.00000019       0.00000011 </v>
    <v>       0.62500009       0.87500021       0.87499996 </v>
    <v>       0.62500005       0.62499989       0.37499992 </v>
    <v>       0.12500001       0.37500025       0.37499986 </v>
    <v>       0.24999976       0.00000005       0.49999995 </v>
    <v>       0.87500010       0.12500013       0.12499992 </v>
    <v>       0.37499990       0.87500022       0.87500004 </v>
    <v>       0.00000003       0.00000023       0.74999974 </v>
    <v>       0.50000014       0.25000015       0.49999993 </v>
    <v>       0.00000002       0.74999976       0.00000003 </v>
    <v>       0.74999969       0.74999985       0.00000010 </v>
    <v>       0.24999961       0.49999996       0.74999964 </v>
    <v>       0.24999999       0.00000020       0.25000007 </v>
    <v>       0.50000035       0.50000000       0.74999980 </v>
    <v>       0.50000035       0.50000005       0.00000027 </v>
    <v>       0.87500015       0.87500004       0.87500013 </v>
    <v>       0.00000000       0.25000013       0.00000002 </v>
    <v>       0.37500008       0.37500002       0.37500007 </v>
    <v>       0.37500008       0.62499970       0.62499977 </v>
    <v>       0.37499978       0.62499986       0.12500019 </v>
    <v>       0.99999998       0.49999990       0.00000006 </v>
    <v>       0.62499993       0.37499999       0.37500011 </v>
    <v>       0.74999983       0.25000006       0.00000004 </v>
    <v>       0.24999988       0.49999996       0.24999995 </v>
    <v>       0.62500004       0.12500031       0.87499976 </v>
    <v>       0.24999974       0.49999993       0.50000011 </v>
   </varray>
  </structure>
  <varray name="forces" >
   <v>       0.00000000       0.00000000      -0.00000000 </v>
   <v>       0.00000000       0.00000000       0.00000000 </v>
   <v>      -0.00000000      -0.00000000      -0.00000000 </v>
   <v>      -0.00000000       0.00000000       0.00000000 </v>
   <v>       0.00000000      -0.00000000      -0.00000000 </v>
   <v>      -0.00000000       0.00000000      -0.00000000 </v>
   <v>      -0.00000000       0.00000000       0.00000000 </v>
   <v>       0.00000000       0.00000000      -0.00000000 </v>
   <v>       0.00000000      -0.00000000       0.00000000 </v>
   <v>       0.00000000      -0.00000000       0.00000000 </v>
   <v>      -0.00000000       0.00000000      -0.00000000 </v>
   <v>       0.00000000      -0.00000000      -0.00000000 </v>
   <v>      -0.00000000       0.00000000      -0.00000000 </v>
   <v>       0.00000000       0.00000000       0.00000000 </v>
   <v>      -0.00000000       0.00000000      -0.00000000 </v>
   <v>       0.00000000      -0.00000000      -0.00000000 </v>
   <v>       0.00000000       0.00000000      -0.00000000 </v>
   <v>      -0.00000000      -0.00000000       0.00000000 </v>
   <v>       0.00000000      -0.00000000       0.00000000 </v>
   <v>      -0.00000000       0.00000000       0.00000000 </v>
   <v>       0.00000000       0.00000000       0.00000000 </v>
   <v>      -0.00000000       0.00000000      -0.00000000 </v>
   <v>       0.00000000      -0.00000000       0.00000000 </v>
   <v>       0.00000000       0.00000000       0.00000000 </v>
   <v>      -0.00000000      -0.00000000       0.00000000 </v>
   <v>       0.00000000       0.00000000       0.00000000 </v>
   <v>       0.00000000      -0.00000000       0.00000000 </v>
   <v>       0.00000000       0.00000000       0.00000000 </v>
   <v>      -0.00000000       0.00000000      -0.00000000 </v>
   <v>       0.00000000       0.00000000      -0.00000000 </v>
   <v>      -0.00000000      -0.00000000       0.00000000 </v>
   <v>      -0.00000000       0.00000000      -0.00000000 </v>
   <v>       0.00000000      -0.00000000       0.00000000 </v>
   <v>       0.00000000      -0.00000000      -0.00000000 </v>
   <v>       0.00000000       0.00000000      -0.00000000 </v>
   <v>       0.00000000       0.00000000      -0.00000000 </v>
   <v>      -0.00000000      -0.00000000       0.00000000 </v>
   <v>       0.00000000       0.00000000       0.00000000 </v>
   <v>      -0.00000000      -0.00000000      -0.00000000 </v>
   <v>       0.00000000      -0.00000000      -0.00000000 </v>
   <v>       0.00000000      -0.00000000       0.00000000 </v>
   <v>       0.00000000      -0.00000000      -0.00000000 </v>
   <v>       0.00000000       0.00000000      -0.00000000 </v>
   <v>       0.00000000       0.00000000       0.00000000 </v>
   <v>      -0.00000000       0.00000000       0.00000000 </v>
   <v>      -0.00000000      -0.00000000       0.00000000 </v>
   <v>       0.00000000      -0.00000000      -0.00000000 </v>
   <v>      -0.00000000      -0.00000000       0.00000000 </v>
   <v>       0.00000000      -0.00000000       0.00000000 </v>
   <v>      -0.00000000       0.00000000      -0.00000000 </v>
   <v>       0.00000000      -0.00000000      -0.00000000 </v>
   <v>       0.00000000       0.00000000       0.00000000 </v>
   <v>      -0.00000000      -0.00000000       0.00000000 </v>
   <v>      -0.00000000       0.00000000      -0.00000000 </v>
   <v>       0.00000000      -0.00000000       0.00000000 </v>
   <v>      -0.00000000       0.00000000      -0.00000000 </v>
   <v>      -0.00000000       0.00000000      -0.00000000 </v>
   <v>      -0.00000000      -0.00000000      -0.00000000 </v>
   <v>       0.00000000       0.00000000      -0.00000000 </v>
   <v>      -0.00000000       0.00000000       0.00000000 </v>
   <v>      -0.00000000       0.00000000      -0.00000000 </v>
   <v>       0.00000000       0.00000000       0.00000000 </v>
   <v>      -0.00000000       0.00000000      -0.00000000 </v>
   <v>      -0.00000000      -0.00000000       0.00000000 </v>
   <v>      -0.00000000       0.00000000      -0.00000000 </v>
   <v>       0.00000000      -0.00000000      -0.00000000 </v>
   <v>       0.00000000       0.00000000      -0.00000000 </v>
   <v>       0.00000000       0.00000000      -0.00000000 </v>
   <v>      -0.00000000      -0.00000000      -0.00000000 </v>
   <v>      -0.00000000      -0.00000000      -0.00000000 </v>
   <v>       0.00000000       0.00000000      -0.00000000 </v>
   <v>      -0.00000000       0.00000000       0.00000000 </v>
   <v>       0.00000000      -0.00000000      -0.00000000 </v>
   <v>      -0.00000000      -0.00000000       0.00000000 </v>
   <v>       0.00000000       0.00000000       0.00000000 </v>
   <v>      -0.00000000      -0.00000000      -0.00000000 </v>
   <v>       0.00000000       0.00000000      -0.00000000 </v>
   <v>      -0.00000000      -0.00000000      -0.00000000 </v>
   <v>       0.00000000      -0.00000000      -0.00000000 </v>
   <v>      -0.00000000       0.00000000       0.00000000 </v>
   <v>      -0.00000000      -0.00000000       0.00000000 </v>
   <v>       0.00000000       0.00000000      -0.00000000 </v>
   <v>       0.00000000       0.00000000      -0.00000000 </v>
   <v>       0.00000000      -0.00000000      -0.00000000 </v>
   <v>       0.00000000      -0.00000000       0.00000000 </v>
   <v>       0.00000000       0.00000000      -0.00000000 </v>
   <v>      -0.00000000      -0.00000000      -0.00000000 </v>
   <v>      -0.00000000      -0.00000000      -0.00000000 </v>
   <v>       0.00000000      -0.00000000       0.00000000 </v>
   <v>       0.00000000       0.00000000      -0.00000000 </v>
   <v>      -0.00000000      -0.00000000       0.00000000 </v>
   <v>      -0.00000000       0.00000000      -0.00000000 </v>
   <v>       0.00000000      -0.00000000       0.00000000 </v>
   <v>      -0.00000000       0.00000000      -0.00000000 </v>
   <v>      -0.00000000       0.00000000       0.00000000 </v>
   <v>       0.00000000       0.00000000       0.00000000 </v>
   <v>      -0.00000000      -0.00000000       0.00000000 </v>
   <v>       0.00000000       0.00000000       0.00000000 </v>
   <v>      -0.00000000      -0.00000000       0.00000000 </v>
   <v>       0.00000000       0.00000000      -0.00000000 </v>
   <v>       0.00000000      -0.00000000       0.00000000 </v>
   <v>      -0.00000000      -0.00000000      -0.00000000 </v>
   <v>       0.00000000       0.00000000       0.00000000 </v>
   <v>       0.00000000      -0.00000000       0.00000000 </v>
   <v>      -0.00000000      -0.00000000       0.00000000 </v>
   <v>      -0.00000000       0.00000000       0.00000000 </v>
   <v>       0.00000000       0.00000000      -0.00000000 </v>
   <v>       0.00000000       0.00000000      -0.00000000 </v>
   <v>      -0.00000000      -0.00000000      -0.00000000 </v>
   <v>       0.00000000      -0.00000000       0.00000000 </v>
   <v>       0.00000000      -0.00000000       0.00000000 </v>
   <v>      -0.00000000      -0.00000000      -0.00000000 </v>
   <v>       0.00000000      -0.00000000       0.00000000 </v>
   <v>       0.00000000       0.00000000       0.00000000 </v>
   <v>      -0.00000000       0.00000000       0.00000000 </v>
   <v>       0.00000000       0.00000000      -0.00000000 </v>
   <v>      -0.00000000      -0.00000000       0.00000000 </v>
   <v>       0.00000000      -0.00000000       0.00000000 </v>
   <v>      -0.00000000      -0.00000000      -0.00000000 </v>
   <v>      -0.00000000      -0.00000000      -0.00000000 </v>
   <v>       0.00000000       0.00000000       0.00000000 </v>
   <v>      -0.00000000       0.00000000       0.00000000 </v>
   <v>      -0.00000000      -0.00000000      -0.00000000 </v>
   <v>      -0.00000000       0.00000000       0.00000000 </v>
   <v>      -0.00000000      -0.00000000      -0.00000000 </v>
   <v>      -0.00000000      -0.00000000      -0.00000000 </v>
   <v>      -0.00000000      -0.00000000       0.00000000 </v>
   <v>       0.00000000       0.00000000      -0.00000000 </v>
  </varray>
  <varray name="stress" >
   <v>      -3.53716319       0.00000003      -0.00000005 </v>
   <v>       0.00000003      -3.53716363       0.00000005 </v>
   <v>      -0.00000005       0.00000005      -3.53716302 </v>
  </varray>
  <energy>
   <i name="e_fr_energy">  -1150.82266721 </i>
   <i name="e_wo_entrp">  -1150.39315471 </i>
   <i name="e_0_energy">  -1150.67949638 </i>
  </energy>
  <time name="totalsc">   34.34   30.46</time>
 </calculation>
 <calculation>
  <scstep>
   <time name="dav">    3.19    3.14</time>
   <time name="total">    3.72    3.42</time>
   <energy>
    <i name="alphaZ">  11674.20431497 </i>
    <i name="ewald">-189420.92671210 </i>
    <i name="hartreedc"> -50194.05089576 </i>
    <i name="XCdc">   8956.62197179 </i>
    <i name="pawpsdc"> 248792.51887569 </i>
    <i name="pawaedc">-251159.47508585 </i>
    <i name="eentropy">     -0.43864506 </i>
    <i name="bandstr"> -29662.33660432 </i>
    <i name="atom"> 249862.97952924 </i>
    <i name="e_fr_energy">  -1150.90325138 </i>
    <i name="e_wo_entrp">  -1150.46460632 </i>
    <i name="e_0_energy">  -1150.75703636 </i>
   </energy>
  </scstep>
  <scstep>
   <time name="dav">    3.23    3.18</time>
   <time name="total">    3.80    3.46</time>
   <energy>
    <i name="e_fr_energy">  -1150.82641637 </i>
    <i name="e_wo_entrp">  -1150.39880085 </i>
    <i name="e_0_energy">  -1150.68387786 </i>
   </energy>
  </scstep>
  <scstep>
   <time name="dav">    3.30    3.25</time>
   <time name="total">    3.87    3.54</time>
   <energy>
    <i name="e_fr_energy">  -1150.82590489 </i>
    <i name="e_wo_entrp">  -1150.39868920 </i>
    <i name="e_0_energy">  -1150.68349966 </i>
   </energy>
  </scstep>
  <scstep>
   <time name="dav">    3.21    3.15</time>
   <time name="total">    3.78    3.44</time>
   <energy>
    <i name="e_fr_energy">  -1150.82552909 </i>
    <i name="e_wo_entrp">  -1150.39870801 </i>
    <i name="e_0_energy">  -1150.68325540 </i>
   </energy>
  </scstep>
  <scstep>
   <time name="dav">    3.32    3.27</time>
   <time name="total">    3.90    3.55</time>
   <energy>
    <i name="e_fr_energy">  -1150.82550059 </i>
    <i name="e_wo_entrp">  -1150.39893039 </i>
    <i name="e_0_energy">  -1150.68331052 </i>
   </energy>
  </scstep>
  <scstep>
   <time name="dav">    3.28    3.23</time>
   <time name="total">    3.87    3.53</time>
   <energy>
    <i name="e_fr_energy">  -1150.82547521 </i>
    <i name="e_wo_entrp">  -1150.39883215 </i>
    <i name="e_0_energy">  -1150.68326086 </i>
   </energy>
  </scstep>
  <scstep>
   <time name="dav">    2.21    2.16</time>
   <time name="total">    2.79    2.45</time>
   <energy>
    <i name="e_fr_energy">  -1150.82547749 </i>
    <i name="e_wo_entrp">  -1150.39883395 </i>
    <i name="e_0_energy">  -1150.68326298 </i>
   </energy>
  </scstep>
  <scstep>
   <time name="dav">    2.13    2.08</time>
   <time name="total">    2.26    2.11</time>
   <energy>
    <i name="alphaZ">  11674.20431497 </i>
    <i name="ewald">-189420.92671210 </i>
    <i name="hartreedc"> -50118.97961045 </i>
    <i name="XCdc">   8952.91059243 </i>
    <i name="pawpsdc"> 249117.99936246 </i>
    <i name="pawaedc">-251484.94817906 </i>
    <i name="eentropy">     -0.42664500 </i>
    <i name="bandstr"> -29733.63812941 </i>
    <i name="atom"> 249862.97952924 </i>
    <i name="e_fr_energy">  -1150.82547691 </i>
    <i name="e_wo_entrp">  -1150.39883191 </i>
    <i name="e_0_energy">  -1150.68326191 </i>
   </energy>
  </scstep>
  <structure>
   <crystal>
    <varray name="basis" >
     <v>      11.96919118      -0.00000005       0.00000009 </v>
     <v>      -0.00000006      11.96919191      -0.00000010 </v>
     <v>       0.00000009      -0.00000008      11.96919089 </v>
    </varray>
    <i name="volume">   1714.72479341 </i>
    <varray name="rec_basis" >
     <v>       0.08354783       0.00000000      -0.00000000 </v>
     <v>       0.00000000       0.08354783       0.00000000 </v>
     <v>      -0.00000000       0.00000000       0.08354784 </v>
    </varray>
   </crystal>
   <varray name="positions" >
    <v>       0.37500013       0.12500023       0.62500004 </v>
    <v>       0.12500006       0.37499995       0.87500011 </v>
    <v>       0.87500004       0.87499978       0.37499983 </v>
    <v>       0.00000015       0.00000015       0.25000007 </v>
    <v>       0.74999975       0.74999991       0.24999987 </v>
    <v>       0.00000005       0.00000020       0.00000003 </v>
    <v>       0.74999994       0.74999985       0.74999983 </v>
    <v>       0.62499996       0.37499975       0.62500002 </v>
    <v>       0.12499983       0.62499991       0.12500018 </v>
    <v>       0.00000017       0.49999989       0.24999991 </v>
    <v>       0.12499991       0.37500025       0.12499998 </v>
    <v>       0.50000026       0.99999996       0.75000000 </v>
    <v>       0.50000014       0.50000002       0.24999987 </v>
    <v>       0.50000020       0.50000003       0.50000005 </v>
    <v>       0.12499983       0.62499994       0.37499963 </v>
    <v>       0.87500017       0.62499985       0.87500026 </v>
    <v>       0.37499997       0.87499991       0.37499997 </v>
    <v>       0.24999990       0.24999997       0.24999996 </v>
    <v>       0.37499991       0.12500016       0.12500003 </v>
    <v>       0.62499996       0.12500020       0.37500026 </v>
    <v>       0.62500013       0.62499965       0.87500008 </v>
    <v>       0.24999979       0.49999993       0.00000029 </v>
    <v>       0.12500000       0.87500011       0.62499995 </v>
    <v>       0.75000000       0.00000014       0.74999994 </v>
    <v>       0.12500010       0.12500005       0.37499991 </v>
    <v>       0.50000028       0.00000006       0.00000032 </v>
    <v>       0.24999971       0.00000001       0.74999980 </v>
    <v>       0.24999980       0.74999995       0.74999972 </v>
    <v>       0.74999975       0.00000007       0.24999979 </v>
    <v>       0.87499996       0.37499988       0.87500003 </v>
    <v>       0.62500012       0.62499974       0.12500022 </v>
    <v>       0.00000014       0.49999989       0.50000028 </v>
    <v>       0.50000033       0.24999991       0.00000031 </v>
    <v>       0.74999997       0.74999983       0.50000022 </v>
    <v>       0.37500001       0.87500026       0.62499976 </v>
    <v>       0.24999959       0.25000007       0.49999999 </v>
    <v>       0.12499987       0.87500005       0.87500012 </v>
    <v>       0.87500002       0.12500024       0.87499996 </v>
    <v>       0.00000010       0.74999988       0.50000021 </v>
    <v>       0.87499998       0.37500023       0.37499990 </v>
    <v>       0.87499990       0.12500007       0.37500000 </v>
    <v>       0.62500001       0.87500018       0.62499976 </v>
    <v>       0.37499996       0.37499990       0.87499989 </v>
    <v>       0.00000021       0.00000014       0.50000015 </v>
    <v>       0.75000009       0.25000010       0.74999998 </v>
    <v>       0.00000001       0.74999981       0.74999970 </v>
    <v>       0.74999993       0.49999997       0.50000025 </v>
    <v>       0.50000013       0.74999992       0.24999980 </v>
    <v>       0.00000020       0.25000009       0.25000001 </v>
    <v>       0.12499999       0.12500021       0.87499995 </v>
    <v>       0.24999997       0.74999989       0.00000019 </v>
    <v>       0.12499989       0.62499979       0.87500036 </v>
    <v>       0.00000022       0.25000008       0.50000028 </v>
    <v>       0.12499994       0.12500014       0.12499994 </v>
    <v>       0.62500001       0.37499984       0.87499982 </v>
    <v>       0.24999999       0.00000019       0.00000019 </v>
    <v>       0.12500024       0.12500017       0.62500020 </v>
    <v>       0.50000011       0.00000011       0.24999974 </v>
    <v>       0.37499982       0.62499960       0.87500014 </v>
    <v>       0.62499996       0.87499991       0.37500015 </v>
    <v>       0.50000011       0.74999989       0.50000005 </v>
    <v>       0.50000038       0.25000013       0.74999994 </v>
    <v>       0.62500009       0.87499990       0.12500014 </v>
    <v>       0.12500002       0.87499976       0.37499975 </v>
    <v>       0.87500013       0.37500025       0.12500001 </v>
    <v>       0.87499997       0.87500000       0.62499995 </v>
    <v>       0.87499986       0.37499989       0.62500006 </v>
    <v>       0.87499978       0.12500027       0.62500012 </v>
    <v>       0.12500005       0.37499995       0.62500005 </v>
    <v>       0.62500011       0.37500012       0.12500006 </v>
    <v>       0.62499985       0.12500034       0.62500001 </v>
    <v>       0.87500031       0.87499975       0.12500011 </v>
    <v>       0.37500006       0.12500013       0.37500023 </v>
    <v>       0.62500004       0.12500024       0.12499997 </v>
    <v>       0.12500000       0.62499978       0.62499983 </v>
    <v>       0.00000015       0.74999986       0.25000006 </v>
    <v>       0.24999952       0.25000009       0.74999975 </v>
    <v>       0.50000010       0.24999996       0.24999979 </v>
    <v>       0.00000000       0.49999986       0.74999973 </v>
    <v>       0.37499977       0.87499984       0.12500023 </v>
    <v>       0.37499986       0.37500014       0.12500000 </v>
    <v>       0.24999984       0.24999997       0.00000030 </v>
    <v>       0.87500021       0.62499991       0.37499967 </v>
    <v>       0.87500027       0.62499987       0.12500025 </v>
    <v>       0.37500012       0.37499982       0.62500002 </v>
    <v>       0.75000002       0.00000002       0.50000016 </v>
    <v>       0.24999998       0.74999988       0.25000002 </v>
    <v>       0.50000001       0.99999995       0.49999993 </v>
    <v>       0.50000030       0.74999998       0.00000025 </v>
    <v>       0.62499993       0.62499974       0.62499980 </v>
    <v>       0.75000003       0.49999994       0.74999986 </v>
    <v>       0.99999999       0.25000011       0.74999970 </v>
    <v>       0.24999983       0.74999993       0.50000007 </v>
    <v>       0.50000025       0.74999991       0.74999986 </v>
    <v>       0.37499995       0.12500027       0.87499972 </v>
    <v>       0.74999983       0.49999992       0.24999987 </v>
    <v>       0.74999981       0.25000007       0.24999977 </v>
    <v>       0.75000006       0.25000021       0.50000021 </v>
    <v>       0.74999988       0.49999989       0.00000003 </v>
    <v>       0.37499992       0.62499992       0.37499991 </v>
    <v>       0.12499982       0.87499971       0.12500017 </v>
    <v>       0.87500000       0.62499984       0.62499982 </v>
    <v>       0.74999967       0.00000019       0.00000011 </v>
    <v>       0.62500009       0.87500021       0.87499996 </v>
    <v>       0.62500005       0.62499989       0.37499992 </v>
    <v>       0.12500001       0.37500025       0.37499986 </v>
    <v>       0.24999976       0.00000005       0.49999995 </v>
    <v>       0.87500010       0.12500013       0.12499992 </v>
    <v>       0.37499990       0.87500022       0.87500004 </v>
    <v>       0.00000003       0.00000023       0.74999974 </v>
    <v>       0.50000014       0.25000015       0.49999993 </v>
    <v>       0.00000002       0.74999976       0.00000003 </v>
    <v>       0.74999969       0.74999985       0.00000010 </v>
    <v>       0.24999961       0.49999996       0.74999964 </v>
    <v>       0.24999999       0.00000020       0.25000007 </v>
    <v>       0.50000035       0.50000000       0.74999980 </v>
    <v>       0.50000035       0.50000005       0.00000027 </v>
    <v>       0.87500015       0.87500004       0.87500013 </v>
    <v>       0.00000000       0.25000013       0.00000002 </v>
    <v>       0.37500008       0.37500002       0.37500007 </v>
    <v>       0.37500008       0.62499970       0.62499977 </v>
    <v>       0.37499978       0.62499986       0.12500019 </v>
    <v>       0.99999998       0.49999990       0.00000006 </v>
    <v>       0.62499993       0.37499999       0.37500011 </v>
    <v>       0.74999983       0.25000006       0.00000004 </v>
    <v>       0.24999988       0.49999996       0.24999995 </v>
    <v>       0.62500004       0.12500031       0.87499976 </v>
    <v>       0.24999974       0.49999993       0.50000011 </v>
   </varray>
  </structure>
  <varray name="forces" >
   <v>      -0.00000000       0.00000000      -0.00000000 </v>
   <v>      -0.00000000      -0.00000000      -0.00000000 </v>
   <v>       0.00000000       0.00000000       0.00000000 </v>
   <v>      -0.00000000       0.00000000      -0.00000000 </v>
   <v>       0.00000000       0.00000000       0.00000000 </v>
   <v>      -0.00000000      -0.00000000       0.00000000 </v>
   <v>      -0.00000000       0.00000000       0.00000000 </v>
   <v>       0.00000000      -0.00000000       0.00000000 </v>
   <v>      -0.00000000       0.00000000      -0.00000000 </v>
   <v>       0.00000000       0.00000000      -0.00000000 </v>
   <v>       0.00000000      -0.00000000      -0.00000000 </v>
   <v>      -0.00000000       0.00000000       0.00000000 </v>
   <v>      -0.00000000      -0.00000000      -0.00000000 </v>
   <v>      -0.00000000      -0.00000000       0.00000000 </v>
   <v>      -0.00000000       0.00000000      -0.00000000 </v>
   <v>       0.00000000      -0.00000000      -0.00000000 </v>
   <v>       0.00000000      -0.00000000       0.00000000 </v>
   <v>       0.00000000      -0.00000000      -0.00000000 </v>
   <v>      -0.00000000      -0.00000000      -0.00000000 </v>
   <v>      -0.00000000       0.00000000      -0.00000000 </v>
   <v>       0.00000000      -0.00000000       0.00000000 </v>
   <v>      -0.00000000      -0.00000000       0.00000000 </v>
   <v>       0.00000000      -0.00000000      -0.00000000 </v>
   <v>      -0.00000000       0.00000000       0.00000000 </v>
   <v>       0.00000000      -0.00000000      -0.00000000 </v>
   <v>       0.00000000       0.00000000      -0.00000000 </v>
   <v>      -0.00000000      -0.00000000      -0.00000000 </v>
   <v>      -0.00000000       0.00000000       0.00000000 </v>
   <v>      -0.00000000       0.00000000      -0.00000000 </v>
   <v>      -0.00000000      -0.00000000      -0.00000000 </v>
   <v>       0.00000000      -0.00000000       0.00000000 </v>
   <v>      -0.00000000      -0.00000000      -0.00000000 </v>
   <v>      -0.00000000       0.00000000      -0.00000000 </v>
   <v>      -0.00000000       0.00000000       0.00000000 </v>
   <v>      -0.00000000       0.00000000      -0.00000000 </v>
   <v>       0.00000000       0.00000000      -0.00000000 </v>
   <v>       0.00000000       0.00000000      -0.00000000 </v>
   <v>       0.00000000      -0.00000000       0.00000000 </v>
   <v>      -0.00000000       0.00000000       0.00000000 </v>
   <v>       0.00000000      -0.00000000      -0.00000000 </v>
   <v>      -0.00000000      -0.00000000      -0.00000000 </v>
   <v>      -0.00000000       0.00000000       0.00000000 </v>
   <v>       0.00000000      -0.00000000       0.00000000 </v>
   <v>       0.00000000       0.00000000       0.00000000 </v>
   <v>       0.00000000      -0.00000000      -0.00000000 </v>
   <v>       0.00000000       0.00000000      -0.00000000 </v>
   <v>      -0.00000000      -0.00000000       0.00000000 </v>
   <v>      -0.00000000      -0.00000000      -0.00000000 </v>
   <v>      -0.00000000      -0.00000000      -0.00000000 </v>
   <v>      -0.00000000       0.00000000      -0.00000000 </v>
   <v>      -0.00000000       0.00000000      -0.00000000 </v>
   <v>      -0.00000000      -0.00000000      -0.00000000 </v>
   <v>      -0.00000000       0.00000000       0.00000000 </v>
   <v>       0.00000000       0.00000000      -0.00000000 </v>
   <v>       0.00000000      -0.00000000       0.00000000 </v>
   <v>      -0.00000000       0.00000000      -0.00000000 </v>
   <v>      -0.00000000       0.00000000       0.00000000 </v>
   <v>       0.00000000      -0.00000000       0.00000000 </v>
   <v>       0.00000000      -0.00000000      -0.00000000 </v>
   <v>      -0.00000000      -0.00000000       0.00000000 </v>
   <v>      -0.00000000       0.00000000      -0.00000000 </v>
   <v>       0.00000000       0.00000000       0.00000000 </v>
   <v>       0.00000000       0.00000000       0.00000000 </v>
   <v>      -0.00000000      -0.00000000       0.00000000 </v>
   <v>       0.00000000      -0.00000000       0.00000000 </v>
   <v>       0.00000000      -0.00000000       0.00000000 </v>
   <v>       0.00000000      -0.00000000       0.00000000 </v>
   <v>       0.00000000      -0.00000000       0.00000000 </v>
   <v>       0.00000000       0.00000000      -0.00000000 </v>
   <v>       0.00000000       0.00000000      -0.00000000 </v>
   <v>       0.00000000       0.00000000       0.00000000 </v>
   <v>       0.00000000       0.00000000      -0.00000000 </v>
   <v>      -0.00000000      -0.00000000      -0.00000000 </v>
   <v>       0.00000000      -0.00000000       0.00000000 </v>
   <v>       0.00000000       0.00000000      -0.00000000 </v>
   <v>      -0.00000000       0.00000000       0.00000000 </v>
   <v>      -0.00000000       0.00000000      -0.00000000 </v>
   <v>       0.00000000      -0.00000000      -0.00000000 </v>
   <v>      -0.00000000       0.00000000      -0.00000000 </v>
   <v>       0.00000000      -0.00000000      -0.00000000 </v>
   <v>      -0.00000000       0.00000000      -0.00000000 </v>
   <v>      -0.00000000      -0.00000000      -0.00000000 </v>
   <v>       0.00000000      -0.00000000      -0.00000000 </v>
   <v>       0.00000000      -0.00000000       0.00000000 </v>
   <v>       0.00000000       0.00000000       0.00000000 </v>
   <v>       0.00000000      -0.00000000       0.00000000 </v>
   <v>      -0.00000000       0.00000000      -0.00000000 </v>
   <v>       0.00000000       0.00000000      -0.00000000 </v>
   <v>      -0.00000000      -0.00000000      -0.00000000 </v>
   <v>       0.00000000       0.00000000       0.00000000 </v>
   <v>      -0.00000000       0.00000000       0.00000000 </v>
   <v>      -0.00000000       0.00000000      -0.00000000 </v>
   <v>       0.00000000      -0.00000000       0.00000000 </v>
   <v>       0.00000000       0.00000000       0.00000000 </v>
   <v>       0.00000000       0.00000000      -0.00000000 </v>
   <v>       0.00000000      -0.00000000       0.00000000 </v>
   <v>       0.00000000       0.00000000      -0.00000000 </v>
   <v>       0.00000000       0.00000000       0.00000000 </v>
   <v>      -0.00000000       0.00000000       0.00000000 </v>
   <v>      -0.00000000      -0.00000000      -0.00000000 </v>
   <v>      -0.00000000       0.00000000      -0.00000000 </v>
   <v>       0.00000000       0.00000000      -0.00000000 </v>
   <v>       0.00000000      -0.00000000       0.00000000 </v>
   <v>      -0.00000000      -0.00000000       0.00000000 </v>
   <v>      -0.00000000      -0.00000000       0.00000000 </v>
   <v>       0.00000000       0.00000000      -0.00000000 </v>
   <v>       0.00000000       0.00000000      -0.00000000 </v>
   <v>      -0.00000000       0.00000000       0.00000000 </v>
   <v>      -0.00000000       0.00000000       0.00000000 </v>
   <v>      -0.00000000      -0.00000000       0.00000000 </v>
   <v>      -0.00000000      -0.00000000       0.00000000 </v>
   <v>      -0.00000000       0.00000000      -0.00000000 </v>
   <v>       0.00000000      -0.00000000       0.00000000 </v>
   <v>      -0.00000000       0.00000000       0.00000000 </v>
   <v>       0.00000000      -0.00000000      -0.00000000 </v>
   <v>       0.00000000      -0.00000000       0.00000000 </v>
   <v>      -0.00000000       0.00000000      -0.00000000 </v>
   <v>       0.00000000       0.00000000      -0.00000000 </v>
   <v>      -0.00000000       0.00000000       0.00000000 </v>
   <v>      -0.00000000       0.00000000       0.00000000 </v>
   <v>      -0.00000000      -0.00000000       0.00000000 </v>
   <v>      -0.00000000      -0.00000000      -0.00000000 </v>
   <v>       0.00000000       0.00000000       0.00000000 </v>
   <v>      -0.00000000       0.00000000       0.00000000 </v>
   <v>      -0.00000000       0.00000000       0.00000000 </v>
   <v>      -0.00000000      -0.00000000       0.00000000 </v>
   <v>       0.00000000      -0.00000000       0.00000000 </v>
   <v>       0.00000000       0.00000000       0.00000000 </v>
  </varray>
  <varray name="stress" >
   <v>      -0.66481825       0.00000001      -0.00000001 </v>
   <v>       0.00000001      -0.66481833       0.00000001 </v>
   <v>      -0.00000001       0.00000001      -0.66481822 </v>
  </varray>
  <energy>
   <i name="e_fr_energy">  -1150.82547691 </i>
   <i name="e_wo_entrp">  -1150.39883191 </i>
   <i name="e_0_energy">  -1150.68326191 </i>
  </energy>
  <time name="totalsc">   33.56   29.67</time>
 </calculation>
 <calculation>
  <scstep>
   <time name="dav">    3.20    3.15</time>
   <time name="total">    3.75    3.43</time>
   <energy>
    <i name="alphaZ">  11678.81340819 </i>
    <i name="ewald">-189445.85186079 </i>
    <i name="hartreedc"> -50125.59428884 </i>
    <i name="XCdc">   8954.04090587 </i>
    <i name="pawpsdc"> 249117.97339361 </i>
    <i name="pawaedc">-251484.92739378 </i>
    <i name="eentropy">     -0.42919874 </i>
    <i name="bandstr"> -29707.83444944 </i>
    <i name="atom"> 249862.97952924 </i>
    <i name="e_fr_energy">  -1150.82995468 </i>
    <i name="e_wo_entrp">  -1150.40075594 </i>
    <i name="e_0_energy">  -1150.68688843 </i>
   </energy>
  </scstep>
  <scstep>
   <time name="dav">    3.24    3.19</time>
   <time name="total">    3.82    3.49</time>
   <energy>
    <i name="e_fr_energy">  -1150.82547642 </i>
    <i name="e_wo_entrp">  -1150.39930033 </i>
    <i name="e_0_energy">  -1150.68341772 </i>
   </energy>
  </scstep>
  <scstep>
   <time name="dav">    3.28    3.23</time>
   <time name="total">    3.86    3.51</time>
   <energy>
    <i name="e_fr_energy">  -1150.82545662 </i>
    <i name="e_wo_entrp">  -1150.39937925 </i>
    <i name="e_0_energy">  -1150.68343083 </i>
   </energy>
  </scstep>
  <scstep>
   <time name="dav">    3.21    3.16</time>
   <time name="total">    3.77    3.44</time>
   <energy>
    <i name="e_fr_energy">  -1150.82544277 </i>
    <i name="e_wo_entrp">  -1150.39946181 </i>
    <i name="e_0_energy">  -1150.68344911 </i>
   </energy>
  </scstep>
  <scstep>
   <time name="dav">    3.09    3.04</time>
   <time name="total">    3.67    3.33</time>
   <energy>
    <i name="e_fr_energy">  -1150.82543668 </i>
    <i name="e_wo_entrp">  -1150.39951656 </i>
    <i name="e_0_energy">  -1150.68346330 </i>
   </energy>
  </scstep>
  <scstep>
   <time name="dav">    2.16    2.11</time>
   <time name="total">    2.75    2.41</time>
   <energy>
    <i name="e_fr_energy">  -1150.82543113 </i>
    <i name="e_wo_entrp">  -1150.39949328 </i>
    <i name="e_0_energy">  -1150.68345185 </i>
   </energy>
  </scstep>
  <scstep>
   <time name="dav">    2.12    2.07</time>
   <time name="total">    2.25    2.10</time>
   <energy>
    <i name="alphaZ">  11678.81340819 </i>
    <i name="ewald">-189445.85186079 </i>
    <i name="hartreedc"> -50107.47800245 </i>
    <i name="XCdc">   8953.14519473 </i>
    <i name="pawpsdc"> 249196.76932205 </i>
    <i name="pawaedc">-251563.71905874 </i>
    <i name="eentropy">     -0.42593905 </i>
    <i name="bandstr"> -29725.05802442 </i>
    <i name="atom"> 249862.97952924 </i>
    <i name="e_fr_energy">  -1150.82543123 </i>
    <i name="e_wo_entrp">  -1150.39949218 </i>
    <i name="e_0_energy">  -1150.68345155 </i>
   </energy>
  </scstep>
  <structure>
   <crystal>
    <varray name="basis" >
     <v>      11.96761640      -0.00000005       0.00000009 </v>
     <v>      -0.00000006      11.96761714      -0.00000010 </v>
     <v>       0.00000009      -0.00000008      11.96761612 </v>
    </varray>
    <i name="volume">   1714.04807000 </i>
    <varray name="rec_basis" >
     <v>       0.08355883       0.00000000      -0.00000000 </v>
     <v>       0.00000000       0.08355882       0.00000000 </v>
     <v>      -0.00000000       0.00000000       0.08355883 </v>
    </varray>
   </crystal>
   <varray name="positions" >
    <v>       0.37500013       0.12500023       0.62500004 </v>
    <v>       0.12500006       0.37499995       0.87500011 </v>
    <v>       0.87500004       0.87499978       0.37499983 </v>
    <v>       0.00000015       0.00000015       0.25000007 </v>
    <v>       0.74999975       0.74999991       0.24999987 </v>
    <v>       0.00000005       0.00000020       0.00000003 </v>
    <v>       0.74999994       0.74999985       0.74999983 </v>
    <v>       0.62499996       0.37499975       0.62500002 </v>
    <v>       0.12499983       0.62499991       0.12500018 </v>
    <v>       0.00000017       0.49999989       0.24999991 </v>
    <v>       0.12499991       0.37500025       0.12499998 </v>
    <v>       0.50000026       0.99999996       0.75000000 </v>
    <v>       0.50000014       0.50000002       0.24999987 </v>
    <v>       0.50000020       0.50000003       0.50000005 </v>
    <v>       0.12499983       0.62499994       0.37499963 </v>
    <v>       0.87500017       0.62499985       0.87500026 </v>
    <v>       0.37499997       0.87499991       0.37499997 </v>
    <v>       0.24999990       0.24999997       0.24999996 </v>
    <v>       0.37499991       0.12500016       0.12500003 </v>
    <v>       0.62499996       0.12500020       0.37500026 </v>
    <v>       0.62500013       0.62499965       0.87500008 </v>
    <v>       0.24999979       0.49999993       0.00000029 </v>
    <v>       0.12500000       0.87500011       0.62499995 </v>
    <v>       0.75000000       0.00000014       0.74999994 </v>
    <v>       0.12500010       0.12500005       0.37499991 </v>
    <v>       0.50000028       0.00000006       0.00000032 </v>
    <v>       0.24999971       0.00000001       0.74999980 </v>
    <v>       0.24999980       0.74999995       0.74999972 </v>
    <v>       0.74999975       0.00000007       0.24999979 </v>
    <v>       0.87499996       0.37499988       0.87500003 </v>
    <v>       0.62500012       0.62499974       0.12500022 </v>
    <v>       0.00000014       0.49999989       0.50000028 </v>
    <v>       0.50000033       0.24999991       0.00000031 </v>
    <v>       0.74999997       0.74999983       0.50000022 </v>
    <v>       0.37500001       0.87500026       0.62499976 </v>
    <v>       0.24999959       0.25000007       0.49999999 </v>
    <v>       0.12499987       0.87500005       0.87500012 </v>
    <v>       0.87500002       0.12500024       0.87499996 </v>
    <v>       0.00000010       0.74999988       0.50000021 </v>
    <v>       0.87499998       0.37500023       0.37499990 </v>
    <v>       0.87499990       0.12500007       0.37500000 </v>
    <v>       0.62500001       0.87500018       0.62499976 </v>
    <v>       0.37499996       0.37499990       0.87499989 </v>
    <v>       0.00000021       0.00000014       0.50000015 </v>
    <v>       0.75000009       0.25000010       0.74999998 </v>
    <v>       0.00000001       0.74999981       0.74999970 </v>
    <v>       0.74999993       0.49999997       0.50000025 </v>
    <v>       0.50000013       0.74999992       0.24999980 </v>
    <v>       0.00000020       0.25000009       0.25000001 </v>
    <v>       0.12499999       0.12500021       0.87499995 </v>
    <v>       0.24999997       0.74999989       0.00000019 </v>
    <v>       0.12499989       0.62499979       0.87500036 </v>
    <v>       0.00000022       0.25000008       0.50000028 </v>
    <v>       0.12499994       0.12500014       0.12499994 </v>
    <v>       0.62500001       0.37499984       0.87499982 </v>
    <v>       0.24999999       0.00000019       0.00000019 </v>
    <v>       0.12500024       0.12500017       0.62500020 </v>
    <v>       0.50000011       0.00000011       0.24999974 </v>
    <v>       0.37499982       0.62499960       0.87500014 </v>
    <v>       0.62499996       0.87499991       0.37500015 </v>
    <v>       0.50000011       0.74999989       0.50000005 </v>
    <v>       0.50000038       0.25000013       0.74999994 </v>
    <v>       0.62500009       0.87499990       0.12500014 </v>
    <v>       0.12500002       0.87499976       0.37499975 </v>
    <v>       0.87500013       0.37500025       0.12500001 </v>
    <v>       0.87499997       0.87500000       0.62499995 </v>
    <v>       0.87499986       0.37499989       0.62500006 </v>
    <v>       0.87499978       0.12500027       0.62500012 </v>
    <v>       0.12500005       0.37499995       0.62500005 </v>
    <v>       0.62500011       0.37500012       0.12500006 </v>
    <v>       0.62499985       0.12500034       0.62500001 </v>
    <v>       0.87500031       0.87499975       0.12500011 </v>
    <v>       0.37500006       0.12500013       0.37500023 </v>
    <v>       0.62500004       0.12500024       0.12499997 </v>
    <v>       0.12500000       0.62499978       0.62499983 </v>
    <v>       0.00000015       0.74999986       0.25000006 </v>
    <v>       0.24999952       0.25000009       0.74999975 </v>
    <v>       0.50000010       0.24999996       0.24999979 </v>
    <v>       0.00000000       0.49999986       0.74999973 </v>
    <v>       0.37499977       0.87499984       0.12500023 </v>
    <v>       0.37499986       0.37500014       0.12500000 </v>
    <v>       0.24999984       0.24999997       0.00000030 </v>
    <v>       0.87500021       0.62499991       0.37499967 </v>
    <v>       0.87500027       0.62499987       0.12500025 </v>
    <v>       0.37500012       0.37499982       0.62500002 </v>
    <v>       0.75000002       0.00000002       0.50000016 </v>
    <v>       0.24999998       0.74999988       0.25000002 </v>
    <v>       0.50000001       0.99999995       0.49999993 </v>
    <v>       0.50000030       0.74999998       0.00000025 </v>
    <v>       0.62499993       0.62499974       0.62499980 </v>
    <v>       0.75000003       0.49999994       0.74999986 </v>
    <v>       0.99999999       0.25000011       0.74999970 </v>
    <v>       0.24999983       0.74999993       0.50000007 </v>
    <v>       0.50000025       0.74999991       0.74999986 </v>
    <v>       0.37499995       0.12500027       0.87499972 </v>
    <v>       0.74999983       0.49999992       0.24999987 </v>
    <v>       0.74999981       0.25000007       0.24999977 </v>
    <v>       0.75000006       0.25000021       0.50000021 </v>
    <v>       0.74999988       0.49999989       0.00000003 </v>
    <v>       0.37499992       0.62499992       0.37499991 </v>
    <v>       0.12499982       0.87499971       0.12500017 </v>
    <v>       0.87500000       0.62499984       0.62499982 </v>
    <v>       0.74999967       0.00000019       0.00000011 </v>
    <v>       0.62500009       0.87500021       0.87499996 </v>
    <v>       0.62500005       0.62499989       0.37499992 </v>
    <v>       0.12500001       0.37500025       0.37499986 </v>
    <v>       0.24999976       0.00000005       0.49999995 </v>
    <v>       0.87500010       0.12500013       0.12499992 </v>
    <v>       0.37499990       0.87500022       0.87500004 </v>
    <v>       0.00000003       0.00000023       0.74999974 </v>
    <v>       0.50000014       0.25000015       0.49999993 </v>
    <v>       0.00000002       0.74999976       0.00000003 </v>
    <v>       0.74999969       0.74999985       0.00000010 </v>
    <v>       0.24999961       0.49999996       0.74999964 </v>
    <v>       0.24999999       0.00000020       0.25000007 </v>
    <v>       0.50000035       0.50000000       0.74999980 </v>
    <v>       0.50000035       0.50000005       0.00000027 </v>
    <v>       0.87500015       0.87500004       0.87500013 </v>
    <v>       0.00000000       0.25000013       0.00000002 </v>
    <v>       0.37500008       0.37500002       0.37500007 </v>
    <v>       0.37500008       0.62499970       0.62499977 </v>
    <v>       0.37499978       0.62499986       0.12500019 </v>
    <v>       0.99999998       0.49999990       0.00000006 </v>
    <v>       0.62499993       0.37499999       0.37500011 </v>
    <v>       0.74999983       0.25000006       0.00000004 </v>
    <v>       0.24999988       0.49999996       0.24999995 </v>
    <v>       0.62500004       0.12500031       0.87499976 </v>
    <v>       0.24999974       0.49999993       0.50000011 </v>
   </varray>
  </structure>
  <varray name="forces" >
   <v>       0.00000000       0.00000000      -0.00000000 </v>
   <v>      -0.00000000      -0.00000000       0.00000000 </v>
   <v>       0.00000000      -0.00000000       0.00000000 </v>
   <v>      -0.00000000      -0.00000000       0.00000000 </v>
   <v>       0.00000000      -0.00000000       0.00000000 </v>
   <v>      -0.00000000      -0.00000000      -0.00000000 </v>
   <v>       0.00000000      -0.00000000       0.00000000 </v>
   <v>      -0.00000000       0.00000000       0.00000000 </v>
   <v>      -0.00000000       0.00000000      -0.00000000 </v>
   <v>      -0.00000000      -0.00000000       0.00000000 </v>
   <v>       0.00000000       0.00000000       0.00000000 </v>
   <v>      -0.00000000      -0.00000000      -0.00000000 </v>
   <v>       0.00000000       0.00000000      -0.00000000 </v>
   <v>      -0.00000000       0.00000000       0.00000000 </v>
   <v>      -0.00000000      -0.00000000       0.00000000 </v>
   <v>      -0.00000000       0.00000000       0.00000000 </v>
   <v>       0.00000000      -0.00000000       0.00000000 </v>
   <v>       0.00000000      -0.00000000      -0.00000000 </v>
   <v>       0.00000000       0.00000000       0.00000000 </v>
   <v>      -0.00000000       0.00000000       0.00000000 </v>
   <v>      -0.00000000       0.00000000      -0.00000000 </v>
   <v>       0.00000000       0.00000000       0.00000000 </v>
   <v>      -0.00000000       0.00000000      -0.00000000 </v>
   <v>      -0.00000000       0.00000000       0.00000000 </v>
   <v>       0.00000000      -0.00000000       0.00000000 </v>
   <v>      -0.00000000      -0.00000000      -0.00000000 </v>
   <v>       0.00000000       0.00000000       0.00000000 </v>
   <v>       0.00000000       0.00000000       0.00000000 </v>
   <v>       0.00000000       0.00000000       0.00000000 </v>
   <v>       0.00000000       0.00000000      -0.00000000 </v>
   <v>      -0.00000000       0.00000000      -0.00000000 </v>
   <v>      -0.00000000      -0.00000000       0.00000000 </v>
   <v>      -0.00000000      -0.00000000      -0.00000000 </v>
   <v>      -0.00000000       0.00000000      -0.00000000 </v>
   <v>       0.00000000      -0.00000000      -0.00000000 </v>
   <v>       0.00000000      -0.00000000      -0.00000000 </v>
   <v>       0.00000000       0.00000000      -0.00000000 </v>
   <v>      -0.00000000       0.00000000      -0.00000000 </v>
   <v>      -0.00000000      -0.00000000      -0.00000000 </v>
   <v>       0.00000000       0.00000000      -0.00000000 </v>
   <v>       0.00000000       0.00000000       0.00000000 </v>
   <v>       0.00000000       0.00000000       0.00000000 </v>
   <v>       0.00000000      -0.00000000       0.00000000 </v>
   <v>      -0.00000000       0.00000000      -0.00000000 </v>
   <v>      -0.00000000       0.00000000       0.00000000 </v>
   <v>       0.00000000      -0.00000000       0.00000000 </v>
   <v>       0.00000000       0.00000000      -0.00000000 </v>
   <v>      -0.00000000      -0.00000000       0.00000000 </v>
   <v>      -0.00000000      -0.00000000       0.00000000 </v>
   <v>      -0.00000000       0.00000000       0.00000000 </v>
   <v>       0.00000000      -0.00000000      -0.00000000 </v>
   <v>       0.00000000       0.00000000       0.00000000 </v>
   <v>      -0.00000000      -0.00000000       0.00000000 </v>
   <v>      -0.00000000       0.00000000      -0.00000000 </v>
   <v>      -0.00000000      -0.00000000       0.00000000 </v>
   <v>       0.00000000       0.00000000      -0.00000000 </v>
   <v>      -0.00000000       0.00000000      -0.00000000 </v>
   <v>      -0.00000000       0.00000000       0.00000000 </v>
   <v>       0.00000000       0.00000000      -0.00000000 </v>
   <v>      -0.00000000       0.00000000      -0.00000000 </v>
   <v>      -0.00000000       0.00000000      -0.00000000 </v>
   <v>      -0.00000000       0.00000000       0.00000000 </v>
   <v>      -0.00000000      -0.00000000       0.00000000 </v>
   <v>      -0.00000000      -0.00000000      -0.00000000 </v>
   <v>      -0.00000000       0.00000000      -0.00000000 </v>
   <v>       0.00000000      -0.00000000       0.00000000 </v>
   <v>       0.00000000       0.00000000       0.00000000 </v>
   <v>      -0.00000000       0.00000000      -0.00000000 </v>
   <v>      -0.00000000       0.00000000      -0.00000000 </v>
   <v>      -0.00000000      -0.00000000       0.00000000 </v>
   <v>      -0.00000000       0.00000000       0.00000000 </v>
   <v>       0.00000000       0.00000000       0.00000000 </v>
   <v>       0.00000000      -0.00000000      -0.00000000 </v>
   <v>      -0.00000000      -0.00000000      -0.00000000 </v>
   <v>      -0.00000000       0.00000000       0.00000000 </v>
   <v>      -0.00000000      -0.00000000       0.00000000 </v>
   <v>       0.00000000      -0.00000000       0.00000000 </v>
   <v>      -0.00000000      -0.00000000       0.00000000 </v>
   <v>       0.00000000      -0.00000000      -0.00000000 </v>
   <v>       0.00000000      -0.00000000      -0.00000000 </v>
   <v>       0.00000000      -0.00000000       0.00000000 </v>
   <v>       0.00000000      -0.00000000       0.00000000 </v>
   <v>       0.00000000      -0.00000000      -0.00000000 </v>
   <v>       0.00000000      -0.00000000      -0.00000000 </v>
   <v>      -0.00000000      -0.00000000       0.00000000 </v>
   <v>       0.00000000       0.00000000      -0.00000000 </v>
   <v>       0.00000000      -0.00000000       0.00000000 </v>
   <v>      -0.00000000       0.00000000      -0.00000000 </v>
   <v>      -0.00000000      -0.00000000      -0.00000000 </v>
   <v>      -0.00000000      -0.00000000       0.00000000 </v>
   <v>       0.00000000      -0.00000000       0.00000000 </v>
   <v>      -0.00000000      -0.00000000      -0.00000000 </v>
   <v>       0.00000000      -0.00000000       0.00000000 </v>
   <v>      -0.00000000      -0.00000000       0.00000000 </v>
   <v>       0.00000000       0.00000000       0.00000000 </v>
   <v>       0.00000000       0.00000000       0.00000000 </v>
   <v>       0.00000000      -0.00000000      -0.00000000 </v>
   <v>       0.00000000       0.00000000      -0.00000000 </v>
   <v>      -0.00000000       0.00000000      -0.00000000 </v>
   <v>       0.00000000       0.00000000       0.00000000 </v>
   <v>       0.00000000      -0.00000000      -0.00000000 </v>
   <v>       0.00000000       0.00000000      -0.00000000 </v>
   <v>      -0.00000000      -0.00000000       0.00000000 </v>
   <v>      -0.00000000      -0.00000000       0.00000000 </v>
   <v>      -0.00000000       0.00000000       0.00000000 </v>
   <v>      -0.00000000       0.00000000       0.00000000 </v>
   <v>       0.00000000       0.00000000      -0.00000000 </v>
   <v>       0.00000000       0.00000000      -0.00000000 </v>
   <v>       0.00000000      -0.00000000      -0.00000000 </v>
   <v>       0.00000000      -0.00000000      -0.00000000 </v>
   <v>      -0.00000000      -0.00000000      -0.00000000 </v>
   <v>       0.00000000       0.00000000       0.00000000 </v>
   <v>       0.00000000       0.00000000       0.00000000 </v>
   <v>       0.00000000      -0.00000000      -0.00000000 </v>
   <v>       0.00000000       0.00000000       0.00000000 </v>
   <v>      -0.00000000       0.00000000       0.00000000 </v>
   <v>      -0.00000000       0.00000000      -0.00000000 </v>
   <v>      -0.00000000       0.00000000       0.00000000 </v>
   <v>       0.00000000       0.00000000       0.00000000 </v>
   <v>       0.00000000      -0.00000000      -0.00000000 </v>
   <v>      -0.00000000       0.00000000      -0.00000000 </v>
   <v>       0.00000000       0.00000000      -0.00000000 </v>
   <v>      -0.00000000      -0.00000000      -0.00000000 </v>
   <v>       0.00000000       0.00000000      -0.00000000 </v>
   <v>       0.00000000      -0.00000000      -0.00000000 </v>
   <v>       0.00000000      -0.00000000       0.00000000 </v>
   <v>      -0.00000000       0.00000000       0.00000000 </v>
   <v>      -0.00000000      -0.00000000       0.00000000 </v>
  </varray>
  <varray name="stress" >
   <v>      -0.02352606       0.00000000      -0.00000000 </v>
   <v>       0.00000000      -0.02352606       0.00000000 </v>
   <v>      -0.00000000       0.00000000      -0.02352606 </v>
  </varray>
  <energy>
   <i name="e_fr_energy">  -1150.82543123 </i>
   <i name="e_wo_entrp">  -1150.39949218 </i>
   <i name="e_0_energy">  -1150.68345155 </i>
  </energy>
  <time name="totalsc">   28.40   25.05</time>
  <eigenvalues>
   <array>
    <dimension dim="1">band</dimension>
    <dimension dim="2">kpoint</dimension>
    <dimension dim="3">spin</dimension>
    <field>eigene</field>
    <field>occ</field>
    <set>
     <set comment="spin 1">
      <set comment="kpoint 1">
       <r>  -53.9122    1.0000 </r>
       <r>  -53.8551    1.0000 </r>
       <r>  -53.8550    1.0000 </r>
       <r>  -53.8550    1.0000 </r>
       <r>  -53.8549    1.0000 </r>
       <r>  -53.8549    1.0000 </r>
       <r>  -53.8548    1.0000 </r>
       <r>  -53.8115    1.0000 </r>
       <r>  -53.8114    1.0000 </r>
       <r>  -53.8114    1.0000 </r>
       <r>  -53.8113    1.0000 </r>
       <r>  -53.8113    1.0000 </r>
       <r>  -53.8113    1.0000 </r>
       <r>  -53.8113    1.0000 </r>
       <r>  -53.8113    1.0000 </r>
       <r>  -53.8112    1.0000 </r>
       <r>  -53.8112    1.0000 </r>
       <r>  -53.8112    1.0000 </r>
       <r>  -53.8111    1.0000 </r>
       <r>  -53.7782    1.0000 </r>
       <r>  -53.7782    1.0000 </r>
       <r>  -53.7781    1.0000 </r>
       <r>  -53.7781    1.0000 </r>
       <r>  -53.7781    1.0000 </r>
       <r>  -53.7781    1.0000 </r>
       <r>  -53.7780    1.0000 </r>
       <r>  -53.7780    1.0000 </r>
       <r>  -53.7267    1.0000 </r>
       <r>  -53.7267    1.0000 </r>
       <r>  -53.7267    1.0000 </r>
       <r>  -53.7267    1.0000 </r>
       <r>  -53.7267    1.0000 </r>
       <r>  -53.7267    1.0000 </r>
       <r>  -53.7178    1.0000 </r>
       <r>  -53.7178    1.0000 </r>
       <r>  -53.7178    1.0000 </r>
       <r>  -53.7178    1.0000 </r>
       <r>  -53.7178    1.0000 </r>
       <r>  -53.7178    1.0000 </r>
       <r>  -53.7177    1.0000 </r>
       <r>  -53.7177    1.0000 </r>
       <r>  -53.7177    1.0000 </r>
       <r>  -53.7177    1.0000 </r>
       <r>  -53.7177    1.0000 </r>
       <r>  -53.7177    1.0000 </r>
       <r>  -53.7177    1.0000 </r>
       <r>  -53.7177    1.0000 </r>
       <r>  -53.7177    1.0000 </r>
       <r>  -53.7176    1.0000 </r>
       <r>  -53.7176    1.0000 </r>
       <r>  -53.7176    1.0000 </r>
       <r>  -53.7176    1.0000 </r>
       <r>  -53.7176    1.0000 </r>
       <r>  -53.7176    1.0000 </r>
       <r>  -53.7176    1.0000 </r>
       <r>  -53.7175    1.0000 </r>
       <r>  -53.7175    1.0000 </r>
       <r>  -53.7099    1.0000 </r>
       <r>  -53.7098    1.0000 </r>
       <r>  -53.7098    1.0000 </r>
       <r>  -53.7098    1.0000 </r>
       <r>  -53.7097    1.0000 </r>
       <r>  -53.7097    1.0000 </r>
       <r>  -53.7097    1.0000 </r>
       <r>  -53.7097    1.0000 </r>
       <r>  -53.7097    1.0000 </r>
       <r>  -53.7097    1.0000 </r>
       <r>  -53.7096    1.0000 </r>
       <r>  -53.7096    1.0000 </r>
       <r>  -53.7096    1.0000 </r>
       <r>  -53.7096    1.0000 </r>
       <r>  -53.7096    1.0000 </r>
       <r>  -53.7096    1.0000 </r>
       <r>  -53.7096    1.0000 </r>
       <r>  -53.7096    1.0000 </r>
       <r>  -53.7096    1.0000 </r>
       <r>  -53.7095    1.0000 </r>
       <r>  -53.7095    1.0000 </r>
       <r>  -53.7095    1.0000 </r>
       <r>  -53.7094    1.0000 </r>
       <r>  -53.7094    1.0000 </r>
       <r>  -53.7092    1.0000 </r>
       <r>  -53.7092    1.0000 </r>
       <r>  -53.7092    1.0000 </r>
       <r>  -53.7092    1.0000 </r>
       <r>  -53.7091    1.0000 </r>
       <r>  -53.7091    1.0000 </r>
       <r>  -53.7018    1.0000 </r>
       <r>  -53.7018    1.0000 </r>
       <r>  -53.7018    1.0000 </r>
       <r>  -53.7018    1.0000 </r>
       <r>  -53.7017    1.0000 </r>
       <r>  -53.7017    1.0000 </r>
       <r>  -53.7017    1.0000 </r>
       <r>  -53.7017    1.0000 </r>
       <r>  -53.7017    1.0000 </r>
       <r>  -53.7016    1.0000 </r>
       <r>  -53.7016    1.0000 </r>
       <r>  -53.7015    1.0000 </r>
       <r>  -53.6945    1.0000 </r>
       <r>  -53.6945    1.0000 </r>
       <r>  -53.6578    1.0000 </r>
       <r>  -53.6578    1.0000 </r>
       <r>  -53.6577    1.0000 </r>
       <r>  -53.6577    1.0000 </r>
       <r>  -53.6577    1.0000 </r>
       <r>  -53.6577    1.0000 </r>
       <r>  -53.6576    1.0000 </r>
       <r>  -53.6576    1.0000 </r>
       <r>  -53.6410    1.0000 </r>
       <r>  -53.6409    1.0000 </r>
       <r>  -53.6409    1.0000 </r>
       <r>  -53.6409    1.0000 </r>
       <r>  -53.6409    1.0000 </r>
       <r>  -53.6408    1.0000 </r>
       <r>  -53.6408    1.0000 </r>
       <r>  -53.6408    1.0000 </r>
       <r>  -53.6407    1.0000 </r>
       <r>  -53.6407    1.0000 </r>
       <r>  -53.6407    1.0000 </r>
       <r>  -53.6406    1.0000 </r>
       <r>  -53.6140    1.0000 </r>
       <r>  -53.6139    1.0000 </r>
       <r>  -53.6139    1.0000 </r>
       <r>  -53.6138    1.0000 </r>
       <r>  -53.6138    1.0000 </r>
       <r>  -53.6137    1.0000 </r>
       <r>  -53.5700    1.0000 </r>
       <r>  -28.1346    1.0000 </r>
       <r>  -28.1346    1.0000 </r>
       <r>  -28.1346    1.0000 </r>
       <r>  -28.1346    1.0000 </r>
       <r>  -28.1346    1.0000 </r>
       <r>  -28.1346    1.0000 </r>
       <r>  -27.9982    1.0000 </r>
       <r>  -27.9982    1.0000 </r>
       <r>  -27.9982    1.0000 </r>
       <r>  -27.9982    1.0000 </r>
       <r>  -27.9981    1.0000 </r>
       <r>  -27.9981    1.0000 </r>
       <r>  -27.9981    1.0000 </r>
       <r>  -27.9981    1.0000 </r>
       <r>  -27.9981    1.0000 </r>
       <r>  -27.9981    1.0000 </r>
       <r>  -27.9980    1.0000 </r>
       <r>  -27.9980    1.0000 </r>
       <r>  -27.9907    1.0000 </r>
       <r>  -27.9907    1.0000 </r>
       <r>  -27.9907    1.0000 </r>
       <r>  -27.9907    1.0000 </r>
       <r>  -27.9907    1.0000 </r>
       <r>  -27.9907    1.0000 </r>
       <r>  -27.9906    1.0000 </r>
       <r>  -27.9906    1.0000 </r>
       <r>  -27.9906    1.0000 </r>
       <r>  -27.9906    1.0000 </r>
       <r>  -27.9906    1.0000 </r>
       <r>  -27.9906    1.0000 </r>
       <r>  -27.9721    1.0000 </r>
       <r>  -27.9721    1.0000 </r>
       <r>  -27.9721    1.0000 </r>
       <r>  -27.9721    1.0000 </r>
       <r>  -27.9721    1.0000 </r>
       <r>  -27.9721    1.0000 </r>
       <r>  -27.9721    1.0000 </r>
       <r>  -27.9721    1.0000 </r>
       <r>  -27.9720    1.0000 </r>
       <r>  -27.9720    1.0000 </r>
       <r>  -27.9720    1.0000 </r>
       <r>  -27.9720    1.0000 </r>
       <r>  -27.9720    1.0000 </r>
       <r>  -27.9720    1.0000 </r>
       <r>  -27.9720    1.0000 </r>
       <r>  -27.9720    1.0000 </r>
       <r>  -27.9720    1.0000 </r>
       <r>  -27.9720    1.0000 </r>
       <r>  -27.9719    1.0000 </r>
       <r>  -27.9719    1.0000 </r>
       <r>  -27.9719    1.0000 </r>
       <r>  -27.9719    1.0000 </r>
       <r>  -27.9719    1.0000 </r>
       <r>  -27.9719    1.0000 </r>
       <r>  -27.9645    1.0000 </r>
       <r>  -27.9644    1.0000 </r>
       <r>  -27.9644    1.0000 </r>
       <r>  -27.9644    1.0000 </r>
       <r>  -27.9644    1.0000 </r>
       <r>  -27.9644    1.0000 </r>
       <r>  -27.9643    1.0000 </r>
       <r>  -27.9643    1.0000 </r>
       <r>  -27.9643    1.0000 </r>
       <r>  -27.9643    1.0000 </r>
       <r>  -27.9643    1.0000 </r>
       <r>  -27.9643    1.0000 </r>
       <r>  -27.9643    1.0000 </r>
       <r>  -27.9643    1.0000 </r>
       <r>  -27.9643    1.0000 </r>
       <r>  -27.9643    1.0000 </r>
       <r>  -27.9643    1.0000 </r>
       <r>  -27.9643    1.0000 </r>
       <r>  -27.9642    1.0000 </r>
       <r>  -27.9642    1.0000 </r>
       <r>  -27.9642    1.0000 </r>
       <r>  -27.9642    1.0000 </r>
       <r>  -27.9642    1.0000 </r>
       <r>  -27.9641    1.0000 </r>
       <r>  -27.8738    1.0000 </r>
       <r>  -27.8738    1.0000 </r>
       <r>  -27.8738    1.0000 </r>
       <r>  -27.8738    1.0000 </r>
       <r>  -27.8737    1.0000 </r>
       <r>  -27.8737    1.0000 </r>
       <r>  -27.8737    1.0000 </r>
       <r>  -27.8737    1.0000 </r>
       <r>  -27.8737    1.0000 </r>
       <r>  -27.8737    1.0000 </r>
       <r>  -27.8736    1.0000 </r>
       <r>  -27.8736    1.0000 </r>
       <r>  -27.8736    1.0000 </r>
       <r>  -27.8736    1.0000 </r>
       <r>  -27.8736    1.0000 </r>
       <r>  -27.8736    1.0000 </r>
       <r>  -27.8434    1.0000 </r>
       <r>  -27.8433    1.0000 </r>
       <r>  -27.8433    1.0000 </r>
       <r>  -27.8383    1.0000 </r>
       <r>  -27.8383    1.0000 </r>
       <r>  -27.8383    1.0000 </r>
       <r>  -27.8382    1.0000 </r>
       <r>  -27.8382    1.0000 </r>
       <r>  -27.8382    1.0000 </r>
       <r>  -27.8171    1.0000 </r>
       <r>  -27.8171    1.0000 </r>
       <r>  -27.8170    1.0000 </r>
       <r>  -27.8170    1.0000 </r>
       <r>  -27.8170    1.0000 </r>
       <r>  -27.8170    1.0000 </r>
       <r>  -27.8170    1.0000 </r>
       <r>  -27.8170    1.0000 </r>
       <r>  -27.7477    1.0000 </r>
       <r>  -27.7476    1.0000 </r>
       <r>  -27.7476    1.0000 </r>
       <r>  -27.7476    1.0000 </r>
       <r>  -27.7476    1.0000 </r>
       <r>  -27.7476    1.0000 </r>
       <r>  -27.7475    1.0000 </r>
       <r>  -27.7475    1.0000 </r>
       <r>  -27.7475    1.0000 </r>
       <r>  -27.7475    1.0000 </r>
       <r>  -27.7474    1.0000 </r>
       <r>  -27.7474    1.0000 </r>
       <r>  -27.7044    1.0000 </r>
       <r>  -27.7044    1.0000 </r>
       <r>  -27.7044    1.0000 </r>
       <r>  -27.7044    1.0000 </r>
       <r>  -27.7044    1.0000 </r>
       <r>  -27.7044    1.0000 </r>
       <r>  -27.6862    1.0000 </r>
       <r>  -27.6862    1.0000 </r>
       <r>  -27.6861    1.0000 </r>
       <r>  -27.6861    1.0000 </r>
       <r>  -27.6861    1.0000 </r>
       <r>  -27.6861    1.0000 </r>
       <r>  -27.6861    1.0000 </r>
       <r>  -27.6861    1.0000 </r>
       <r>  -27.6861    1.0000 </r>
       <r>  -27.6861    1.0000 </r>
       <r>  -27.6861    1.0000 </r>
       <r>  -27.6860    1.0000 </r>
       <r>  -27.6760    1.0000 </r>
       <r>  -27.6760    1.0000 </r>
       <r>  -27.6760    1.0000 </r>
       <r>  -27.6760    1.0000 </r>
       <r>  -27.6760    1.0000 </r>
       <r>  -27.6759    1.0000 </r>
       <r>  -27.6759    1.0000 </r>
       <r>  -27.6759    1.0000 </r>
       <r>  -27.6759    1.0000 </r>
       <r>  -27.6759    1.0000 </r>
       <r>  -27.6759    1.0000 </r>
       <r>  -27.6758    1.0000 </r>
       <r>  -27.6728    1.0000 </r>
       <r>  -27.6728    1.0000 </r>
       <r>  -27.6728    1.0000 </r>
       <r>  -27.6728    1.0000 </r>
       <r>  -27.6728    1.0000 </r>
       <r>  -27.6728    1.0000 </r>
       <r>  -27.5967    1.0000 </r>
       <r>  -27.5967    1.0000 </r>
       <r>  -27.5967    1.0000 </r>
       <r>  -27.5967    1.0000 </r>
       <r>  -27.5967    1.0000 </r>
       <r>  -27.5967    1.0000 </r>
       <r>  -27.5966    1.0000 </r>
       <r>  -27.5966    1.0000 </r>
       <r>  -27.5966    1.0000 </r>
       <r>  -27.5966    1.0000 </r>
       <r>  -27.5966    1.0000 </r>
       <r>  -27.5966    1.0000 </r>
       <r>  -27.5966    1.0000 </r>
       <r>  -27.5966    1.0000 </r>
       <r>  -27.5966    1.0000 </r>
       <r>  -27.5966    1.0000 </r>
       <r>  -27.5966    1.0000 </r>
       <r>  -27.5966    1.0000 </r>
       <r>  -27.5966    1.0000 </r>
       <r>  -27.5966    1.0000 </r>
       <r>  -27.5966    1.0000 </r>
       <r>  -27.5966    1.0000 </r>
       <r>  -27.5966    1.0000 </r>
       <r>  -27.5966    1.0000 </r>
       <r>  -27.5887    1.0000 </r>
       <r>  -27.5887    1.0000 </r>
       <r>  -27.5886    1.0000 </r>
       <r>  -27.5886    1.0000 </r>
       <r>  -27.5886    1.0000 </r>
       <r>  -27.5886    1.0000 </r>
       <r>  -27.5886    1.0000 </r>
       <r>  -27.5886    1.0000 </r>
       <r>  -27.5886    1.0000 </r>
       <r>  -27.5886    1.0000 </r>
       <r>  -27.5885    1.0000 </r>
       <r>  -27.5885    1.0000 </r>
       <r>  -27.5396    1.0000 </r>
       <r>  -27.5396    1.0000 </r>
       <r>  -27.5396    1.0000 </r>
       <r>  -27.5396    1.0000 </r>
       <r>  -27.5396    1.0000 </r>
       <r>  -27.5396    1.0000 </r>
       <r>  -27.5396    1.0000 </r>
       <r>  -27.5396    1.0000 </r>
       <r>  -27.5396    1.0000 </r>
       <r>  -27.5395    1.0000 </r>
       <r>  -27.5395    1.0000 </r>
       <r>  -27.5395    1.0000 </r>
       <r>  -27.5208    1.0000 </r>
       <r>  -27.5208    1.0000 </r>
       <r>  -27.5208    1.0000 </r>
       <r>  -27.5208    1.0000 </r>
       <r>  -27.5208    1.0000 </r>
       <r>  -27.5208    1.0000 </r>
       <r>  -27.5208    1.0000 </r>
       <r>  -27.5208    1.0000 </r>
       <r>  -27.5208    1.0000 </r>
       <r>  -27.5208    1.0000 </r>
       <r>  -27.5208    1.0000 </r>
       <r>  -27.5208    1.0000 </r>
       <r>  -27.5122    1.0000 </r>
       <r>  -27.5122    1.0000 </r>
       <r>  -27.5121    1.0000 </r>
       <r>  -27.5121    1.0000 </r>
       <r>  -27.5121    1.0000 </r>
       <r>  -27.5121    1.0000 </r>
       <r>  -27.5121    1.0000 </r>
       <r>  -27.5121    1.0000 </r>
       <r>  -27.5121    1.0000 </r>
       <r>  -27.5121    1.0000 </r>
       <r>  -27.5121    1.0000 </r>
       <r>  -27.5120    1.0000 </r>
       <r>  -27.5120    1.0000 </r>
       <r>  -27.5120    1.0000 </r>
       <r>  -27.5120    1.0000 </r>
       <r>  -27.5120    1.0000 </r>
       <r>  -27.5120    1.0000 </r>
       <r>  -27.5120    1.0000 </r>
       <r>  -27.5120    1.0000 </r>
       <r>  -27.5120    1.0000 </r>
       <r>  -27.5119    1.0000 </r>
       <r>  -27.5119    1.0000 </r>
       <r>  -27.5119    1.0000 </r>
       <r>  -27.5118    1.0000 </r>
       <r>  -27.5035    1.0000 </r>
       <r>  -27.5035    1.0000 </r>
       <r>  -27.5035    1.0000 </r>
       <r>  -27.5035    1.0000 </r>
       <r>  -27.5035    1.0000 </r>
       <r>  -27.5035    1.0000 </r>
       <r>  -27.3981    1.0000 </r>
       <r>  -27.3981    1.0000 </r>
       <r>  -27.3981    1.0000 </r>
       <r>  -27.3981    1.0000 </r>
       <r>  -27.3980    1.0000 </r>
       <r>  -27.3980    1.0000 </r>
       <r>  -27.3893    1.0000 </r>
       <r>  -27.3893    1.0000 </r>
       <r>  -27.3893    1.0000 </r>
       <r>  -27.3893    1.0000 </r>
       <r>  -27.3893    1.0000 </r>
       <r>  -27.3893    1.0000 </r>
       <r>  -27.3893    1.0000 </r>
       <r>  -27.3892    1.0000 </r>
       <r>  -27.3619    1.0000 </r>
       <r>  -27.3619    1.0000 </r>
       <r>  -27.3619    1.0000 </r>
       <r>  -27.3619    1.0000 </r>
       <r>  -27.3619    1.0000 </r>
       <r>  -27.3618    1.0000 </r>
       <r>  -27.3618    1.0000 </r>
       <r>  -27.3618    1.0000 </r>
       <r>  -27.3618    1.0000 </r>
       <r>  -27.3618    1.0000 </r>
       <r>  -27.3617    1.0000 </r>
       <r>  -27.3617    1.0000 </r>
       <r>  -27.3532    1.0000 </r>
       <r>  -27.3532    1.0000 </r>
       <r>  -27.3532    1.0000 </r>
       <r>  -27.3532    1.0000 </r>
       <r>  -27.3531    1.0000 </r>
       <r>  -27.3531    1.0000 </r>
       <r>  -27.3531    1.0000 </r>
       <r>  -27.3531    1.0000 </r>
       <r>  -27.3531    1.0000 </r>
       <r>  -27.3531    1.0000 </r>
       <r>  -27.3531    1.0000 </r>
       <r>  -27.3530    1.0000 </r>
       <r>  -27.3284    1.0000 </r>
       <r>  -27.3284    1.0000 </r>
       <r>  -27.3284    1.0000 </r>
       <r>  -27.3284    1.0000 </r>
       <r>  -27.3284    1.0000 </r>
       <r>  -27.3284    1.0000 </r>
       <r>  -27.3283    1.0000 </r>
       <r>  -27.3283    1.0000 </r>
       <r>  -27.3283    1.0000 </r>
       <r>  -27.3283    1.0000 </r>
       <r>  -27.3283    1.0000 </r>
       <r>  -27.3283    1.0000 </r>
       <r>  -27.3282    1.0000 </r>
       <r>  -27.3282    1.0000 </r>
       <r>  -27.3282    1.0000 </r>
       <r>  -27.3282    1.0000 </r>
       <r>  -27.3200    1.0000 </r>
       <r>  -27.3200    1.0000 </r>
       <r>  -27.3200    1.0000 </r>
       <r>  -27.3199    1.0000 </r>
       <r>  -27.3199    1.0000 </r>
       <r>  -27.3199    1.0000 </r>
       <r>  -27.3199    1.0000 </r>
       <r>  -27.3199    1.0000 </r>
       <r>  -27.3199    1.0000 </r>
       <r>  -27.3199    1.0000 </r>
       <r>  -27.3199    1.0000 </r>
       <r>  -27.3199    1.0000 </r>
       <r>  -27.3199    1.0000 </r>
       <r>  -27.3199    1.0000 </r>
       <r>  -27.3199    1.0000 </r>
       <r>  -27.3199    1.0000 </r>
       <r>  -27.3198    1.0000 </r>
       <r>  -27.3198    1.0000 </r>
       <r>  -27.3198    1.0000 </r>
       <r>  -27.3198    1.0000 </r>
       <r>  -27.3198    1.0000 </r>
       <r>  -27.3197    1.0000 </r>
       <r>  -27.3197    1.0000 </r>
       <r>  -27.3197    1.0000 </r>
       <r>  -27.3114    1.0000 </r>
       <r>  -27.3114    1.0000 </r>
       <r>  -27.3114    1.0000 </r>
       <r>  -27.3114    1.0000 </r>
       <r>  -27.3114    1.0000 </r>
       <r>  -27.3114    1.0000 </r>
       <r>  -27.3113    1.0000 </r>
       <r>  -27.3113    1.0000 </r>
       <r>  -27.3113    1.0000 </r>
       <r>  -27.3113    1.0000 </r>
       <r>  -27.3113    1.0000 </r>
       <r>  -27.3113    1.0000 </r>
       <r>  -27.3113    1.0000 </r>
       <r>  -27.3113    1.0000 </r>
       <r>  -27.3113    1.0000 </r>
       <r>  -27.3113    1.0000 </r>
       <r>  -27.3113    1.0000 </r>
       <r>  -27.3113    1.0000 </r>
       <r>  -27.3112    1.0000 </r>
       <r>  -27.3112    1.0000 </r>
       <r>  -27.3112    1.0000 </r>
       <r>  -27.3112    1.0000 </r>
       <r>  -27.3112    1.0000 </r>
       <r>  -27.3112    1.0000 </r>
       <r>  -27.3042    1.0000 </r>
       <r>  -27.3041    1.0000 </r>
       <r>  -27.3041    1.0000 </r>
       <r>  -27.3041    1.0000 </r>
       <r>  -27.3041    1.0000 </r>
       <r>  -27.3041    1.0000 </r>
       <r>  -27.3041    1.0000 </r>
       <r>  -27.3040    1.0000 </r>
       <r>  -27.3040    1.0000 </r>
       <r>  -27.3040    1.0000 </r>
       <r>  -27.3039    1.0000 </r>
       <r>  -27.3039    1.0000 </r>
       <r>  -27.2234    1.0000 </r>
       <r>  -27.2234    1.0000 </r>
       <r>  -27.2234    1.0000 </r>
       <r>  -27.2234    1.0000 </r>
       <r>  -27.2234    1.0000 </r>
       <r>  -27.2234    1.0000 </r>
       <r>  -27.2203    1.0000 </r>
       <r>  -27.2202    1.0000 </r>
       <r>  -27.2202    1.0000 </r>
       <r>  -27.2202    1.0000 </r>
       <r>  -27.2202    1.0000 </r>
       <r>  -27.2202    1.0000 </r>
       <r>  -27.2202    1.0000 </r>
       <r>  -27.2202    1.0000 </r>
       <r>  -27.2202    1.0000 </r>
       <r>  -27.2202    1.0000 </r>
       <r>  -27.2201    1.0000 </r>
       <r>  -27.2201    1.0000 </r>
       <r>  -27.2173    1.0000 </r>
       <r>  -27.2173    1.0000 </r>
       <r>  -27.2173    1.0000 </r>
       <r>    3.1777    1.0000 </r>
       <r>    4.3803    1.0000 </r>
       <r>    4.3804    1.0000 </r>
       <r>    4.3805    1.0000 </r>
       <r>    4.3805    1.0000 </r>
       <r>    4.3806    1.0000 </r>
       <r>    4.3807    1.0000 </r>
       <r>    5.3334    1.0000 </r>
       <r>    5.3335    1.0000 </r>
       <r>    5.3335    1.0000 </r>
       <r>    5.3336    1.0000 </r>
       <r>    5.3336    1.0000 </r>
       <r>    5.3336    1.0000 </r>
       <r>    5.3336    1.0000 </r>
       <r>    5.3337    1.0000 </r>
       <r>    5.3337    1.0000 </r>
       <r>    5.3337    1.0000 </r>
       <r>    5.3338    1.0000 </r>
       <r>    5.3339    1.0000 </r>
       <r>    6.3119    1.0000 </r>
       <r>    6.3119    1.0000 </r>
       <r>    6.3120    1.0000 </r>
       <r>    6.3120    1.0000 </r>
       <r>    6.3121    1.0000 </r>
       <r>    6.3121    1.0000 </r>
       <r>    6.3122    1.0000 </r>
       <r>    6.3122    1.0000 </r>
       <r>    6.5911    1.0000 </r>
       <r>    6.5911    1.0000 </r>
       <r>    6.5911    1.0000 </r>
       <r>    6.5911    1.0000 </r>
       <r>    6.5911    1.0000 </r>
       <r>    6.5911    1.0000 </r>
       <r>    6.7633    1.0000 </r>
       <r>    6.7633    1.0000 </r>
       <r>    6.8724    1.0000 </r>
       <r>    6.8724    1.0000 </r>
       <r>    6.8724    1.0000 </r>
       <r>    6.8724    1.0000 </r>
       <r>    6.8724    1.0000 </r>
       <r>    6.8724    1.0000 </r>
       <r>    6.9206    1.0000 </r>
       <r>    6.9206    1.0000 </r>
       <r>    6.9206    1.0000 </r>
       <r>    6.9206    1.0000 </r>
       <r>    6.9206    1.0000 </r>
       <r>    6.9206    1.0000 </r>
       <r>    6.9207    1.0000 </r>
       <r>    6.9207    1.0000 </r>
       <r>    6.9207    1.0000 </r>
       <r>    6.9207    1.0000 </r>
       <r>    6.9207    1.0000 </r>
       <r>    6.9207    1.0000 </r>
       <r>    6.9207    1.0000 </r>
       <r>    6.9207    1.0000 </r>
       <r>    6.9207    1.0000 </r>
       <r>    6.9208    1.0000 </r>
       <r>    6.9208    1.0000 </r>
       <r>    6.9208    1.0000 </r>
       <r>    6.9208    1.0000 </r>
       <r>    6.9208    1.0000 </r>
       <r>    6.9208    1.0000 </r>
       <r>    6.9208    1.0000 </r>
       <r>    6.9209    1.0000 </r>
       <r>    6.9209    1.0000 </r>
       <r>    7.3241    1.0000 </r>
       <r>    7.3241    1.0000 </r>
       <r>    7.3241    1.0000 </r>
       <r>    7.3242    1.0000 </r>
       <r>    7.3242    1.0000 </r>
       <r>    7.3243    1.0000 </r>
       <r>    7.4313    1.0000 </r>
       <r>    7.4313    1.0000 </r>
       <r>    7.4313    1.0000 </r>
       <r>    7.4314    1.0000 </r>
       <r>    7.4314    1.0000 </r>
       <r>    7.4315    1.0000 </r>
       <r>    7.5139    1.0000 </r>
       <r>    7.5140    1.0000 </r>
       <r>    7.5140    1.0000 </r>
       <r>    7.5140    1.0000 </r>
       <r>    7.5140    1.0000 </r>
       <r>    7.5140    1.0000 </r>
       <r>    7.5140    1.0000 </r>
       <r>    7.5140    1.0000 </r>
       <r>    7.5141    1.0000 </r>
       <r>    7.5141    1.0000 </r>
       <r>    7.5141    1.0000 </r>
       <r>    7.5141    1.0000 </r>
       <r>    7.5368    1.0000 </r>
       <r>    7.5369    1.0000 </r>
       <r>    7.5369    1.0000 </r>
       <r>    7.5369    1.0000 </r>
       <r>    7.5369    1.0000 </r>
       <r>    7.5370    1.0000 </r>
       <r>    7.5370    1.0000 </r>
       <r>    7.5370    1.0000 </r>
       <r>    7.5370    1.0000 </r>
       <r>    7.5370    1.0000 </r>
       <r>    7.5371    1.0000 </r>
       <r>    7.5371    1.0000 </r>
       <r>    7.6109    1.0000 </r>
       <r>    7.6109    1.0000 </r>
       <r>    7.6109    1.0000 </r>
       <r>    7.6109    1.0000 </r>
       <r>    7.6109    1.0000 </r>
       <r>    7.6109    1.0000 </r>
       <r>    7.6110    1.0000 </r>
       <r>    7.6110    1.0000 </r>
       <r>    7.6110    1.0000 </r>
       <r>    7.6110    1.0000 </r>
       <r>    7.6110    1.0000 </r>
       <r>    7.6110    1.0000 </r>
       <r>    7.6110    1.0000 </r>
       <r>    7.6110    1.0000 </r>
       <r>    7.6110    1.0000 </r>
       <r>    7.6110    1.0000 </r>
       <r>    7.6110    1.0000 </r>
       <r>    7.6110    1.0000 </r>
       <r>    7.6111    1.0000 </r>
       <r>    7.6111    1.0000 </r>
       <r>    7.6111    1.0000 </r>
       <r>    7.6111    1.0000 </r>
       <r>    7.6111    1.0000 </r>
       <r>    7.6111    1.0000 </r>
       <r>    8.1806    1.0000 </r>
       <r>    8.1806    1.0000 </r>
       <r>    8.1806    1.0000 </r>
       <r>    8.1807    1.0000 </r>
       <r>    8.1807    1.0000 </r>
       <r>    8.1807    1.0000 </r>
       <r>    8.1807    1.0000 </r>
       <r>    8.1807    1.0000 </r>
       <r>    8.1808    1.0000 </r>
       <r>    8.1808    1.0000 </r>
       <r>    8.1808    1.0000 </r>
       <r>    8.1809    1.0000 </r>
       <r>    8.3518    1.0000 </r>
       <r>    8.3518    1.0000 </r>
       <r>    8.3518    1.0000 </r>
       <r>    8.3518    1.0000 </r>
       <r>    8.3519    1.0000 </r>
       <r>    8.3519    1.0000 </r>
       <r>    8.3519    1.0000 </r>
       <r>    8.3519    1.0000 </r>
       <r>    8.3519    1.0000 </r>
       <r>    8.3519    1.0000 </r>
       <r>    8.3519    1.0000 </r>
       <r>    8.3519    1.0000 </r>
       <r>    8.3520    1.0000 </r>
       <r>    8.3520    1.0000 </r>
       <r>    8.3520    1.0000 </r>
       <r>    8.3520    1.0000 </r>
       <r>    8.4928    1.0000 </r>
       <r>    8.4928    1.0000 </r>
       <r>    8.4928    1.0000 </r>
       <r>    8.4928    1.0000 </r>
       <r>    8.4929    1.0000 </r>
       <r>    8.4929    1.0000 </r>
       <r>    8.4929    1.0000 </r>
       <r>    8.4929    1.0000 </r>
       <r>    8.4929    1.0000 </r>
       <r>    8.4929    1.0000 </r>
       <r>    8.4929    1.0000 </r>
       <r>    8.4930    1.0000 </r>
       <r>    8.6215    1.0000 </r>
       <r>    8.6215    1.0000 </r>
       <r>    8.6216    1.0000 </r>
       <r>    8.6216    1.0000 </r>
       <r>    8.6216    1.0000 </r>
       <r>    8.6216    1.0000 </r>
       <r>    8.6216    1.0000 </r>
       <r>    8.6216    1.0000 </r>
       <r>    8.6216    1.0000 </r>
       <r>    8.6216    1.0000 </r>
       <r>    8.6216    1.0000 </r>
       <r>    8.6216    1.0000 </r>
       <r>    8.6217    1.0000 </r>
       <r>    8.6217    1.0000 </r>
       <r>    8.6217    1.0000 </r>
       <r>    8.6217    1.0000 </r>
       <r>    8.6217    1.0000 </r>
       <r>    8.6217    1.0000 </r>
       <r>    8.6217    1.0000 </r>
       <r>    8.6217    1.0000 </r>
       <r>    8.6217    1.0000 </r>
       <r>    8.6217    1.0000 </r>
       <r>    8.6217    1.0000 </r>
       <r>    8.6218    1.0000 </r>
       <r>    8.6510    1.0000 </r>
       <r>    8.6510    1.0000 </r>
       <r>    8.6510    1.0000 </r>
       <r>    8.6510    1.0000 </r>
       <r>    8.6510    1.0000 </r>
       <r>    8.6510    1.0000 </r>
       <r>    8.6646    1.0000 </r>
       <r>    8.6646    1.0000 </r>
       <r>    8.6646    1.0000 </r>
       <r>    8.6646    1.0000 </r>
       <r>    8.6646    1.0000 </r>
       <r>    8.6646    1.0000 </r>
       <r>    8.9746    1.0000 </r>
       <r>    8.9746    1.0000 </r>
       <r>    8.9746    1.0000 </r>
       <r>    8.9746    1.0000 </r>
       <r>    8.9746    1.0000 </r>
       <r>    8.9746    1.0000 </r>
       <r>    8.9746    1.0000 </r>
       <r>    8.9746    1.0000 </r>
       <r>    9.0343    1.0000 </r>
       <r>    9.0343    1.0000 </r>
       <r>    9.0343    1.0000 </r>
       <r>    9.0343    1.0000 </r>
       <r>    9.0343    1.0000 </r>
       <r>    9.0343    1.0000 </r>
       <r>    9.0343    1.0000 </r>
       <r>    9.0343    1.0000 </r>
       <r>    9.0343    1.0000 </r>
       <r>    9.0344    1.0000 </r>
       <r>    9.0344    1.0000 </r>
       <r>    9.0344    1.0000 </r>
       <r>    9.0344    1.0000 </r>
       <r>    9.0344    1.0000 </r>
       <r>    9.0344    1.0000 </r>
       <r>    9.0344    1.0000 </r>
       <r>    9.2088    1.0002 </r>
       <r>    9.2088    1.0002 </r>
       <r>    9.2088    1.0002 </r>
       <r>    9.2088    1.0002 </r>
       <r>    9.2088    1.0002 </r>
       <r>    9.2088    1.0002 </r>
       <r>    9.3124    1.0021 </r>
       <r>    9.3125    1.0021 </r>
       <r>    9.3125    1.0021 </r>
       <r>    9.3125    1.0021 </r>
       <r>    9.3125    1.0021 </r>
       <r>    9.3125    1.0021 </r>
       <r>    9.3125    1.0021 </r>
       <r>    9.3125    1.0021 </r>
       <r>    9.3125    1.0021 </r>
       <r>    9.3125    1.0021 </r>
       <r>    9.3126    1.0021 </r>
       <r>    9.3126    1.0021 </r>
       <r>    9.3126    1.0021 </r>
       <r>    9.3126    1.0021 </r>
       <r>    9.3126    1.0021 </r>
       <r>    9.3126    1.0021 </r>
       <r>    9.3126    1.0021 </r>
       <r>    9.3126    1.0021 </r>
       <r>    9.3126    1.0021 </r>
       <r>    9.3126    1.0021 </r>
       <r>    9.3126    1.0021 </r>
       <r>    9.3126    1.0021 </r>
       <r>    9.3127    1.0021 </r>
       <r>    9.3127    1.0021 </r>
       <r>    9.3385    1.0035 </r>
       <r>    9.3385    1.0035 </r>
       <r>    9.3385    1.0035 </r>
       <r>    9.3385    1.0035 </r>
       <r>    9.3385    1.0035 </r>
       <r>    9.3385    1.0035 </r>
       <r>    9.3386    1.0035 </r>
       <r>    9.3386    1.0035 </r>
       <r>    9.3386    1.0035 </r>
       <r>    9.3386    1.0035 </r>
       <r>    9.3386    1.0035 </r>
       <r>    9.3386    1.0035 </r>
       <r>    9.3386    1.0035 </r>
       <r>    9.3386    1.0035 </r>
       <r>    9.3386    1.0035 </r>
       <r>    9.3386    1.0035 </r>
       <r>    9.3386    1.0035 </r>
       <r>    9.3386    1.0035 </r>
       <r>    9.3387    1.0035 </r>
       <r>    9.3387    1.0035 </r>
       <r>    9.3387    1.0035 </r>
       <r>    9.3387    1.0035 </r>
       <r>    9.3387    1.0035 </r>
       <r>    9.3388    1.0035 </r>
       <r>    9.3731    1.0065 </r>
       <r>    9.3731    1.0065 </r>
       <r>    9.3732    1.0065 </r>
       <r>    9.3732    1.0065 </r>
       <r>    9.3732    1.0065 </r>
       <r>    9.3732    1.0065 </r>
       <r>    9.3732    1.0065 </r>
       <r>    9.3732    1.0065 </r>
       <r>    9.3732    1.0065 </r>
       <r>    9.3732    1.0065 </r>
       <r>    9.3732    1.0065 </r>
       <r>    9.3732    1.0065 </r>
       <r>    9.4527    1.0202 </r>
       <r>    9.4527    1.0202 </r>
       <r>    9.4527    1.0202 </r>
       <r>    9.4527    1.0202 </r>
       <r>    9.4527    1.0202 </r>
       <r>    9.4527    1.0202 </r>
       <r>    9.4527    1.0202 </r>
       <r>    9.4527    1.0202 </r>
       <r>    9.4528    1.0202 </r>
       <r>    9.4528    1.0202 </r>
       <r>    9.4528    1.0202 </r>
       <r>    9.4528    1.0202 </r>
       <r>    9.4528    1.0202 </r>
       <r>    9.4528    1.0202 </r>
       <r>    9.4528    1.0202 </r>
       <r>    9.4528    1.0202 </r>
       <r>    9.4528    1.0202 </r>
       <r>    9.4528    1.0202 </r>
       <r>    9.4528    1.0202 </r>
       <r>    9.4528    1.0202 </r>
       <r>    9.4529    1.0202 </r>
       <r>    9.4529    1.0202 </r>
       <r>    9.4529    1.0202 </r>
       <r>    9.4529    1.0202 </r>
       <r>    9.7654    0.5843 </r>
       <r>    9.7654    0.5842 </r>
       <r>    9.7654    0.5842 </r>
       <r>    9.7654    0.5842 </r>
       <r>    9.7654    0.5841 </r>
       <r>    9.7654    0.5841 </r>
       <r>    9.7655    0.5841 </r>
       <r>    9.7655    0.5841 </r>
       <r>    9.7655    0.5841 </r>
       <r>    9.7655    0.5840 </r>
       <r>    9.7655    0.5840 </r>
       <r>    9.7655    0.5840 </r>
       <r>    9.8893    0.1194 </r>
       <r>    9.8894    0.1193 </r>
       <r>    9.8894    0.1193 </r>
       <r>    9.8894    0.1193 </r>
       <r>    9.8894    0.1192 </r>
       <r>    9.8894    0.1192 </r>
       <r>    9.8894    0.1192 </r>
       <r>    9.8894    0.1192 </r>
       <r>    9.8894    0.1191 </r>
       <r>    9.8895    0.1190 </r>
       <r>    9.8895    0.1190 </r>
       <r>    9.8895    0.1190 </r>
       <r>   10.1758   -0.0093 </r>
       <r>   10.1759   -0.0093 </r>
       <r>   10.1759   -0.0093 </r>
       <r>   10.1759   -0.0093 </r>
       <r>   10.1759   -0.0093 </r>
       <r>   10.1759   -0.0093 </r>
       <r>   10.1759   -0.0093 </r>
       <r>   10.1759   -0.0093 </r>
       <r>   10.1759   -0.0093 </r>
       <r>   10.1760   -0.0093 </r>
       <r>   10.1760   -0.0093 </r>
       <r>   10.1760   -0.0093 </r>
       <r>   10.2035   -0.0059 </r>
       <r>   10.2035   -0.0059 </r>
       <r>   10.2035   -0.0059 </r>
       <r>   10.5543   -0.0000 </r>
       <r>   10.5543   -0.0000 </r>
       <r>   10.5543   -0.0000 </r>
       <r>   10.5543   -0.0000 </r>
       <r>   10.5543   -0.0000 </r>
       <r>   10.5544   -0.0000 </r>
       <r>   10.5544   -0.0000 </r>
       <r>   10.5544   -0.0000 </r>
       <r>   10.5544   -0.0000 </r>
       <r>   10.5544   -0.0000 </r>
       <r>   10.5544   -0.0000 </r>
       <r>   10.5544   -0.0000 </r>
       <r>   10.6410   -0.0000 </r>
       <r>   10.6410   -0.0000 </r>
       <r>   10.6410   -0.0000 </r>
       <r>   10.6410   -0.0000 </r>
       <r>   10.6410   -0.0000 </r>
       <r>   10.6410   -0.0000 </r>
       <r>   10.6410   -0.0000 </r>
       <r>   10.6410   -0.0000 </r>
       <r>   10.6410   -0.0000 </r>
       <r>   10.6410   -0.0000 </r>
       <r>   10.6410   -0.0000 </r>
       <r>   10.6410   -0.0000 </r>
       <r>   10.6421   -0.0000 </r>
       <r>   10.6421   -0.0000 </r>
       <r>   10.6422   -0.0000 </r>
       <r>   10.6422   -0.0000 </r>
       <r>   10.6423   -0.0000 </r>
       <r>   10.6423   -0.0000 </r>
       <r>   11.2674   -0.0000 </r>
       <r>   11.2674   -0.0000 </r>
       <r>   11.2674   -0.0000 </r>
       <r>   11.2674   -0.0000 </r>
       <r>   11.2675   -0.0000 </r>
       <r>   11.2675   -0.0000 </r>
       <r>   11.3743   -0.0000 </r>
       <r>   11.3743   -0.0000 </r>
       <r>   11.3743   -0.0000 </r>
       <r>   11.3743   -0.0000 </r>
       <r>   11.3743   -0.0000 </r>
       <r>   11.3744   -0.0000 </r>
       <r>   11.3744   -0.0000 </r>
       <r>   11.3744   -0.0000 </r>
       <r>   11.3744   -0.0000 </r>
       <r>   11.3744   -0.0000 </r>
       <r>   11.3744   -0.0000 </r>
       <r>   11.3744   -0.0000 </r>
       <r>   11.4437   -0.0000 </r>
       <r>   11.4437   -0.0000 </r>
       <r>   11.4437   -0.0000 </r>
       <r>   11.4437   -0.0000 </r>
       <r>   11.4437   -0.0000 </r>
       <r>   11.4437   -0.0000 </r>
       <r>   11.6244   -0.0000 </r>
       <r>   11.6244   -0.0000 </r>
       <r>   11.6244   -0.0000 </r>
       <r>   11.6244   -0.0000 </r>
       <r>   11.6244   -0.0000 </r>
       <r>   11.6244   -0.0000 </r>
       <r>   11.6245   -0.0000 </r>
       <r>   11.6245   -0.0000 </r>
       <r>   11.6245   -0.0000 </r>
       <r>   11.6245   -0.0000 </r>
       <r>   11.6245   -0.0000 </r>
       <r>   11.6245   -0.0000 </r>
       <r>   11.6245   -0.0000 </r>
       <r>   11.6245   -0.0000 </r>
       <r>   11.6245   -0.0000 </r>
       <r>   11.6245   -0.0000 </r>
       <r>   11.6245   -0.0000 </r>
       <r>   11.6245   -0.0000 </r>
       <r>   11.6246   -0.0000 </r>
       <r>   11.6246   -0.0000 </r>
       <r>   11.6246   -0.0000 </r>
       <r>   11.6246   -0.0000 </r>
       <r>   11.6246   -0.0000 </r>
       <r>   11.6246   -0.0000 </r>
       <r>   11.7658   -0.0000 </r>
       <r>   11.7658   -0.0000 </r>
       <r>   11.7658   -0.0000 </r>
       <r>   11.7658   -0.0000 </r>
       <r>   11.7658   -0.0000 </r>
       <r>   11.7658   -0.0000 </r>
       <r>   11.8320   -0.0000 </r>
       <r>   11.8320   -0.0000 </r>
       <r>   11.8321   -0.0000 </r>
       <r>   11.8321   -0.0000 </r>
       <r>   11.8321   -0.0000 </r>
       <r>   11.8321   -0.0000 </r>
       <r>   11.8321   -0.0000 </r>
       <r>   11.8321   -0.0000 </r>
       <r>   11.8321   -0.0000 </r>
       <r>   11.8321   -0.0000 </r>
       <r>   11.8322   -0.0000 </r>
       <r>   11.8322   -0.0000 </r>
       <r>   11.8910   -0.0000 </r>
       <r>   11.8911   -0.0000 </r>
       <r>   11.8911   -0.0000 </r>
       <r>   11.8911   -0.0000 </r>
       <r>   11.8911   -0.0000 </r>
       <r>   11.8911   -0.0000 </r>
       <r>   11.8911   -0.0000 </r>
       <r>   11.8911   -0.0000 </r>
       <r>   11.8911   -0.0000 </r>
       <r>   11.8912   -0.0000 </r>
       <r>   11.8912   -0.0000 </r>
       <r>   11.8912   -0.0000 </r>
       <r>   12.0060   -0.0000 </r>
       <r>   12.0061   -0.0000 </r>
       <r>   12.0061   -0.0000 </r>
       <r>   12.0061   -0.0000 </r>
       <r>   12.0061   -0.0000 </r>
       <r>   12.0061   -0.0000 </r>
       <r>   12.0061   -0.0000 </r>
       <r>   12.0061   -0.0000 </r>
       <r>   12.0062   -0.0000 </r>
       <r>   12.0062   -0.0000 </r>
       <r>   12.0062   -0.0000 </r>
       <r>   12.0062   -0.0000 </r>
       <r>   12.0062   -0.0000 </r>
       <r>   12.0062   -0.0000 </r>
       <r>   12.0062   -0.0000 </r>
       <r>   12.0062   -0.0000 </r>
       <r>   12.0062   -0.0000 </r>
       <r>   12.0062   -0.0000 </r>
       <r>   12.0062   -0.0000 </r>
       <r>   12.0062   -0.0000 </r>
       <r>   12.0062   -0.0000 </r>
       <r>   12.0063   -0.0000 </r>
       <r>   12.0063   -0.0000 </r>
       <r>   12.0063   -0.0000 </r>
       <r>   12.1516   -0.0000 </r>
       <r>   12.1516   -0.0000 </r>
      </set>
      <set comment="kpoint 2">
       <r>  -53.8969    1.0000 </r>
       <r>  -53.8968    1.0000 </r>
       <r>  -53.8435    1.0000 </r>
       <r>  -53.8434    1.0000 </r>
       <r>  -53.8433    1.0000 </r>
       <r>  -53.8433    1.0000 </r>
       <r>  -53.8432    1.0000 </r>
       <r>  -53.8432    1.0000 </r>
       <r>  -53.8432    1.0000 </r>
       <r>  -53.8431    1.0000 </r>
       <r>  -53.8027    1.0000 </r>
       <r>  -53.8027    1.0000 </r>
       <r>  -53.8026    1.0000 </r>
       <r>  -53.8026    1.0000 </r>
       <r>  -53.8026    1.0000 </r>
       <r>  -53.8025    1.0000 </r>
       <r>  -53.8025    1.0000 </r>
       <r>  -53.8024    1.0000 </r>
       <r>  -53.7943    1.0000 </r>
       <r>  -53.7943    1.0000 </r>
       <r>  -53.7666    1.0000 </r>
       <r>  -53.7666    1.0000 </r>
       <r>  -53.7665    1.0000 </r>
       <r>  -53.7665    1.0000 </r>
       <r>  -53.7665    1.0000 </r>
       <r>  -53.7665    1.0000 </r>
       <r>  -53.7664    1.0000 </r>
       <r>  -53.7664    1.0000 </r>
       <r>  -53.7449    1.0000 </r>
       <r>  -53.7449    1.0000 </r>
       <r>  -53.7448    1.0000 </r>
       <r>  -53.7448    1.0000 </r>
       <r>  -53.7448    1.0000 </r>
       <r>  -53.7448    1.0000 </r>
       <r>  -53.7447    1.0000 </r>
       <r>  -53.7447    1.0000 </r>
       <r>  -53.7241    1.0000 </r>
       <r>  -53.7240    1.0000 </r>
       <r>  -53.7240    1.0000 </r>
       <r>  -53.7240    1.0000 </r>
       <r>  -53.7239    1.0000 </r>
       <r>  -53.7239    1.0000 </r>
       <r>  -53.7239    1.0000 </r>
       <r>  -53.7239    1.0000 </r>
       <r>  -53.7156    1.0000 </r>
       <r>  -53.7156    1.0000 </r>
       <r>  -53.7155    1.0000 </r>
       <r>  -53.7155    1.0000 </r>
       <r>  -53.7155    1.0000 </r>
       <r>  -53.7154    1.0000 </r>
       <r>  -53.7154    1.0000 </r>
       <r>  -53.7154    1.0000 </r>
       <r>  -53.7154    1.0000 </r>
       <r>  -53.7153    1.0000 </r>
       <r>  -53.7153    1.0000 </r>
       <r>  -53.7153    1.0000 </r>
       <r>  -53.7153    1.0000 </r>
       <r>  -53.7153    1.0000 </r>
       <r>  -53.7152    1.0000 </r>
       <r>  -53.7152    1.0000 </r>
       <r>  -53.7118    1.0000 </r>
       <r>  -53.7118    1.0000 </r>
       <r>  -53.7118    1.0000 </r>
       <r>  -53.7118    1.0000 </r>
       <r>  -53.7117    1.0000 </r>
       <r>  -53.7117    1.0000 </r>
       <r>  -53.7117    1.0000 </r>
       <r>  -53.7117    1.0000 </r>
       <r>  -53.7071    1.0000 </r>
       <r>  -53.7071    1.0000 </r>
       <r>  -53.7070    1.0000 </r>
       <r>  -53.7070    1.0000 </r>
       <r>  -53.7041    1.0000 </r>
       <r>  -53.7041    1.0000 </r>
       <r>  -53.7040    1.0000 </r>
       <r>  -53.7040    1.0000 </r>
       <r>  -53.7040    1.0000 </r>
       <r>  -53.7040    1.0000 </r>
       <r>  -53.7040    1.0000 </r>
       <r>  -53.7040    1.0000 </r>
       <r>  -53.7039    1.0000 </r>
       <r>  -53.7039    1.0000 </r>
       <r>  -53.7039    1.0000 </r>
       <r>  -53.7039    1.0000 </r>
       <r>  -53.7039    1.0000 </r>
       <r>  -53.7039    1.0000 </r>
       <r>  -53.7038    1.0000 </r>
       <r>  -53.7037    1.0000 </r>
       <r>  -53.6959    1.0000 </r>
       <r>  -53.6959    1.0000 </r>
       <r>  -53.6958    1.0000 </r>
       <r>  -53.6958    1.0000 </r>
       <r>  -53.6795    1.0000 </r>
       <r>  -53.6795    1.0000 </r>
       <r>  -53.6795    1.0000 </r>
       <r>  -53.6795    1.0000 </r>
       <r>  -53.6794    1.0000 </r>
       <r>  -53.6794    1.0000 </r>
       <r>  -53.6794    1.0000 </r>
       <r>  -53.6794    1.0000 </r>
       <r>  -53.6743    1.0000 </r>
       <r>  -53.6743    1.0000 </r>
       <r>  -53.6742    1.0000 </r>
       <r>  -53.6742    1.0000 </r>
       <r>  -53.6742    1.0000 </r>
       <r>  -53.6742    1.0000 </r>
       <r>  -53.6741    1.0000 </r>
       <r>  -53.6741    1.0000 </r>
       <r>  -53.6635    1.0000 </r>
       <r>  -53.6635    1.0000 </r>
       <r>  -53.6450    1.0000 </r>
       <r>  -53.6450    1.0000 </r>
       <r>  -53.6449    1.0000 </r>
       <r>  -53.6449    1.0000 </r>
       <r>  -53.6449    1.0000 </r>
       <r>  -53.6449    1.0000 </r>
       <r>  -53.6448    1.0000 </r>
       <r>  -53.6448    1.0000 </r>
       <r>  -53.6204    1.0000 </r>
       <r>  -53.6203    1.0000 </r>
       <r>  -53.6202    1.0000 </r>
       <r>  -53.6202    1.0000 </r>
       <r>  -53.6201    1.0000 </r>
       <r>  -53.6201    1.0000 </r>
       <r>  -53.6201    1.0000 </r>
       <r>  -53.6200    1.0000 </r>
       <r>  -53.5822    1.0000 </r>
       <r>  -53.5821    1.0000 </r>
       <r>  -28.0991    1.0000 </r>
       <r>  -28.0991    1.0000 </r>
       <r>  -28.0990    1.0000 </r>
       <r>  -28.0990    1.0000 </r>
       <r>  -28.0909    1.0000 </r>
       <r>  -28.0909    1.0000 </r>
       <r>  -28.0909    1.0000 </r>
       <r>  -28.0909    1.0000 </r>
       <r>  -28.0908    1.0000 </r>
       <r>  -28.0908    1.0000 </r>
       <r>  -28.0908    1.0000 </r>
       <r>  -28.0908    1.0000 </r>
       <r>  -28.0176    1.0000 </r>
       <r>  -28.0176    1.0000 </r>
       <r>  -28.0175    1.0000 </r>
       <r>  -28.0175    1.0000 </r>
       <r>  -28.0175    1.0000 </r>
       <r>  -28.0175    1.0000 </r>
       <r>  -28.0174    1.0000 </r>
       <r>  -28.0174    1.0000 </r>
       <r>  -27.9839    1.0000 </r>
       <r>  -27.9839    1.0000 </r>
       <r>  -27.9839    1.0000 </r>
       <r>  -27.9839    1.0000 </r>
       <r>  -27.9839    1.0000 </r>
       <r>  -27.9838    1.0000 </r>
       <r>  -27.9838    1.0000 </r>
       <r>  -27.9838    1.0000 </r>
       <r>  -27.9838    1.0000 </r>
       <r>  -27.9838    1.0000 </r>
       <r>  -27.9838    1.0000 </r>
       <r>  -27.9837    1.0000 </r>
       <r>  -27.9837    1.0000 </r>
       <r>  -27.9837    1.0000 </r>
       <r>  -27.9837    1.0000 </r>
       <r>  -27.9837    1.0000 </r>
       <r>  -27.9666    1.0000 </r>
       <r>  -27.9666    1.0000 </r>
       <r>  -27.9665    1.0000 </r>
       <r>  -27.9664    1.0000 </r>
       <r>  -27.9664    1.0000 </r>
       <r>  -27.9664    1.0000 </r>
       <r>  -27.9664    1.0000 </r>
       <r>  -27.9664    1.0000 </r>
       <r>  -27.9663    1.0000 </r>
       <r>  -27.9663    1.0000 </r>
       <r>  -27.9663    1.0000 </r>
       <r>  -27.9663    1.0000 </r>
       <r>  -27.9663    1.0000 </r>
       <r>  -27.9663    1.0000 </r>
       <r>  -27.9662    1.0000 </r>
       <r>  -27.9662    1.0000 </r>
       <r>  -27.9602    1.0000 </r>
       <r>  -27.9601    1.0000 </r>
       <r>  -27.9601    1.0000 </r>
       <r>  -27.9601    1.0000 </r>
       <r>  -27.9600    1.0000 </r>
       <r>  -27.9600    1.0000 </r>
       <r>  -27.9600    1.0000 </r>
       <r>  -27.9600    1.0000 </r>
       <r>  -27.9511    1.0000 </r>
       <r>  -27.9511    1.0000 </r>
       <r>  -27.9511    1.0000 </r>
       <r>  -27.9511    1.0000 </r>
       <r>  -27.9511    1.0000 </r>
       <r>  -27.9511    1.0000 </r>
       <r>  -27.9511    1.0000 </r>
       <r>  -27.9511    1.0000 </r>
       <r>  -27.9127    1.0000 </r>
       <r>  -27.9126    1.0000 </r>
       <r>  -27.9126    1.0000 </r>
       <r>  -27.9126    1.0000 </r>
       <r>  -27.9126    1.0000 </r>
       <r>  -27.9126    1.0000 </r>
       <r>  -27.9126    1.0000 </r>
       <r>  -27.9126    1.0000 </r>
       <r>  -27.9114    1.0000 </r>
       <r>  -27.9114    1.0000 </r>
       <r>  -27.9114    1.0000 </r>
       <r>  -27.9114    1.0000 </r>
       <r>  -27.9114    1.0000 </r>
       <r>  -27.9114    1.0000 </r>
       <r>  -27.9114    1.0000 </r>
       <r>  -27.9114    1.0000 </r>
       <r>  -27.8540    1.0000 </r>
       <r>  -27.8540    1.0000 </r>
       <r>  -27.8540    1.0000 </r>
       <r>  -27.8540    1.0000 </r>
       <r>  -27.8540    1.0000 </r>
       <r>  -27.8540    1.0000 </r>
       <r>  -27.8539    1.0000 </r>
       <r>  -27.8539    1.0000 </r>
       <r>  -27.8479    1.0000 </r>
       <r>  -27.8479    1.0000 </r>
       <r>  -27.8479    1.0000 </r>
       <r>  -27.8479    1.0000 </r>
       <r>  -27.8453    1.0000 </r>
       <r>  -27.8452    1.0000 </r>
       <r>  -27.8189    1.0000 </r>
       <r>  -27.8189    1.0000 </r>
       <r>  -27.8188    1.0000 </r>
       <r>  -27.8188    1.0000 </r>
       <r>  -27.8142    1.0000 </r>
       <r>  -27.8142    1.0000 </r>
       <r>  -27.8142    1.0000 </r>
       <r>  -27.8142    1.0000 </r>
       <r>  -27.8141    1.0000 </r>
       <r>  -27.8141    1.0000 </r>
       <r>  -27.8141    1.0000 </r>
       <r>  -27.8141    1.0000 </r>
       <r>  -27.7978    1.0000 </r>
       <r>  -27.7978    1.0000 </r>
       <r>  -27.7589    1.0000 </r>
       <r>  -27.7589    1.0000 </r>
       <r>  -27.7588    1.0000 </r>
       <r>  -27.7588    1.0000 </r>
       <r>  -27.7588    1.0000 </r>
       <r>  -27.7588    1.0000 </r>
       <r>  -27.7588    1.0000 </r>
       <r>  -27.7587    1.0000 </r>
       <r>  -27.7455    1.0000 </r>
       <r>  -27.7455    1.0000 </r>
       <r>  -27.7455    1.0000 </r>
       <r>  -27.7455    1.0000 </r>
       <r>  -27.7455    1.0000 </r>
       <r>  -27.7455    1.0000 </r>
       <r>  -27.7455    1.0000 </r>
       <r>  -27.7455    1.0000 </r>
       <r>  -27.7286    1.0000 </r>
       <r>  -27.7286    1.0000 </r>
       <r>  -27.7286    1.0000 </r>
       <r>  -27.7285    1.0000 </r>
       <r>  -27.7285    1.0000 </r>
       <r>  -27.7285    1.0000 </r>
       <r>  -27.7285    1.0000 </r>
       <r>  -27.7284    1.0000 </r>
       <r>  -27.7255    1.0000 </r>
       <r>  -27.7255    1.0000 </r>
       <r>  -27.7254    1.0000 </r>
       <r>  -27.7254    1.0000 </r>
       <r>  -27.7254    1.0000 </r>
       <r>  -27.7254    1.0000 </r>
       <r>  -27.7254    1.0000 </r>
       <r>  -27.7254    1.0000 </r>
       <r>  -27.6609    1.0000 </r>
       <r>  -27.6609    1.0000 </r>
       <r>  -27.6608    1.0000 </r>
       <r>  -27.6608    1.0000 </r>
       <r>  -27.6608    1.0000 </r>
       <r>  -27.6608    1.0000 </r>
       <r>  -27.6608    1.0000 </r>
       <r>  -27.6607    1.0000 </r>
       <r>  -27.6476    1.0000 </r>
       <r>  -27.6476    1.0000 </r>
       <r>  -27.6475    1.0000 </r>
       <r>  -27.6475    1.0000 </r>
       <r>  -27.6423    1.0000 </r>
       <r>  -27.6423    1.0000 </r>
       <r>  -27.6423    1.0000 </r>
       <r>  -27.6423    1.0000 </r>
       <r>  -27.6009    1.0000 </r>
       <r>  -27.6009    1.0000 </r>
       <r>  -27.6009    1.0000 </r>
       <r>  -27.6009    1.0000 </r>
       <r>  -27.6009    1.0000 </r>
       <r>  -27.6009    1.0000 </r>
       <r>  -27.6009    1.0000 </r>
       <r>  -27.6008    1.0000 </r>
       <r>  -27.6008    1.0000 </r>
       <r>  -27.6008    1.0000 </r>
       <r>  -27.6008    1.0000 </r>
       <r>  -27.6008    1.0000 </r>
       <r>  -27.6008    1.0000 </r>
       <r>  -27.6008    1.0000 </r>
       <r>  -27.6008    1.0000 </r>
       <r>  -27.6007    1.0000 </r>
       <r>  -27.5991    1.0000 </r>
       <r>  -27.5991    1.0000 </r>
       <r>  -27.5991    1.0000 </r>
       <r>  -27.5991    1.0000 </r>
       <r>  -27.5991    1.0000 </r>
       <r>  -27.5990    1.0000 </r>
       <r>  -27.5990    1.0000 </r>
       <r>  -27.5990    1.0000 </r>
       <r>  -27.5606    1.0000 </r>
       <r>  -27.5606    1.0000 </r>
       <r>  -27.5475    1.0000 </r>
       <r>  -27.5475    1.0000 </r>
       <r>  -27.5474    1.0000 </r>
       <r>  -27.5474    1.0000 </r>
       <r>  -27.5474    1.0000 </r>
       <r>  -27.5474    1.0000 </r>
       <r>  -27.5474    1.0000 </r>
       <r>  -27.5474    1.0000 </r>
       <r>  -27.5474    1.0000 </r>
       <r>  -27.5474    1.0000 </r>
       <r>  -27.5473    1.0000 </r>
       <r>  -27.5473    1.0000 </r>
       <r>  -27.5473    1.0000 </r>
       <r>  -27.5473    1.0000 </r>
       <r>  -27.5473    1.0000 </r>
       <r>  -27.5472    1.0000 </r>
       <r>  -27.5286    1.0000 </r>
       <r>  -27.5286    1.0000 </r>
       <r>  -27.5284    1.0000 </r>
       <r>  -27.5284    1.0000 </r>
       <r>  -27.5183    1.0000 </r>
       <r>  -27.5183    1.0000 </r>
       <r>  -27.5183    1.0000 </r>
       <r>  -27.5183    1.0000 </r>
       <r>  -27.5182    1.0000 </r>
       <r>  -27.5182    1.0000 </r>
       <r>  -27.5182    1.0000 </r>
       <r>  -27.5182    1.0000 </r>
       <r>  -27.5102    1.0000 </r>
       <r>  -27.5102    1.0000 </r>
       <r>  -27.5102    1.0000 </r>
       <r>  -27.5102    1.0000 </r>
       <r>  -27.5102    1.0000 </r>
       <r>  -27.5102    1.0000 </r>
       <r>  -27.5102    1.0000 </r>
       <r>  -27.5101    1.0000 </r>
       <r>  -27.5060    1.0000 </r>
       <r>  -27.5060    1.0000 </r>
       <r>  -27.5060    1.0000 </r>
       <r>  -27.5060    1.0000 </r>
       <r>  -27.5059    1.0000 </r>
       <r>  -27.5059    1.0000 </r>
       <r>  -27.5059    1.0000 </r>
       <r>  -27.5059    1.0000 </r>
       <r>  -27.4983    1.0000 </r>
       <r>  -27.4983    1.0000 </r>
       <r>  -27.4983    1.0000 </r>
       <r>  -27.4983    1.0000 </r>
       <r>  -27.4715    1.0000 </r>
       <r>  -27.4715    1.0000 </r>
       <r>  -27.4715    1.0000 </r>
       <r>  -27.4715    1.0000 </r>
       <r>  -27.4715    1.0000 </r>
       <r>  -27.4715    1.0000 </r>
       <r>  -27.4714    1.0000 </r>
       <r>  -27.4714    1.0000 </r>
       <r>  -27.4504    1.0000 </r>
       <r>  -27.4504    1.0000 </r>
       <r>  -27.4504    1.0000 </r>
       <r>  -27.4504    1.0000 </r>
       <r>  -27.4504    1.0000 </r>
       <r>  -27.4504    1.0000 </r>
       <r>  -27.4504    1.0000 </r>
       <r>  -27.4504    1.0000 </r>
       <r>  -27.4307    1.0000 </r>
       <r>  -27.4307    1.0000 </r>
       <r>  -27.4307    1.0000 </r>
       <r>  -27.4307    1.0000 </r>
       <r>  -27.4307    1.0000 </r>
       <r>  -27.4307    1.0000 </r>
       <r>  -27.4307    1.0000 </r>
       <r>  -27.4307    1.0000 </r>
       <r>  -27.4291    1.0000 </r>
       <r>  -27.4291    1.0000 </r>
       <r>  -27.4291    1.0000 </r>
       <r>  -27.4291    1.0000 </r>
       <r>  -27.4290    1.0000 </r>
       <r>  -27.4290    1.0000 </r>
       <r>  -27.4290    1.0000 </r>
       <r>  -27.4290    1.0000 </r>
       <r>  -27.4221    1.0000 </r>
       <r>  -27.4221    1.0000 </r>
       <r>  -27.4220    1.0000 </r>
       <r>  -27.4220    1.0000 </r>
       <r>  -27.4220    1.0000 </r>
       <r>  -27.4220    1.0000 </r>
       <r>  -27.4220    1.0000 </r>
       <r>  -27.4220    1.0000 </r>
       <r>  -27.4023    1.0000 </r>
       <r>  -27.4023    1.0000 </r>
       <r>  -27.4023    1.0000 </r>
       <r>  -27.4023    1.0000 </r>
       <r>  -27.3508    1.0000 </r>
       <r>  -27.3508    1.0000 </r>
       <r>  -27.3507    1.0000 </r>
       <r>  -27.3507    1.0000 </r>
       <r>  -27.3507    1.0000 </r>
       <r>  -27.3507    1.0000 </r>
       <r>  -27.3506    1.0000 </r>
       <r>  -27.3506    1.0000 </r>
       <r>  -27.3357    1.0000 </r>
       <r>  -27.3356    1.0000 </r>
       <r>  -27.3356    1.0000 </r>
       <r>  -27.3356    1.0000 </r>
       <r>  -27.3356    1.0000 </r>
       <r>  -27.3356    1.0000 </r>
       <r>  -27.3355    1.0000 </r>
       <r>  -27.3355    1.0000 </r>
       <r>  -27.3355    1.0000 </r>
       <r>  -27.3355    1.0000 </r>
       <r>  -27.3355    1.0000 </r>
       <r>  -27.3355    1.0000 </r>
       <r>  -27.3354    1.0000 </r>
       <r>  -27.3354    1.0000 </r>
       <r>  -27.3354    1.0000 </r>
       <r>  -27.3354    1.0000 </r>
       <r>  -27.3353    1.0000 </r>
       <r>  -27.3352    1.0000 </r>
       <r>  -27.3352    1.0000 </r>
       <r>  -27.3352    1.0000 </r>
       <r>  -27.3352    1.0000 </r>
       <r>  -27.3352    1.0000 </r>
       <r>  -27.3352    1.0000 </r>
       <r>  -27.3352    1.0000 </r>
       <r>  -27.3189    1.0000 </r>
       <r>  -27.3189    1.0000 </r>
       <r>  -27.3188    1.0000 </r>
       <r>  -27.3188    1.0000 </r>
       <r>  -27.3188    1.0000 </r>
       <r>  -27.3187    1.0000 </r>
       <r>  -27.3187    1.0000 </r>
       <r>  -27.3187    1.0000 </r>
       <r>  -27.3118    1.0000 </r>
       <r>  -27.3118    1.0000 </r>
       <r>  -27.3118    1.0000 </r>
       <r>  -27.3118    1.0000 </r>
       <r>  -27.3118    1.0000 </r>
       <r>  -27.3118    1.0000 </r>
       <r>  -27.3118    1.0000 </r>
       <r>  -27.3118    1.0000 </r>
       <r>  -27.3105    1.0000 </r>
       <r>  -27.3105    1.0000 </r>
       <r>  -27.3104    1.0000 </r>
       <r>  -27.3104    1.0000 </r>
       <r>  -27.3104    1.0000 </r>
       <r>  -27.3104    1.0000 </r>
       <r>  -27.3104    1.0000 </r>
       <r>  -27.3104    1.0000 </r>
       <r>  -27.3103    1.0000 </r>
       <r>  -27.3103    1.0000 </r>
       <r>  -27.3103    1.0000 </r>
       <r>  -27.3103    1.0000 </r>
       <r>  -27.3103    1.0000 </r>
       <r>  -27.3103    1.0000 </r>
       <r>  -27.3102    1.0000 </r>
       <r>  -27.3102    1.0000 </r>
       <r>  -27.2673    1.0000 </r>
       <r>  -27.2672    1.0000 </r>
       <r>  -27.2572    1.0000 </r>
       <r>  -27.2572    1.0000 </r>
       <r>  -27.2571    1.0000 </r>
       <r>  -27.2571    1.0000 </r>
       <r>  -27.2482    1.0000 </r>
       <r>  -27.2482    1.0000 </r>
       <r>  -27.2482    1.0000 </r>
       <r>  -27.2482    1.0000 </r>
       <r>  -27.2482    1.0000 </r>
       <r>  -27.2482    1.0000 </r>
       <r>  -27.2481    1.0000 </r>
       <r>  -27.2481    1.0000 </r>
       <r>  -27.2481    1.0000 </r>
       <r>  -27.2481    1.0000 </r>
       <r>  -27.2481    1.0000 </r>
       <r>  -27.2481    1.0000 </r>
       <r>  -27.2481    1.0000 </r>
       <r>  -27.2481    1.0000 </r>
       <r>  -27.2480    1.0000 </r>
       <r>  -27.2480    1.0000 </r>
       <r>  -27.2479    1.0000 </r>
       <r>  -27.2479    1.0000 </r>
       <r>  -27.2479    1.0000 </r>
       <r>  -27.2479    1.0000 </r>
       <r>  -27.2478    1.0000 </r>
       <r>  -27.2478    1.0000 </r>
       <r>  -27.2478    1.0000 </r>
       <r>  -27.2478    1.0000 </r>
       <r>  -27.2476    1.0000 </r>
       <r>  -27.2475    1.0000 </r>
       <r>  -27.2475    1.0000 </r>
       <r>  -27.2475    1.0000 </r>
       <r>  -27.2475    1.0000 </r>
       <r>  -27.2475    1.0000 </r>
       <r>  -27.2474    1.0000 </r>
       <r>  -27.2474    1.0000 </r>
       <r>  -27.2397    1.0000 </r>
       <r>  -27.2397    1.0000 </r>
       <r>  -27.2396    1.0000 </r>
       <r>  -27.2396    1.0000 </r>
       <r>    3.4934    1.0000 </r>
       <r>    3.4935    1.0000 </r>
       <r>    4.6412    1.0000 </r>
       <r>    4.6413    1.0000 </r>
       <r>    4.6413    1.0000 </r>
       <r>    4.6413    1.0000 </r>
       <r>    4.6414    1.0000 </r>
       <r>    4.6414    1.0000 </r>
       <r>    4.6414    1.0000 </r>
       <r>    4.6416    1.0000 </r>
       <r>    5.6051    1.0000 </r>
       <r>    5.6051    1.0000 </r>
       <r>    5.6052    1.0000 </r>
       <r>    5.6052    1.0000 </r>
       <r>    5.6052    1.0000 </r>
       <r>    5.6052    1.0000 </r>
       <r>    5.6053    1.0000 </r>
       <r>    5.6053    1.0000 </r>
       <r>    5.6424    1.0000 </r>
       <r>    5.6425    1.0000 </r>
       <r>    6.1942    1.0000 </r>
       <r>    6.1942    1.0000 </r>
       <r>    6.1943    1.0000 </r>
       <r>    6.1943    1.0000 </r>
       <r>    6.1943    1.0000 </r>
       <r>    6.1943    1.0000 </r>
       <r>    6.1944    1.0000 </r>
       <r>    6.1944    1.0000 </r>
       <r>    6.6994    1.0000 </r>
       <r>    6.6994    1.0000 </r>
       <r>    6.6994    1.0000 </r>
       <r>    6.6994    1.0000 </r>
       <r>    6.6995    1.0000 </r>
       <r>    6.6995    1.0000 </r>
       <r>    6.6995    1.0000 </r>
       <r>    6.6995    1.0000 </r>
       <r>    6.8537    1.0000 </r>
       <r>    6.8537    1.0000 </r>
       <r>    6.8538    1.0000 </r>
       <r>    6.8538    1.0000 </r>
       <r>    6.9328    1.0000 </r>
       <r>    6.9329    1.0000 </r>
       <r>    6.9387    1.0000 </r>
       <r>    6.9388    1.0000 </r>
       <r>    6.9546    1.0000 </r>
       <r>    6.9546    1.0000 </r>
       <r>    6.9546    1.0000 </r>
       <r>    6.9546    1.0000 </r>
       <r>    6.9547    1.0000 </r>
       <r>    6.9547    1.0000 </r>
       <r>    6.9547    1.0000 </r>
       <r>    6.9547    1.0000 </r>
       <r>    7.0908    1.0000 </r>
       <r>    7.0908    1.0000 </r>
       <r>    7.0908    1.0000 </r>
       <r>    7.0908    1.0000 </r>
       <r>    7.0909    1.0000 </r>
       <r>    7.0909    1.0000 </r>
       <r>    7.0909    1.0000 </r>
       <r>    7.0909    1.0000 </r>
       <r>    7.1588    1.0000 </r>
       <r>    7.1588    1.0000 </r>
       <r>    7.1589    1.0000 </r>
       <r>    7.1589    1.0000 </r>
       <r>    7.1589    1.0000 </r>
       <r>    7.1589    1.0000 </r>
       <r>    7.1589    1.0000 </r>
       <r>    7.1589    1.0000 </r>
       <r>    7.1590    1.0000 </r>
       <r>    7.1590    1.0000 </r>
       <r>    7.1590    1.0000 </r>
       <r>    7.1590    1.0000 </r>
       <r>    7.1590    1.0000 </r>
       <r>    7.1590    1.0000 </r>
       <r>    7.1591    1.0000 </r>
       <r>    7.1591    1.0000 </r>
       <r>    7.3767    1.0000 </r>
       <r>    7.3767    1.0000 </r>
       <r>    7.3767    1.0000 </r>
       <r>    7.3767    1.0000 </r>
       <r>    7.3767    1.0000 </r>
       <r>    7.3767    1.0000 </r>
       <r>    7.3768    1.0000 </r>
       <r>    7.3768    1.0000 </r>
       <r>    7.4323    1.0000 </r>
       <r>    7.4324    1.0000 </r>
       <r>    7.4324    1.0000 </r>
       <r>    7.4324    1.0000 </r>
       <r>    7.4325    1.0000 </r>
       <r>    7.4325    1.0000 </r>
       <r>    7.4325    1.0000 </r>
       <r>    7.4326    1.0000 </r>
       <r>    7.4754    1.0000 </r>
       <r>    7.4754    1.0000 </r>
       <r>    7.6058    1.0000 </r>
       <r>    7.6059    1.0000 </r>
       <r>    7.6059    1.0000 </r>
       <r>    7.6059    1.0000 </r>
       <r>    7.6060    1.0000 </r>
       <r>    7.6060    1.0000 </r>
       <r>    7.6060    1.0000 </r>
       <r>    7.6061    1.0000 </r>
       <r>    7.6174    1.0000 </r>
       <r>    7.6175    1.0000 </r>
       <r>    7.6175    1.0000 </r>
       <r>    7.6175    1.0000 </r>
       <r>    7.6175    1.0000 </r>
       <r>    7.6175    1.0000 </r>
       <r>    7.6175    1.0000 </r>
       <r>    7.6176    1.0000 </r>
       <r>    7.6176    1.0000 </r>
       <r>    7.6176    1.0000 </r>
       <r>    7.6176    1.0000 </r>
       <r>    7.6176    1.0000 </r>
       <r>    7.6176    1.0000 </r>
       <r>    7.6176    1.0000 </r>
       <r>    7.6177    1.0000 </r>
       <r>    7.6177    1.0000 </r>
       <r>    7.7623    1.0000 </r>
       <r>    7.7623    1.0000 </r>
       <r>    7.7624    1.0000 </r>
       <r>    7.7624    1.0000 </r>
       <r>    7.7624    1.0000 </r>
       <r>    7.7624    1.0000 </r>
       <r>    7.7625    1.0000 </r>
       <r>    7.7625    1.0000 </r>
       <r>    8.1115    1.0000 </r>
       <r>    8.1115    1.0000 </r>
       <r>    8.1116    1.0000 </r>
       <r>    8.1116    1.0000 </r>
       <r>    8.1116    1.0000 </r>
       <r>    8.1116    1.0000 </r>
       <r>    8.1116    1.0000 </r>
       <r>    8.1116    1.0000 </r>
       <r>    8.2162    1.0000 </r>
       <r>    8.2163    1.0000 </r>
       <r>    8.2300    1.0000 </r>
       <r>    8.2300    1.0000 </r>
       <r>    8.2301    1.0000 </r>
       <r>    8.2301    1.0000 </r>
       <r>    8.2301    1.0000 </r>
       <r>    8.2301    1.0000 </r>
       <r>    8.2302    1.0000 </r>
       <r>    8.2302    1.0000 </r>
       <r>    8.3098    1.0000 </r>
       <r>    8.3098    1.0000 </r>
       <r>    8.3099    1.0000 </r>
       <r>    8.3099    1.0000 </r>
       <r>    8.4745    1.0000 </r>
       <r>    8.4745    1.0000 </r>
       <r>    8.4745    1.0000 </r>
       <r>    8.4745    1.0000 </r>
       <r>    8.4890    1.0000 </r>
       <r>    8.4890    1.0000 </r>
       <r>    8.4890    1.0000 </r>
       <r>    8.4890    1.0000 </r>
       <r>    8.4890    1.0000 </r>
       <r>    8.4891    1.0000 </r>
       <r>    8.4891    1.0000 </r>
       <r>    8.4891    1.0000 </r>
       <r>    8.5831    1.0000 </r>
       <r>    8.5831    1.0000 </r>
       <r>    8.5831    1.0000 </r>
       <r>    8.5831    1.0000 </r>
       <r>    8.5831    1.0000 </r>
       <r>    8.5831    1.0000 </r>
       <r>    8.5832    1.0000 </r>
       <r>    8.5832    1.0000 </r>
       <r>    8.5832    1.0000 </r>
       <r>    8.5832    1.0000 </r>
       <r>    8.5832    1.0000 </r>
       <r>    8.5832    1.0000 </r>
       <r>    8.5832    1.0000 </r>
       <r>    8.5832    1.0000 </r>
       <r>    8.5833    1.0000 </r>
       <r>    8.5833    1.0000 </r>
       <r>    8.5961    1.0000 </r>
       <r>    8.5961    1.0000 </r>
       <r>    8.5962    1.0000 </r>
       <r>    8.5962    1.0000 </r>
       <r>    8.7950    1.0000 </r>
       <r>    8.7950    1.0000 </r>
       <r>    8.7950    1.0000 </r>
       <r>    8.7950    1.0000 </r>
       <r>    8.7951    1.0000 </r>
       <r>    8.7951    1.0000 </r>
       <r>    8.7951    1.0000 </r>
       <r>    8.7951    1.0000 </r>
       <r>    8.8296    1.0000 </r>
       <r>    8.8296    1.0000 </r>
       <r>    8.8296    1.0000 </r>
       <r>    8.8296    1.0000 </r>
       <r>    8.8297    1.0000 </r>
       <r>    8.8297    1.0000 </r>
       <r>    8.8297    1.0000 </r>
       <r>    8.8297    1.0000 </r>
       <r>    8.8768    1.0000 </r>
       <r>    8.8768    1.0000 </r>
       <r>    8.8768    1.0000 </r>
       <r>    8.8768    1.0000 </r>
       <r>    8.8768    1.0000 </r>
       <r>    8.8769    1.0000 </r>
       <r>    8.8769    1.0000 </r>
       <r>    8.8769    1.0000 </r>
       <r>    8.9323    1.0000 </r>
       <r>    8.9323    1.0000 </r>
       <r>    8.9324    1.0000 </r>
       <r>    8.9324    1.0000 </r>
       <r>    8.9324    1.0000 </r>
       <r>    8.9324    1.0000 </r>
       <r>    8.9324    1.0000 </r>
       <r>    8.9324    1.0000 </r>
       <r>    8.9324    1.0000 </r>
       <r>    8.9324    1.0000 </r>
       <r>    8.9324    1.0000 </r>
       <r>    8.9324    1.0000 </r>
       <r>    8.9325    1.0000 </r>
       <r>    8.9325    1.0000 </r>
       <r>    8.9325    1.0000 </r>
       <r>    8.9325    1.0000 </r>
       <r>    9.0105    1.0000 </r>
       <r>    9.0105    1.0000 </r>
       <r>    9.0105    1.0000 </r>
       <r>    9.0105    1.0000 </r>
       <r>    9.0106    1.0000 </r>
       <r>    9.0106    1.0000 </r>
       <r>    9.0106    1.0000 </r>
       <r>    9.0106    1.0000 </r>
       <r>    9.0935    1.0000 </r>
       <r>    9.0935    1.0000 </r>
       <r>    9.0935    1.0000 </r>
       <r>    9.0935    1.0000 </r>
       <r>    9.0936    1.0000 </r>
       <r>    9.0936    1.0000 </r>
       <r>    9.0936    1.0000 </r>
       <r>    9.0936    1.0000 </r>
       <r>    9.1349    1.0000 </r>
       <r>    9.1349    1.0000 </r>
       <r>    9.1349    1.0000 </r>
       <r>    9.1349    1.0000 </r>
       <r>    9.1641    1.0001 </r>
       <r>    9.1641    1.0001 </r>
       <r>    9.1641    1.0001 </r>
       <r>    9.1641    1.0001 </r>
       <r>    9.1641    1.0001 </r>
       <r>    9.1641    1.0001 </r>
       <r>    9.1641    1.0001 </r>
       <r>    9.1641    1.0001 </r>
       <r>    9.2035    1.0002 </r>
       <r>    9.2035    1.0002 </r>
       <r>    9.2036    1.0002 </r>
       <r>    9.2036    1.0002 </r>
       <r>    9.2036    1.0002 </r>
       <r>    9.2036    1.0002 </r>
       <r>    9.2036    1.0002 </r>
       <r>    9.2036    1.0002 </r>
       <r>    9.2704    1.0008 </r>
       <r>    9.2704    1.0008 </r>
       <r>    9.2705    1.0008 </r>
       <r>    9.2705    1.0008 </r>
       <r>    9.2705    1.0008 </r>
       <r>    9.2706    1.0008 </r>
       <r>    9.2706    1.0008 </r>
       <r>    9.2706    1.0008 </r>
       <r>    9.4541    1.0205 </r>
       <r>    9.4541    1.0205 </r>
       <r>    9.4542    1.0205 </r>
       <r>    9.4542    1.0205 </r>
       <r>    9.4542    1.0205 </r>
       <r>    9.4542    1.0205 </r>
       <r>    9.4542    1.0205 </r>
       <r>    9.4543    1.0205 </r>
       <r>    9.5307    1.0351 </r>
       <r>    9.5307    1.0351 </r>
       <r>    9.5307    1.0351 </r>
       <r>    9.5307    1.0351 </r>
       <r>    9.5307    1.0351 </r>
       <r>    9.5307    1.0351 </r>
       <r>    9.5308    1.0351 </r>
       <r>    9.5308    1.0351 </r>
       <r>    9.5308    1.0351 </r>
       <r>    9.5308    1.0351 </r>
       <r>    9.5308    1.0351 </r>
       <r>    9.5308    1.0351 </r>
       <r>    9.5308    1.0351 </r>
       <r>    9.5308    1.0351 </r>
       <r>    9.5309    1.0351 </r>
       <r>    9.5309    1.0351 </r>
       <r>    9.5386    1.0354 </r>
       <r>    9.5386    1.0354 </r>
       <r>    9.5386    1.0354 </r>
       <r>    9.5386    1.0354 </r>
       <r>    9.5387    1.0354 </r>
       <r>    9.5387    1.0354 </r>
       <r>    9.5387    1.0354 </r>
       <r>    9.5387    1.0354 </r>
       <r>    9.5387    1.0354 </r>
       <r>    9.5387    1.0354 </r>
       <r>    9.5387    1.0354 </r>
       <r>    9.5387    1.0354 </r>
       <r>    9.5387    1.0354 </r>
       <r>    9.5387    1.0354 </r>
       <r>    9.5387    1.0354 </r>
       <r>    9.5387    1.0354 </r>
       <r>    9.7011    0.8240 </r>
       <r>    9.7011    0.8240 </r>
       <r>    9.7012    0.8239 </r>
       <r>    9.7012    0.8239 </r>
       <r>    9.7012    0.8239 </r>
       <r>    9.7012    0.8239 </r>
       <r>    9.7012    0.8238 </r>
       <r>    9.7012    0.8238 </r>
       <r>    9.7773    0.5345 </r>
       <r>    9.7773    0.5343 </r>
       <r>    9.7773    0.5342 </r>
       <r>    9.7774    0.5342 </r>
       <r>    9.7774    0.5341 </r>
       <r>    9.7774    0.5340 </r>
       <r>    9.7774    0.5339 </r>
       <r>    9.7774    0.5338 </r>
       <r>    9.8001    0.4381 </r>
       <r>    9.8001    0.4381 </r>
       <r>    9.8001    0.4380 </r>
       <r>    9.8001    0.4380 </r>
       <r>    9.8002    0.4379 </r>
       <r>    9.8002    0.4379 </r>
       <r>    9.8002    0.4378 </r>
       <r>    9.8002    0.4378 </r>
       <r>    9.8373    0.2884 </r>
       <r>    9.8373    0.2884 </r>
       <r>    9.8373    0.2884 </r>
       <r>    9.8373    0.2884 </r>
       <r>    9.8374    0.2883 </r>
       <r>    9.8374    0.2882 </r>
       <r>    9.8374    0.2882 </r>
       <r>    9.8374    0.2882 </r>
       <r>    9.9820   -0.0232 </r>
       <r>    9.9820   -0.0232 </r>
       <r>    9.9820   -0.0232 </r>
       <r>    9.9820   -0.0233 </r>
       <r>    9.9820   -0.0233 </r>
       <r>    9.9821   -0.0233 </r>
       <r>    9.9821   -0.0233 </r>
       <r>    9.9821   -0.0233 </r>
       <r>   10.0800   -0.0288 </r>
       <r>   10.0800   -0.0288 </r>
       <r>   10.0800   -0.0288 </r>
       <r>   10.0800   -0.0288 </r>
       <r>   10.0800   -0.0288 </r>
       <r>   10.0800   -0.0288 </r>
       <r>   10.0801   -0.0288 </r>
       <r>   10.0801   -0.0288 </r>
       <r>   10.1841   -0.0082 </r>
       <r>   10.1841   -0.0082 </r>
       <r>   10.1842   -0.0082 </r>
       <r>   10.1842   -0.0082 </r>
       <r>   10.2838   -0.0012 </r>
       <r>   10.2838   -0.0012 </r>
       <r>   10.2927   -0.0010 </r>
       <r>   10.2927   -0.0010 </r>
       <r>   10.2927   -0.0010 </r>
       <r>   10.2927   -0.0010 </r>
       <r>   10.3162   -0.0006 </r>
       <r>   10.3163   -0.0006 </r>
       <r>   10.5287   -0.0000 </r>
       <r>   10.5287   -0.0000 </r>
       <r>   10.5287   -0.0000 </r>
       <r>   10.5287   -0.0000 </r>
       <r>   10.5288   -0.0000 </r>
       <r>   10.5288   -0.0000 </r>
       <r>   10.5288   -0.0000 </r>
       <r>   10.5288   -0.0000 </r>
       <r>   10.8326   -0.0000 </r>
       <r>   10.8326   -0.0000 </r>
       <r>   10.8327   -0.0000 </r>
       <r>   10.8327   -0.0000 </r>
       <r>   11.0123   -0.0000 </r>
       <r>   11.0123   -0.0000 </r>
       <r>   11.0124   -0.0000 </r>
       <r>   11.0124   -0.0000 </r>
       <r>   11.0124   -0.0000 </r>
       <r>   11.0124   -0.0000 </r>
       <r>   11.0124   -0.0000 </r>
       <r>   11.0124   -0.0000 </r>
       <r>   11.1330   -0.0000 </r>
       <r>   11.1330   -0.0000 </r>
       <r>   11.1330   -0.0000 </r>
       <r>   11.1330   -0.0000 </r>
       <r>   11.1330   -0.0000 </r>
       <r>   11.1330   -0.0000 </r>
       <r>   11.1330   -0.0000 </r>
       <r>   11.1331   -0.0000 </r>
       <r>   11.1457   -0.0000 </r>
       <r>   11.1457   -0.0000 </r>
       <r>   11.2724   -0.0000 </r>
       <r>   11.2724   -0.0000 </r>
       <r>   11.2724   -0.0000 </r>
       <r>   11.2724   -0.0000 </r>
       <r>   11.3519   -0.0000 </r>
       <r>   11.3519   -0.0000 </r>
       <r>   11.3519   -0.0000 </r>
       <r>   11.3519   -0.0000 </r>
       <r>   11.3519   -0.0000 </r>
       <r>   11.3519   -0.0000 </r>
       <r>   11.3519   -0.0000 </r>
       <r>   11.3519   -0.0000 </r>
       <r>   11.4839   -0.0000 </r>
       <r>   11.4840   -0.0000 </r>
       <r>   11.4840   -0.0000 </r>
       <r>   11.4840   -0.0000 </r>
       <r>   11.4840   -0.0000 </r>
       <r>   11.4840   -0.0000 </r>
       <r>   11.4840   -0.0000 </r>
       <r>   11.4841   -0.0000 </r>
       <r>   11.5450   -0.0000 </r>
       <r>   11.5451   -0.0000 </r>
       <r>   11.5451   -0.0000 </r>
       <r>   11.5451   -0.0000 </r>
       <r>   11.5451   -0.0000 </r>
       <r>   11.5451   -0.0000 </r>
       <r>   11.5452   -0.0000 </r>
       <r>   11.5452   -0.0000 </r>
       <r>   11.7050   -0.0000 </r>
       <r>   11.7050   -0.0000 </r>
       <r>   11.7050   -0.0000 </r>
       <r>   11.7050   -0.0000 </r>
       <r>   11.7051   -0.0000 </r>
       <r>   11.7051   -0.0000 </r>
       <r>   11.7051   -0.0000 </r>
       <r>   11.7051   -0.0000 </r>
       <r>   11.7051   -0.0000 </r>
       <r>   11.7051   -0.0000 </r>
       <r>   11.7051   -0.0000 </r>
       <r>   11.7051   -0.0000 </r>
       <r>   11.7051   -0.0000 </r>
       <r>   11.7052   -0.0000 </r>
       <r>   11.7052   -0.0000 </r>
       <r>   11.7052   -0.0000 </r>
       <r>   11.7765   -0.0000 </r>
       <r>   11.7765   -0.0000 </r>
       <r>   11.7765   -0.0000 </r>
       <r>   11.7765   -0.0000 </r>
       <r>   11.7765   -0.0000 </r>
       <r>   11.7765   -0.0000 </r>
       <r>   11.7766   -0.0000 </r>
       <r>   11.7766   -0.0000 </r>
       <r>   11.8325   -0.0000 </r>
       <r>   11.8325   -0.0000 </r>
       <r>   11.8325   -0.0000 </r>
       <r>   11.8326   -0.0000 </r>
       <r>   11.8326   -0.0000 </r>
       <r>   11.8326   -0.0000 </r>
       <r>   11.8326   -0.0000 </r>
       <r>   11.8327   -0.0000 </r>
       <r>   11.9638   -0.0000 </r>
       <r>   11.9639   -0.0000 </r>
       <r>   11.9724   -0.0000 </r>
       <r>   11.9724   -0.0000 </r>
       <r>   11.9724   -0.0000 </r>
       <r>   11.9725   -0.0000 </r>
       <r>   11.9725   -0.0000 </r>
       <r>   11.9725   -0.0000 </r>
       <r>   11.9725   -0.0000 </r>
       <r>   11.9726   -0.0000 </r>
       <r>   11.9907   -0.0000 </r>
       <r>   11.9907   -0.0000 </r>
       <r>   11.9907   -0.0000 </r>
       <r>   11.9908   -0.0000 </r>
       <r>   11.9908   -0.0000 </r>
       <r>   11.9908   -0.0000 </r>
       <r>   11.9908   -0.0000 </r>
       <r>   11.9908   -0.0000 </r>
       <r>   12.0691   -0.0000 </r>
       <r>   12.0691   -0.0000 </r>
       <r>   12.0692   -0.0000 </r>
       <r>   12.0693   -0.0000 </r>
       <r>   12.0693   -0.0000 </r>
       <r>   12.0697   -0.0000 </r>
       <r>   12.0702   -0.0000 </r>
       <r>   12.0708   -0.0000 </r>
       <r>   12.1012   -0.0000 </r>
       <r>   12.1013   -0.0000 </r>
       <r>   12.1015   -0.0000 </r>
       <r>   12.1018   -0.0000 </r>
       <r>   12.1025   -0.0000 </r>
       <r>   12.1051   -0.0000 </r>
       <r>   12.1082   -0.0000 </r>
       <r>   12.1175   -0.0000 </r>
      </set>
      <set comment="kpoint 3">
       <r>  -53.8832    1.0000 </r>
       <r>  -53.8830    1.0000 </r>
       <r>  -53.8828    1.0000 </r>
       <r>  -53.8827    1.0000 </r>
       <r>  -53.8328    1.0000 </r>
       <r>  -53.8327    1.0000 </r>
       <r>  -53.8327    1.0000 </r>
       <r>  -53.8325    1.0000 </r>
       <r>  -53.8324    1.0000 </r>
       <r>  -53.8323    1.0000 </r>
       <r>  -53.8323    1.0000 </r>
       <r>  -53.8322    1.0000 </r>
       <r>  -53.7870    1.0000 </r>
       <r>  -53.7870    1.0000 </r>
       <r>  -53.7868    1.0000 </r>
       <r>  -53.7868    1.0000 </r>
       <r>  -53.7867    1.0000 </r>
       <r>  -53.7867    1.0000 </r>
       <r>  -53.7866    1.0000 </r>
       <r>  -53.7866    1.0000 </r>
       <r>  -53.7609    1.0000 </r>
       <r>  -53.7609    1.0000 </r>
       <r>  -53.7608    1.0000 </r>
       <r>  -53.7608    1.0000 </r>
       <r>  -53.7608    1.0000 </r>
       <r>  -53.7608    1.0000 </r>
       <r>  -53.7607    1.0000 </r>
       <r>  -53.7607    1.0000 </r>
       <r>  -53.7607    1.0000 </r>
       <r>  -53.7607    1.0000 </r>
       <r>  -53.7606    1.0000 </r>
       <r>  -53.7606    1.0000 </r>
       <r>  -53.7606    1.0000 </r>
       <r>  -53.7606    1.0000 </r>
       <r>  -53.7605    1.0000 </r>
       <r>  -53.7605    1.0000 </r>
       <r>  -53.7393    1.0000 </r>
       <r>  -53.7393    1.0000 </r>
       <r>  -53.7392    1.0000 </r>
       <r>  -53.7392    1.0000 </r>
       <r>  -53.7238    1.0000 </r>
       <r>  -53.7238    1.0000 </r>
       <r>  -53.7238    1.0000 </r>
       <r>  -53.7237    1.0000 </r>
       <r>  -53.7237    1.0000 </r>
       <r>  -53.7237    1.0000 </r>
       <r>  -53.7237    1.0000 </r>
       <r>  -53.7236    1.0000 </r>
       <r>  -53.7219    1.0000 </r>
       <r>  -53.7219    1.0000 </r>
       <r>  -53.7218    1.0000 </r>
       <r>  -53.7218    1.0000 </r>
       <r>  -53.7216    1.0000 </r>
       <r>  -53.7216    1.0000 </r>
       <r>  -53.7215    1.0000 </r>
       <r>  -53.7215    1.0000 </r>
       <r>  -53.7097    1.0000 </r>
       <r>  -53.7097    1.0000 </r>
       <r>  -53.7097    1.0000 </r>
       <r>  -53.7097    1.0000 </r>
       <r>  -53.7096    1.0000 </r>
       <r>  -53.7096    1.0000 </r>
       <r>  -53.7096    1.0000 </r>
       <r>  -53.7095    1.0000 </r>
       <r>  -53.7094    1.0000 </r>
       <r>  -53.7093    1.0000 </r>
       <r>  -53.7093    1.0000 </r>
       <r>  -53.7093    1.0000 </r>
       <r>  -53.7093    1.0000 </r>
       <r>  -53.7092    1.0000 </r>
       <r>  -53.7092    1.0000 </r>
       <r>  -53.7092    1.0000 </r>
       <r>  -53.6985    1.0000 </r>
       <r>  -53.6985    1.0000 </r>
       <r>  -53.6984    1.0000 </r>
       <r>  -53.6983    1.0000 </r>
       <r>  -53.6981    1.0000 </r>
       <r>  -53.6981    1.0000 </r>
       <r>  -53.6980    1.0000 </r>
       <r>  -53.6980    1.0000 </r>
       <r>  -53.6895    1.0000 </r>
       <r>  -53.6895    1.0000 </r>
       <r>  -53.6895    1.0000 </r>
       <r>  -53.6895    1.0000 </r>
       <r>  -53.6886    1.0000 </r>
       <r>  -53.6885    1.0000 </r>
       <r>  -53.6885    1.0000 </r>
       <r>  -53.6885    1.0000 </r>
       <r>  -53.6884    1.0000 </r>
       <r>  -53.6884    1.0000 </r>
       <r>  -53.6884    1.0000 </r>
       <r>  -53.6884    1.0000 </r>
       <r>  -53.6756    1.0000 </r>
       <r>  -53.6756    1.0000 </r>
       <r>  -53.6755    1.0000 </r>
       <r>  -53.6755    1.0000 </r>
       <r>  -53.6755    1.0000 </r>
       <r>  -53.6755    1.0000 </r>
       <r>  -53.6754    1.0000 </r>
       <r>  -53.6754    1.0000 </r>
       <r>  -53.6754    1.0000 </r>
       <r>  -53.6754    1.0000 </r>
       <r>  -53.6753    1.0000 </r>
       <r>  -53.6753    1.0000 </r>
       <r>  -53.6753    1.0000 </r>
       <r>  -53.6753    1.0000 </r>
       <r>  -53.6752    1.0000 </r>
       <r>  -53.6752    1.0000 </r>
       <r>  -53.6661    1.0000 </r>
       <r>  -53.6661    1.0000 </r>
       <r>  -53.6660    1.0000 </r>
       <r>  -53.6660    1.0000 </r>
       <r>  -53.6659    1.0000 </r>
       <r>  -53.6659    1.0000 </r>
       <r>  -53.6657    1.0000 </r>
       <r>  -53.6657    1.0000 </r>
       <r>  -53.6264    1.0000 </r>
       <r>  -53.6263    1.0000 </r>
       <r>  -53.6263    1.0000 </r>
       <r>  -53.6262    1.0000 </r>
       <r>  -53.6261    1.0000 </r>
       <r>  -53.6260    1.0000 </r>
       <r>  -53.6260    1.0000 </r>
       <r>  -53.6259    1.0000 </r>
       <r>  -53.5921    1.0000 </r>
       <r>  -53.5920    1.0000 </r>
       <r>  -53.5918    1.0000 </r>
       <r>  -53.5917    1.0000 </r>
       <r>  -28.0928    1.0000 </r>
       <r>  -28.0928    1.0000 </r>
       <r>  -28.0928    1.0000 </r>
       <r>  -28.0928    1.0000 </r>
       <r>  -28.0621    1.0000 </r>
       <r>  -28.0621    1.0000 </r>
       <r>  -28.0621    1.0000 </r>
       <r>  -28.0621    1.0000 </r>
       <r>  -28.0620    1.0000 </r>
       <r>  -28.0620    1.0000 </r>
       <r>  -28.0620    1.0000 </r>
       <r>  -28.0620    1.0000 </r>
       <r>  -28.0618    1.0000 </r>
       <r>  -28.0618    1.0000 </r>
       <r>  -28.0618    1.0000 </r>
       <r>  -28.0617    1.0000 </r>
       <r>  -28.0617    1.0000 </r>
       <r>  -28.0617    1.0000 </r>
       <r>  -28.0617    1.0000 </r>
       <r>  -28.0616    1.0000 </r>
       <r>  -28.0051    1.0000 </r>
       <r>  -28.0050    1.0000 </r>
       <r>  -28.0050    1.0000 </r>
       <r>  -28.0050    1.0000 </r>
       <r>  -27.9952    1.0000 </r>
       <r>  -27.9952    1.0000 </r>
       <r>  -27.9951    1.0000 </r>
       <r>  -27.9951    1.0000 </r>
       <r>  -27.9951    1.0000 </r>
       <r>  -27.9950    1.0000 </r>
       <r>  -27.9950    1.0000 </r>
       <r>  -27.9950    1.0000 </r>
       <r>  -27.9949    1.0000 </r>
       <r>  -27.9949    1.0000 </r>
       <r>  -27.9949    1.0000 </r>
       <r>  -27.9949    1.0000 </r>
       <r>  -27.9948    1.0000 </r>
       <r>  -27.9948    1.0000 </r>
       <r>  -27.9948    1.0000 </r>
       <r>  -27.9948    1.0000 </r>
       <r>  -27.9621    1.0000 </r>
       <r>  -27.9621    1.0000 </r>
       <r>  -27.9620    1.0000 </r>
       <r>  -27.9620    1.0000 </r>
       <r>  -27.9619    1.0000 </r>
       <r>  -27.9619    1.0000 </r>
       <r>  -27.9618    1.0000 </r>
       <r>  -27.9618    1.0000 </r>
       <r>  -27.9617    1.0000 </r>
       <r>  -27.9617    1.0000 </r>
       <r>  -27.9616    1.0000 </r>
       <r>  -27.9616    1.0000 </r>
       <r>  -27.9616    1.0000 </r>
       <r>  -27.9616    1.0000 </r>
       <r>  -27.9615    1.0000 </r>
       <r>  -27.9615    1.0000 </r>
       <r>  -27.9145    1.0000 </r>
       <r>  -27.9145    1.0000 </r>
       <r>  -27.9145    1.0000 </r>
       <r>  -27.9144    1.0000 </r>
       <r>  -27.9143    1.0000 </r>
       <r>  -27.9143    1.0000 </r>
       <r>  -27.9142    1.0000 </r>
       <r>  -27.9142    1.0000 </r>
       <r>  -27.8938    1.0000 </r>
       <r>  -27.8938    1.0000 </r>
       <r>  -27.8938    1.0000 </r>
       <r>  -27.8938    1.0000 </r>
       <r>  -27.8938    1.0000 </r>
       <r>  -27.8937    1.0000 </r>
       <r>  -27.8937    1.0000 </r>
       <r>  -27.8937    1.0000 </r>
       <r>  -27.8900    1.0000 </r>
       <r>  -27.8900    1.0000 </r>
       <r>  -27.8900    1.0000 </r>
       <r>  -27.8900    1.0000 </r>
       <r>  -27.8898    1.0000 </r>
       <r>  -27.8898    1.0000 </r>
       <r>  -27.8898    1.0000 </r>
       <r>  -27.8898    1.0000 </r>
       <r>  -27.8873    1.0000 </r>
       <r>  -27.8872    1.0000 </r>
       <r>  -27.8872    1.0000 </r>
       <r>  -27.8872    1.0000 </r>
       <r>  -27.8690    1.0000 </r>
       <r>  -27.8690    1.0000 </r>
       <r>  -27.8689    1.0000 </r>
       <r>  -27.8689    1.0000 </r>
       <r>  -27.8689    1.0000 </r>
       <r>  -27.8689    1.0000 </r>
       <r>  -27.8688    1.0000 </r>
       <r>  -27.8688    1.0000 </r>
       <r>  -27.8688    1.0000 </r>
       <r>  -27.8688    1.0000 </r>
       <r>  -27.8687    1.0000 </r>
       <r>  -27.8687    1.0000 </r>
       <r>  -27.8687    1.0000 </r>
       <r>  -27.8687    1.0000 </r>
       <r>  -27.8686    1.0000 </r>
       <r>  -27.8686    1.0000 </r>
       <r>  -27.8612    1.0000 </r>
       <r>  -27.8612    1.0000 </r>
       <r>  -27.8611    1.0000 </r>
       <r>  -27.8611    1.0000 </r>
       <r>  -27.8609    1.0000 </r>
       <r>  -27.8609    1.0000 </r>
       <r>  -27.8609    1.0000 </r>
       <r>  -27.8608    1.0000 </r>
       <r>  -27.7955    1.0000 </r>
       <r>  -27.7954    1.0000 </r>
       <r>  -27.7951    1.0000 </r>
       <r>  -27.7950    1.0000 </r>
       <r>  -27.7844    1.0000 </r>
       <r>  -27.7844    1.0000 </r>
       <r>  -27.7844    1.0000 </r>
       <r>  -27.7843    1.0000 </r>
       <r>  -27.7843    1.0000 </r>
       <r>  -27.7843    1.0000 </r>
       <r>  -27.7843    1.0000 </r>
       <r>  -27.7842    1.0000 </r>
       <r>  -27.7560    1.0000 </r>
       <r>  -27.7559    1.0000 </r>
       <r>  -27.7559    1.0000 </r>
       <r>  -27.7559    1.0000 </r>
       <r>  -27.7128    1.0000 </r>
       <r>  -27.7128    1.0000 </r>
       <r>  -27.7127    1.0000 </r>
       <r>  -27.7127    1.0000 </r>
       <r>  -27.7127    1.0000 </r>
       <r>  -27.7127    1.0000 </r>
       <r>  -27.7127    1.0000 </r>
       <r>  -27.7127    1.0000 </r>
       <r>  -27.6772    1.0000 </r>
       <r>  -27.6772    1.0000 </r>
       <r>  -27.6771    1.0000 </r>
       <r>  -27.6771    1.0000 </r>
       <r>  -27.6771    1.0000 </r>
       <r>  -27.6771    1.0000 </r>
       <r>  -27.6770    1.0000 </r>
       <r>  -27.6770    1.0000 </r>
       <r>  -27.6636    1.0000 </r>
       <r>  -27.6636    1.0000 </r>
       <r>  -27.6635    1.0000 </r>
       <r>  -27.6635    1.0000 </r>
       <r>  -27.6635    1.0000 </r>
       <r>  -27.6635    1.0000 </r>
       <r>  -27.6635    1.0000 </r>
       <r>  -27.6635    1.0000 </r>
       <r>  -27.6635    1.0000 </r>
       <r>  -27.6635    1.0000 </r>
       <r>  -27.6634    1.0000 </r>
       <r>  -27.6634    1.0000 </r>
       <r>  -27.6634    1.0000 </r>
       <r>  -27.6634    1.0000 </r>
       <r>  -27.6633    1.0000 </r>
       <r>  -27.6633    1.0000 </r>
       <r>  -27.6500    1.0000 </r>
       <r>  -27.6500    1.0000 </r>
       <r>  -27.6500    1.0000 </r>
       <r>  -27.6500    1.0000 </r>
       <r>  -27.6500    1.0000 </r>
       <r>  -27.6500    1.0000 </r>
       <r>  -27.6500    1.0000 </r>
       <r>  -27.6500    1.0000 </r>
       <r>  -27.6309    1.0000 </r>
       <r>  -27.6309    1.0000 </r>
       <r>  -27.6308    1.0000 </r>
       <r>  -27.6307    1.0000 </r>
       <r>  -27.6306    1.0000 </r>
       <r>  -27.6306    1.0000 </r>
       <r>  -27.6305    1.0000 </r>
       <r>  -27.6305    1.0000 </r>
       <r>  -27.5818    1.0000 </r>
       <r>  -27.5818    1.0000 </r>
       <r>  -27.5818    1.0000 </r>
       <r>  -27.5818    1.0000 </r>
       <r>  -27.5816    1.0000 </r>
       <r>  -27.5816    1.0000 </r>
       <r>  -27.5816    1.0000 </r>
       <r>  -27.5816    1.0000 </r>
       <r>  -27.5763    1.0000 </r>
       <r>  -27.5763    1.0000 </r>
       <r>  -27.5763    1.0000 </r>
       <r>  -27.5763    1.0000 </r>
       <r>  -27.5762    1.0000 </r>
       <r>  -27.5762    1.0000 </r>
       <r>  -27.5762    1.0000 </r>
       <r>  -27.5761    1.0000 </r>
       <r>  -27.5547    1.0000 </r>
       <r>  -27.5547    1.0000 </r>
       <r>  -27.5546    1.0000 </r>
       <r>  -27.5546    1.0000 </r>
       <r>  -27.5486    1.0000 </r>
       <r>  -27.5486    1.0000 </r>
       <r>  -27.5485    1.0000 </r>
       <r>  -27.5485    1.0000 </r>
       <r>  -27.5485    1.0000 </r>
       <r>  -27.5485    1.0000 </r>
       <r>  -27.5485    1.0000 </r>
       <r>  -27.5485    1.0000 </r>
       <r>  -27.5432    1.0000 </r>
       <r>  -27.5432    1.0000 </r>
       <r>  -27.5432    1.0000 </r>
       <r>  -27.5432    1.0000 </r>
       <r>  -27.5432    1.0000 </r>
       <r>  -27.5432    1.0000 </r>
       <r>  -27.5432    1.0000 </r>
       <r>  -27.5432    1.0000 </r>
       <r>  -27.5354    1.0000 </r>
       <r>  -27.5354    1.0000 </r>
       <r>  -27.5354    1.0000 </r>
       <r>  -27.5354    1.0000 </r>
       <r>  -27.5353    1.0000 </r>
       <r>  -27.5353    1.0000 </r>
       <r>  -27.5353    1.0000 </r>
       <r>  -27.5353    1.0000 </r>
       <r>  -27.5351    1.0000 </r>
       <r>  -27.5351    1.0000 </r>
       <r>  -27.5350    1.0000 </r>
       <r>  -27.5350    1.0000 </r>
       <r>  -27.5350    1.0000 </r>
       <r>  -27.5350    1.0000 </r>
       <r>  -27.5350    1.0000 </r>
       <r>  -27.5350    1.0000 </r>
       <r>  -27.4955    1.0000 </r>
       <r>  -27.4955    1.0000 </r>
       <r>  -27.4955    1.0000 </r>
       <r>  -27.4955    1.0000 </r>
       <r>  -27.4954    1.0000 </r>
       <r>  -27.4954    1.0000 </r>
       <r>  -27.4954    1.0000 </r>
       <r>  -27.4954    1.0000 </r>
       <r>  -27.4624    1.0000 </r>
       <r>  -27.4623    1.0000 </r>
       <r>  -27.4623    1.0000 </r>
       <r>  -27.4623    1.0000 </r>
       <r>  -27.4368    1.0000 </r>
       <r>  -27.4368    1.0000 </r>
       <r>  -27.4367    1.0000 </r>
       <r>  -27.4367    1.0000 </r>
       <r>  -27.4367    1.0000 </r>
       <r>  -27.4367    1.0000 </r>
       <r>  -27.4366    1.0000 </r>
       <r>  -27.4366    1.0000 </r>
       <r>  -27.4366    1.0000 </r>
       <r>  -27.4366    1.0000 </r>
       <r>  -27.4365    1.0000 </r>
       <r>  -27.4365    1.0000 </r>
       <r>  -27.4365    1.0000 </r>
       <r>  -27.4365    1.0000 </r>
       <r>  -27.4364    1.0000 </r>
       <r>  -27.4364    1.0000 </r>
       <r>  -27.4325    1.0000 </r>
       <r>  -27.4325    1.0000 </r>
       <r>  -27.4325    1.0000 </r>
       <r>  -27.4325    1.0000 </r>
       <r>  -27.4324    1.0000 </r>
       <r>  -27.4324    1.0000 </r>
       <r>  -27.4323    1.0000 </r>
       <r>  -27.4323    1.0000 </r>
       <r>  -27.4092    1.0000 </r>
       <r>  -27.4092    1.0000 </r>
       <r>  -27.4090    1.0000 </r>
       <r>  -27.4090    1.0000 </r>
       <r>  -27.4089    1.0000 </r>
       <r>  -27.4089    1.0000 </r>
       <r>  -27.4088    1.0000 </r>
       <r>  -27.4088    1.0000 </r>
       <r>  -27.3810    1.0000 </r>
       <r>  -27.3810    1.0000 </r>
       <r>  -27.3810    1.0000 </r>
       <r>  -27.3810    1.0000 </r>
       <r>  -27.3809    1.0000 </r>
       <r>  -27.3809    1.0000 </r>
       <r>  -27.3809    1.0000 </r>
       <r>  -27.3809    1.0000 </r>
       <r>  -27.3809    1.0000 </r>
       <r>  -27.3809    1.0000 </r>
       <r>  -27.3808    1.0000 </r>
       <r>  -27.3808    1.0000 </r>
       <r>  -27.3808    1.0000 </r>
       <r>  -27.3808    1.0000 </r>
       <r>  -27.3808    1.0000 </r>
       <r>  -27.3807    1.0000 </r>
       <r>  -27.3773    1.0000 </r>
       <r>  -27.3773    1.0000 </r>
       <r>  -27.3773    1.0000 </r>
       <r>  -27.3773    1.0000 </r>
       <r>  -27.3772    1.0000 </r>
       <r>  -27.3772    1.0000 </r>
       <r>  -27.3772    1.0000 </r>
       <r>  -27.3771    1.0000 </r>
       <r>  -27.3571    1.0000 </r>
       <r>  -27.3571    1.0000 </r>
       <r>  -27.3570    1.0000 </r>
       <r>  -27.3570    1.0000 </r>
       <r>  -27.3458    1.0000 </r>
       <r>  -27.3458    1.0000 </r>
       <r>  -27.3458    1.0000 </r>
       <r>  -27.3457    1.0000 </r>
       <r>  -27.3457    1.0000 </r>
       <r>  -27.3457    1.0000 </r>
       <r>  -27.3457    1.0000 </r>
       <r>  -27.3456    1.0000 </r>
       <r>  -27.3244    1.0000 </r>
       <r>  -27.3244    1.0000 </r>
       <r>  -27.3243    1.0000 </r>
       <r>  -27.3243    1.0000 </r>
       <r>  -27.3243    1.0000 </r>
       <r>  -27.3243    1.0000 </r>
       <r>  -27.3243    1.0000 </r>
       <r>  -27.3243    1.0000 </r>
       <r>  -27.3226    1.0000 </r>
       <r>  -27.3226    1.0000 </r>
       <r>  -27.3226    1.0000 </r>
       <r>  -27.3226    1.0000 </r>
       <r>  -27.3225    1.0000 </r>
       <r>  -27.3225    1.0000 </r>
       <r>  -27.3225    1.0000 </r>
       <r>  -27.3225    1.0000 </r>
       <r>  -27.3176    1.0000 </r>
       <r>  -27.3176    1.0000 </r>
       <r>  -27.3176    1.0000 </r>
       <r>  -27.3176    1.0000 </r>
       <r>  -27.3113    1.0000 </r>
       <r>  -27.3112    1.0000 </r>
       <r>  -27.3112    1.0000 </r>
       <r>  -27.3112    1.0000 </r>
       <r>  -27.3112    1.0000 </r>
       <r>  -27.3111    1.0000 </r>
       <r>  -27.3111    1.0000 </r>
       <r>  -27.3111    1.0000 </r>
       <r>  -27.2701    1.0000 </r>
       <r>  -27.2701    1.0000 </r>
       <r>  -27.2701    1.0000 </r>
       <r>  -27.2701    1.0000 </r>
       <r>  -27.2700    1.0000 </r>
       <r>  -27.2700    1.0000 </r>
       <r>  -27.2700    1.0000 </r>
       <r>  -27.2700    1.0000 </r>
       <r>  -27.2698    1.0000 </r>
       <r>  -27.2697    1.0000 </r>
       <r>  -27.2697    1.0000 </r>
       <r>  -27.2697    1.0000 </r>
       <r>  -27.2697    1.0000 </r>
       <r>  -27.2697    1.0000 </r>
       <r>  -27.2696    1.0000 </r>
       <r>  -27.2696    1.0000 </r>
       <r>  -27.2654    1.0000 </r>
       <r>  -27.2654    1.0000 </r>
       <r>  -27.2654    1.0000 </r>
       <r>  -27.2654    1.0000 </r>
       <r>  -27.2653    1.0000 </r>
       <r>  -27.2653    1.0000 </r>
       <r>  -27.2653    1.0000 </r>
       <r>  -27.2653    1.0000 </r>
       <r>  -27.2652    1.0000 </r>
       <r>  -27.2652    1.0000 </r>
       <r>  -27.2652    1.0000 </r>
       <r>  -27.2651    1.0000 </r>
       <r>  -27.2651    1.0000 </r>
       <r>  -27.2651    1.0000 </r>
       <r>  -27.2650    1.0000 </r>
       <r>  -27.2650    1.0000 </r>
       <r>  -27.2604    1.0000 </r>
       <r>  -27.2603    1.0000 </r>
       <r>  -27.2601    1.0000 </r>
       <r>  -27.2600    1.0000 </r>
       <r>  -27.2505    1.0000 </r>
       <r>  -27.2505    1.0000 </r>
       <r>  -27.2505    1.0000 </r>
       <r>  -27.2505    1.0000 </r>
       <r>  -27.2504    1.0000 </r>
       <r>  -27.2504    1.0000 </r>
       <r>  -27.2503    1.0000 </r>
       <r>  -27.2503    1.0000 </r>
       <r>  -27.2226    1.0000 </r>
       <r>  -27.2226    1.0000 </r>
       <r>  -27.2226    1.0000 </r>
       <r>  -27.2226    1.0000 </r>
       <r>  -27.2181    1.0000 </r>
       <r>  -27.2181    1.0000 </r>
       <r>  -27.2181    1.0000 </r>
       <r>  -27.2180    1.0000 </r>
       <r>    3.7963    1.0000 </r>
       <r>    3.7964    1.0000 </r>
       <r>    3.7967    1.0000 </r>
       <r>    3.7968    1.0000 </r>
       <r>    4.9057    1.0000 </r>
       <r>    4.9058    1.0000 </r>
       <r>    4.9058    1.0000 </r>
       <r>    4.9060    1.0000 </r>
       <r>    4.9061    1.0000 </r>
       <r>    4.9062    1.0000 </r>
       <r>    4.9062    1.0000 </r>
       <r>    4.9063    1.0000 </r>
       <r>    5.8210    1.0000 </r>
       <r>    5.8210    1.0000 </r>
       <r>    5.8211    1.0000 </r>
       <r>    5.8211    1.0000 </r>
       <r>    5.8212    1.0000 </r>
       <r>    5.8212    1.0000 </r>
       <r>    5.8213    1.0000 </r>
       <r>    5.8213    1.0000 </r>
       <r>    6.4573    1.0000 </r>
       <r>    6.4573    1.0000 </r>
       <r>    6.4574    1.0000 </r>
       <r>    6.4574    1.0000 </r>
       <r>    6.4574    1.0000 </r>
       <r>    6.4575    1.0000 </r>
       <r>    6.4575    1.0000 </r>
       <r>    6.4576    1.0000 </r>
       <r>    6.4576    1.0000 </r>
       <r>    6.4576    1.0000 </r>
       <r>    6.4577    1.0000 </r>
       <r>    6.4577    1.0000 </r>
       <r>    6.4577    1.0000 </r>
       <r>    6.4577    1.0000 </r>
       <r>    6.4578    1.0000 </r>
       <r>    6.4578    1.0000 </r>
       <r>    6.4772    1.0000 </r>
       <r>    6.4772    1.0000 </r>
       <r>    6.4772    1.0000 </r>
       <r>    6.4772    1.0000 </r>
       <r>    6.9602    1.0000 </r>
       <r>    6.9602    1.0000 </r>
       <r>    6.9602    1.0000 </r>
       <r>    6.9603    1.0000 </r>
       <r>    6.9604    1.0000 </r>
       <r>    6.9604    1.0000 </r>
       <r>    6.9604    1.0000 </r>
       <r>    6.9604    1.0000 </r>
       <r>    6.9606    1.0000 </r>
       <r>    6.9606    1.0000 </r>
       <r>    6.9606    1.0000 </r>
       <r>    6.9606    1.0000 </r>
       <r>    6.9607    1.0000 </r>
       <r>    6.9607    1.0000 </r>
       <r>    6.9607    1.0000 </r>
       <r>    6.9607    1.0000 </r>
       <r>    7.0089    1.0000 </r>
       <r>    7.0090    1.0000 </r>
       <r>    7.0090    1.0000 </r>
       <r>    7.0090    1.0000 </r>
       <r>    7.0794    1.0000 </r>
       <r>    7.0795    1.0000 </r>
       <r>    7.0798    1.0000 </r>
       <r>    7.0799    1.0000 </r>
       <r>    7.0922    1.0000 </r>
       <r>    7.0922    1.0000 </r>
       <r>    7.0924    1.0000 </r>
       <r>    7.0924    1.0000 </r>
       <r>    7.0926    1.0000 </r>
       <r>    7.0926    1.0000 </r>
       <r>    7.0927    1.0000 </r>
       <r>    7.0927    1.0000 </r>
       <r>    7.1265    1.0000 </r>
       <r>    7.1267    1.0000 </r>
       <r>    7.1269    1.0000 </r>
       <r>    7.1270    1.0000 </r>
       <r>    7.5220    1.0000 </r>
       <r>    7.5220    1.0000 </r>
       <r>    7.5220    1.0000 </r>
       <r>    7.5221    1.0000 </r>
       <r>    7.5221    1.0000 </r>
       <r>    7.5222    1.0000 </r>
       <r>    7.5222    1.0000 </r>
       <r>    7.5222    1.0000 </r>
       <r>    7.5509    1.0000 </r>
       <r>    7.5509    1.0000 </r>
       <r>    7.5510    1.0000 </r>
       <r>    7.5510    1.0000 </r>
       <r>    7.5511    1.0000 </r>
       <r>    7.5511    1.0000 </r>
       <r>    7.5512    1.0000 </r>
       <r>    7.5512    1.0000 </r>
       <r>    7.6293    1.0000 </r>
       <r>    7.6293    1.0000 </r>
       <r>    7.6294    1.0000 </r>
       <r>    7.6294    1.0000 </r>
       <r>    7.6294    1.0000 </r>
       <r>    7.6294    1.0000 </r>
       <r>    7.6295    1.0000 </r>
       <r>    7.6295    1.0000 </r>
       <r>    7.6295    1.0000 </r>
       <r>    7.6295    1.0000 </r>
       <r>    7.6296    1.0000 </r>
       <r>    7.6296    1.0000 </r>
       <r>    7.6297    1.0000 </r>
       <r>    7.6297    1.0000 </r>
       <r>    7.6297    1.0000 </r>
       <r>    7.6297    1.0000 </r>
       <r>    7.6607    1.0000 </r>
       <r>    7.6608    1.0000 </r>
       <r>    7.6608    1.0000 </r>
       <r>    7.6609    1.0000 </r>
       <r>    7.6611    1.0000 </r>
       <r>    7.6612    1.0000 </r>
       <r>    7.6612    1.0000 </r>
       <r>    7.6613    1.0000 </r>
       <r>    7.6689    1.0000 </r>
       <r>    7.6690    1.0000 </r>
       <r>    7.6690    1.0000 </r>
       <r>    7.6692    1.0000 </r>
       <r>    7.6693    1.0000 </r>
       <r>    7.6694    1.0000 </r>
       <r>    7.6694    1.0000 </r>
       <r>    7.6695    1.0000 </r>
       <r>    7.8292    1.0000 </r>
       <r>    7.8292    1.0000 </r>
       <r>    7.8292    1.0000 </r>
       <r>    7.8292    1.0000 </r>
       <r>    7.8293    1.0000 </r>
       <r>    7.8293    1.0000 </r>
       <r>    7.8293    1.0000 </r>
       <r>    7.8293    1.0000 </r>
       <r>    8.1633    1.0000 </r>
       <r>    8.1633    1.0000 </r>
       <r>    8.1633    1.0000 </r>
       <r>    8.1633    1.0000 </r>
       <r>    8.1633    1.0000 </r>
       <r>    8.1633    1.0000 </r>
       <r>    8.1633    1.0000 </r>
       <r>    8.1633    1.0000 </r>
       <r>    8.2895    1.0000 </r>
       <r>    8.2895    1.0000 </r>
       <r>    8.2896    1.0000 </r>
       <r>    8.2897    1.0000 </r>
       <r>    8.2897    1.0000 </r>
       <r>    8.2898    1.0000 </r>
       <r>    8.2899    1.0000 </r>
       <r>    8.2899    1.0000 </r>
       <r>    8.6133    1.0000 </r>
       <r>    8.6133    1.0000 </r>
       <r>    8.6133    1.0000 </r>
       <r>    8.6133    1.0000 </r>
       <r>    8.6133    1.0000 </r>
       <r>    8.6133    1.0000 </r>
       <r>    8.6133    1.0000 </r>
       <r>    8.6133    1.0000 </r>
       <r>    8.6266    1.0000 </r>
       <r>    8.6267    1.0000 </r>
       <r>    8.6267    1.0000 </r>
       <r>    8.6267    1.0000 </r>
       <r>    8.6267    1.0000 </r>
       <r>    8.6267    1.0000 </r>
       <r>    8.6268    1.0000 </r>
       <r>    8.6268    1.0000 </r>
       <r>    8.6919    1.0000 </r>
       <r>    8.6919    1.0000 </r>
       <r>    8.6919    1.0000 </r>
       <r>    8.6919    1.0000 </r>
       <r>    8.6919    1.0000 </r>
       <r>    8.6919    1.0000 </r>
       <r>    8.6920    1.0000 </r>
       <r>    8.6920    1.0000 </r>
       <r>    8.7354    1.0000 </r>
       <r>    8.7354    1.0000 </r>
       <r>    8.7355    1.0000 </r>
       <r>    8.7355    1.0000 </r>
       <r>    8.7355    1.0000 </r>
       <r>    8.7355    1.0000 </r>
       <r>    8.7355    1.0000 </r>
       <r>    8.7356    1.0000 </r>
       <r>    8.7356    1.0000 </r>
       <r>    8.7356    1.0000 </r>
       <r>    8.7356    1.0000 </r>
       <r>    8.7357    1.0000 </r>
       <r>    8.7357    1.0000 </r>
       <r>    8.7357    1.0000 </r>
       <r>    8.7358    1.0000 </r>
       <r>    8.7358    1.0000 </r>
       <r>    8.7394    1.0000 </r>
       <r>    8.7394    1.0000 </r>
       <r>    8.7395    1.0000 </r>
       <r>    8.7395    1.0000 </r>
       <r>    8.7396    1.0000 </r>
       <r>    8.7396    1.0000 </r>
       <r>    8.7396    1.0000 </r>
       <r>    8.7396    1.0000 </r>
       <r>    8.7398    1.0000 </r>
       <r>    8.7398    1.0000 </r>
       <r>    8.7398    1.0000 </r>
       <r>    8.7398    1.0000 </r>
       <r>    8.7399    1.0000 </r>
       <r>    8.7399    1.0000 </r>
       <r>    8.7399    1.0000 </r>
       <r>    8.7399    1.0000 </r>
       <r>    8.8530    1.0000 </r>
       <r>    8.8531    1.0000 </r>
       <r>    8.8531    1.0000 </r>
       <r>    8.8531    1.0000 </r>
       <r>    8.8984    1.0000 </r>
       <r>    8.8984    1.0000 </r>
       <r>    8.8985    1.0000 </r>
       <r>    8.8985    1.0000 </r>
       <r>    8.8987    1.0000 </r>
       <r>    8.8987    1.0000 </r>
       <r>    8.8987    1.0000 </r>
       <r>    8.8988    1.0000 </r>
       <r>    9.0358    1.0000 </r>
       <r>    9.0358    1.0000 </r>
       <r>    9.0359    1.0000 </r>
       <r>    9.0359    1.0000 </r>
       <r>    9.0361    1.0000 </r>
       <r>    9.0361    1.0000 </r>
       <r>    9.0362    1.0000 </r>
       <r>    9.0362    1.0000 </r>
       <r>    9.0568    1.0000 </r>
       <r>    9.0568    1.0000 </r>
       <r>    9.0568    1.0000 </r>
       <r>    9.0569    1.0000 </r>
       <r>    9.0569    1.0000 </r>
       <r>    9.0569    1.0000 </r>
       <r>    9.0569    1.0000 </r>
       <r>    9.0569    1.0000 </r>
       <r>    9.0569    1.0000 </r>
       <r>    9.0570    1.0000 </r>
       <r>    9.0570    1.0000 </r>
       <r>    9.0570    1.0000 </r>
       <r>    9.0570    1.0000 </r>
       <r>    9.0570    1.0000 </r>
       <r>    9.0571    1.0000 </r>
       <r>    9.0571    1.0000 </r>
       <r>    9.1162    1.0000 </r>
       <r>    9.1162    1.0000 </r>
       <r>    9.1162    1.0000 </r>
       <r>    9.1162    1.0000 </r>
       <r>    9.1162    1.0000 </r>
       <r>    9.1163    1.0000 </r>
       <r>    9.1163    1.0000 </r>
       <r>    9.1163    1.0000 </r>
       <r>    9.1557    1.0000 </r>
       <r>    9.1557    1.0000 </r>
       <r>    9.1558    1.0000 </r>
       <r>    9.1558    1.0000 </r>
       <r>    9.3098    1.0020 </r>
       <r>    9.3098    1.0020 </r>
       <r>    9.3099    1.0020 </r>
       <r>    9.3099    1.0020 </r>
       <r>    9.3099    1.0020 </r>
       <r>    9.3099    1.0020 </r>
       <r>    9.3099    1.0020 </r>
       <r>    9.3099    1.0020 </r>
       <r>    9.4320    1.0157 </r>
       <r>    9.4320    1.0157 </r>
       <r>    9.4320    1.0157 </r>
       <r>    9.4320    1.0157 </r>
       <r>    9.4321    1.0157 </r>
       <r>    9.4321    1.0157 </r>
       <r>    9.4321    1.0157 </r>
       <r>    9.4321    1.0157 </r>
       <r>    9.4321    1.0158 </r>
       <r>    9.4321    1.0158 </r>
       <r>    9.4322    1.0158 </r>
       <r>    9.4322    1.0158 </r>
       <r>    9.4322    1.0158 </r>
       <r>    9.4322    1.0158 </r>
       <r>    9.4322    1.0158 </r>
       <r>    9.4322    1.0158 </r>
       <r>    9.5118    1.0329 </r>
       <r>    9.5118    1.0329 </r>
       <r>    9.5118    1.0329 </r>
       <r>    9.5118    1.0329 </r>
       <r>    9.5118    1.0329 </r>
       <r>    9.5118    1.0329 </r>
       <r>    9.5119    1.0329 </r>
       <r>    9.5119    1.0329 </r>
       <r>    9.5119    1.0329 </r>
       <r>    9.5119    1.0329 </r>
       <r>    9.5119    1.0329 </r>
       <r>    9.5119    1.0329 </r>
       <r>    9.5119    1.0329 </r>
       <r>    9.5119    1.0329 </r>
       <r>    9.5120    1.0329 </r>
       <r>    9.5120    1.0329 </r>
       <r>    9.6407    0.9680 </r>
       <r>    9.6407    0.9679 </r>
       <r>    9.6407    0.9679 </r>
       <r>    9.6407    0.9678 </r>
       <r>    9.6408    0.9677 </r>
       <r>    9.6408    0.9677 </r>
       <r>    9.6409    0.9676 </r>
       <r>    9.6409    0.9676 </r>
       <r>    9.6791    0.8869 </r>
       <r>    9.6791    0.8869 </r>
       <r>    9.6792    0.8868 </r>
       <r>    9.6792    0.8867 </r>
       <r>    9.6792    0.8867 </r>
       <r>    9.6792    0.8867 </r>
       <r>    9.6793    0.8866 </r>
       <r>    9.6793    0.8865 </r>
       <r>    9.7308    0.7221 </r>
       <r>    9.7308    0.7221 </r>
       <r>    9.7308    0.7220 </r>
       <r>    9.7308    0.7220 </r>
       <r>    9.7308    0.7219 </r>
       <r>    9.7308    0.7219 </r>
       <r>    9.7308    0.7219 </r>
       <r>    9.7308    0.7219 </r>
       <r>    9.7978    0.4477 </r>
       <r>    9.7979    0.4476 </r>
       <r>    9.7979    0.4474 </r>
       <r>    9.7979    0.4473 </r>
       <r>    9.7979    0.4472 </r>
       <r>    9.7980    0.4471 </r>
       <r>    9.7980    0.4469 </r>
       <r>    9.7980    0.4469 </r>
       <r>    9.8121    0.3882 </r>
       <r>    9.8121    0.3881 </r>
       <r>    9.8122    0.3881 </r>
       <r>    9.8122    0.3881 </r>
       <r>    9.9034    0.0846 </r>
       <r>    9.9034    0.0846 </r>
       <r>    9.9034    0.0845 </r>
       <r>    9.9035    0.0845 </r>
       <r>    9.9035    0.0844 </r>
       <r>    9.9035    0.0843 </r>
       <r>    9.9035    0.0843 </r>
       <r>    9.9036    0.0843 </r>
       <r>    9.9468    0.0083 </r>
       <r>    9.9468    0.0083 </r>
       <r>    9.9468    0.0082 </r>
       <r>    9.9468    0.0082 </r>
       <r>   10.1181   -0.0202 </r>
       <r>   10.1182   -0.0201 </r>
       <r>   10.1184   -0.0201 </r>
       <r>   10.1185   -0.0201 </r>
       <r>   10.2031   -0.0059 </r>
       <r>   10.2031   -0.0059 </r>
       <r>   10.2032   -0.0059 </r>
       <r>   10.2032   -0.0059 </r>
       <r>   10.2032   -0.0059 </r>
       <r>   10.2032   -0.0059 </r>
       <r>   10.2032   -0.0059 </r>
       <r>   10.2033   -0.0059 </r>
       <r>   10.2034   -0.0059 </r>
       <r>   10.2034   -0.0059 </r>
       <r>   10.2034   -0.0059 </r>
       <r>   10.2034   -0.0059 </r>
       <r>   10.2034   -0.0059 </r>
       <r>   10.2035   -0.0059 </r>
       <r>   10.2035   -0.0059 </r>
       <r>   10.2035   -0.0059 </r>
       <r>   10.3053   -0.0007 </r>
       <r>   10.3054   -0.0007 </r>
       <r>   10.3054   -0.0007 </r>
       <r>   10.3054   -0.0007 </r>
       <r>   10.6474   -0.0000 </r>
       <r>   10.6474   -0.0000 </r>
       <r>   10.6474   -0.0000 </r>
       <r>   10.6474   -0.0000 </r>
       <r>   10.6542   -0.0000 </r>
       <r>   10.6542   -0.0000 </r>
       <r>   10.6542   -0.0000 </r>
       <r>   10.6543   -0.0000 </r>
       <r>   10.6543   -0.0000 </r>
       <r>   10.6543   -0.0000 </r>
       <r>   10.6544   -0.0000 </r>
       <r>   10.6544   -0.0000 </r>
       <r>   10.6679   -0.0000 </r>
       <r>   10.6679   -0.0000 </r>
       <r>   10.6679   -0.0000 </r>
       <r>   10.6679   -0.0000 </r>
       <r>   10.6680   -0.0000 </r>
       <r>   10.6680   -0.0000 </r>
       <r>   10.6680   -0.0000 </r>
       <r>   10.6680   -0.0000 </r>
       <r>   11.0600   -0.0000 </r>
       <r>   11.0600   -0.0000 </r>
       <r>   11.0600   -0.0000 </r>
       <r>   11.0600   -0.0000 </r>
       <r>   11.0600   -0.0000 </r>
       <r>   11.0600   -0.0000 </r>
       <r>   11.0600   -0.0000 </r>
       <r>   11.0600   -0.0000 </r>
       <r>   11.1859   -0.0000 </r>
       <r>   11.1859   -0.0000 </r>
       <r>   11.1859   -0.0000 </r>
       <r>   11.1859   -0.0000 </r>
       <r>   11.1860   -0.0000 </r>
       <r>   11.1860   -0.0000 </r>
       <r>   11.1861   -0.0000 </r>
       <r>   11.1861   -0.0000 </r>
       <r>   11.2491   -0.0000 </r>
       <r>   11.2491   -0.0000 </r>
       <r>   11.2492   -0.0000 </r>
       <r>   11.2492   -0.0000 </r>
       <r>   11.2493   -0.0000 </r>
       <r>   11.2493   -0.0000 </r>
       <r>   11.2494   -0.0000 </r>
       <r>   11.2494   -0.0000 </r>
       <r>   11.5601   -0.0000 </r>
       <r>   11.5601   -0.0000 </r>
       <r>   11.5601   -0.0000 </r>
       <r>   11.5601   -0.0000 </r>
       <r>   11.5602   -0.0000 </r>
       <r>   11.5602   -0.0000 </r>
       <r>   11.5603   -0.0000 </r>
       <r>   11.5603   -0.0000 </r>
       <r>   11.6873   -0.0000 </r>
       <r>   11.6873   -0.0000 </r>
       <r>   11.6873   -0.0000 </r>
       <r>   11.6873   -0.0000 </r>
       <r>   11.6875   -0.0000 </r>
       <r>   11.6875   -0.0000 </r>
       <r>   11.6875   -0.0000 </r>
       <r>   11.6875   -0.0000 </r>
       <r>   11.6876   -0.0000 </r>
       <r>   11.6876   -0.0000 </r>
       <r>   11.6876   -0.0000 </r>
       <r>   11.6876   -0.0000 </r>
       <r>   11.6876   -0.0000 </r>
       <r>   11.6876   -0.0000 </r>
       <r>   11.6876   -0.0000 </r>
       <r>   11.6876   -0.0000 </r>
       <r>   11.6877   -0.0000 </r>
       <r>   11.6877   -0.0000 </r>
       <r>   11.6877   -0.0000 </r>
       <r>   11.6877   -0.0000 </r>
       <r>   11.7142   -0.0000 </r>
       <r>   11.7143   -0.0000 </r>
       <r>   11.7143   -0.0000 </r>
       <r>   11.7144   -0.0000 </r>
       <r>   11.7145   -0.0000 </r>
       <r>   11.7145   -0.0000 </r>
       <r>   11.7145   -0.0000 </r>
       <r>   11.7145   -0.0000 </r>
       <r>   11.7145   -0.0000 </r>
       <r>   11.7146   -0.0000 </r>
       <r>   11.7146   -0.0000 </r>
       <r>   11.7146   -0.0000 </r>
       <r>   11.7146   -0.0000 </r>
       <r>   11.7146   -0.0000 </r>
       <r>   11.7146   -0.0000 </r>
       <r>   11.7147   -0.0000 </r>
       <r>   11.8337   -0.0000 </r>
       <r>   11.8337   -0.0000 </r>
       <r>   11.8338   -0.0000 </r>
       <r>   11.8338   -0.0000 </r>
       <r>   11.8338   -0.0000 </r>
       <r>   11.8338   -0.0000 </r>
       <r>   11.8339   -0.0000 </r>
       <r>   11.8339   -0.0000 </r>
       <r>   11.8339   -0.0000 </r>
       <r>   11.8339   -0.0000 </r>
       <r>   11.8340   -0.0000 </r>
       <r>   11.8340   -0.0000 </r>
       <r>   11.8340   -0.0000 </r>
       <r>   11.8340   -0.0000 </r>
       <r>   11.8341   -0.0000 </r>
       <r>   11.8341   -0.0000 </r>
       <r>   11.9702   -0.0000 </r>
       <r>   11.9704   -0.0000 </r>
       <r>   11.9706   -0.0000 </r>
       <r>   11.9707   -0.0000 </r>
       <r>   12.1275   -0.0000 </r>
       <r>   12.1275   -0.0000 </r>
       <r>   12.1275   -0.0000 </r>
       <r>   12.1276   -0.0000 </r>
       <r>   12.1276   -0.0000 </r>
       <r>   12.1277   -0.0000 </r>
       <r>   12.1277   -0.0000 </r>
       <r>   12.1278   -0.0000 </r>
       <r>   12.1279   -0.0000 </r>
       <r>   12.1279   -0.0000 </r>
       <r>   12.1279   -0.0000 </r>
       <r>   12.1279   -0.0000 </r>
       <r>   12.1314   -0.0000 </r>
       <r>   12.1342   -0.0000 </r>
       <r>   12.1407   -0.0000 </r>
       <r>   12.1480   -0.0000 </r>
      </set>
      <set comment="kpoint 4">
       <r>  -53.8697    1.0000 </r>
       <r>  -53.8697    1.0000 </r>
       <r>  -53.8696    1.0000 </r>
       <r>  -53.8695    1.0000 </r>
       <r>  -53.8694    1.0000 </r>
       <r>  -53.8693    1.0000 </r>
       <r>  -53.8693    1.0000 </r>
       <r>  -53.8691    1.0000 </r>
       <r>  -53.7800    1.0000 </r>
       <r>  -53.7800    1.0000 </r>
       <r>  -53.7800    1.0000 </r>
       <r>  -53.7799    1.0000 </r>
       <r>  -53.7799    1.0000 </r>
       <r>  -53.7799    1.0000 </r>
       <r>  -53.7798    1.0000 </r>
       <r>  -53.7798    1.0000 </r>
       <r>  -53.7798    1.0000 </r>
       <r>  -53.7798    1.0000 </r>
       <r>  -53.7798    1.0000 </r>
       <r>  -53.7797    1.0000 </r>
       <r>  -53.7797    1.0000 </r>
       <r>  -53.7797    1.0000 </r>
       <r>  -53.7796    1.0000 </r>
       <r>  -53.7796    1.0000 </r>
       <r>  -53.7796    1.0000 </r>
       <r>  -53.7796    1.0000 </r>
       <r>  -53.7796    1.0000 </r>
       <r>  -53.7795    1.0000 </r>
       <r>  -53.7795    1.0000 </r>
       <r>  -53.7795    1.0000 </r>
       <r>  -53.7794    1.0000 </r>
       <r>  -53.7794    1.0000 </r>
       <r>  -53.7355    1.0000 </r>
       <r>  -53.7355    1.0000 </r>
       <r>  -53.7355    1.0000 </r>
       <r>  -53.7354    1.0000 </r>
       <r>  -53.7354    1.0000 </r>
       <r>  -53.7354    1.0000 </r>
       <r>  -53.7354    1.0000 </r>
       <r>  -53.7353    1.0000 </r>
       <r>  -53.7353    1.0000 </r>
       <r>  -53.7353    1.0000 </r>
       <r>  -53.7353    1.0000 </r>
       <r>  -53.7353    1.0000 </r>
       <r>  -53.7353    1.0000 </r>
       <r>  -53.7353    1.0000 </r>
       <r>  -53.7352    1.0000 </r>
       <r>  -53.7352    1.0000 </r>
       <r>  -53.7352    1.0000 </r>
       <r>  -53.7352    1.0000 </r>
       <r>  -53.7352    1.0000 </r>
       <r>  -53.7352    1.0000 </r>
       <r>  -53.7351    1.0000 </r>
       <r>  -53.7351    1.0000 </r>
       <r>  -53.7350    1.0000 </r>
       <r>  -53.7350    1.0000 </r>
       <r>  -53.7099    1.0000 </r>
       <r>  -53.7099    1.0000 </r>
       <r>  -53.7099    1.0000 </r>
       <r>  -53.7099    1.0000 </r>
       <r>  -53.7098    1.0000 </r>
       <r>  -53.7098    1.0000 </r>
       <r>  -53.7097    1.0000 </r>
       <r>  -53.7097    1.0000 </r>
       <r>  -53.6914    1.0000 </r>
       <r>  -53.6914    1.0000 </r>
       <r>  -53.6913    1.0000 </r>
       <r>  -53.6913    1.0000 </r>
       <r>  -53.6913    1.0000 </r>
       <r>  -53.6913    1.0000 </r>
       <r>  -53.6912    1.0000 </r>
       <r>  -53.6912    1.0000 </r>
       <r>  -53.6891    1.0000 </r>
       <r>  -53.6891    1.0000 </r>
       <r>  -53.6890    1.0000 </r>
       <r>  -53.6890    1.0000 </r>
       <r>  -53.6890    1.0000 </r>
       <r>  -53.6890    1.0000 </r>
       <r>  -53.6890    1.0000 </r>
       <r>  -53.6889    1.0000 </r>
       <r>  -53.6889    1.0000 </r>
       <r>  -53.6889    1.0000 </r>
       <r>  -53.6889    1.0000 </r>
       <r>  -53.6889    1.0000 </r>
       <r>  -53.6889    1.0000 </r>
       <r>  -53.6889    1.0000 </r>
       <r>  -53.6888    1.0000 </r>
       <r>  -53.6888    1.0000 </r>
       <r>  -53.6888    1.0000 </r>
       <r>  -53.6888    1.0000 </r>
       <r>  -53.6888    1.0000 </r>
       <r>  -53.6887    1.0000 </r>
       <r>  -53.6887    1.0000 </r>
       <r>  -53.6887    1.0000 </r>
       <r>  -53.6886    1.0000 </r>
       <r>  -53.6886    1.0000 </r>
       <r>  -53.6683    1.0000 </r>
       <r>  -53.6683    1.0000 </r>
       <r>  -53.6683    1.0000 </r>
       <r>  -53.6682    1.0000 </r>
       <r>  -53.6682    1.0000 </r>
       <r>  -53.6682    1.0000 </r>
       <r>  -53.6681    1.0000 </r>
       <r>  -53.6681    1.0000 </r>
       <r>  -53.6681    1.0000 </r>
       <r>  -53.6681    1.0000 </r>
       <r>  -53.6681    1.0000 </r>
       <r>  -53.6681    1.0000 </r>
       <r>  -53.6680    1.0000 </r>
       <r>  -53.6680    1.0000 </r>
       <r>  -53.6679    1.0000 </r>
       <r>  -53.6679    1.0000 </r>
       <r>  -53.6679    1.0000 </r>
       <r>  -53.6679    1.0000 </r>
       <r>  -53.6679    1.0000 </r>
       <r>  -53.6678    1.0000 </r>
       <r>  -53.6678    1.0000 </r>
       <r>  -53.6678    1.0000 </r>
       <r>  -53.6677    1.0000 </r>
       <r>  -53.6677    1.0000 </r>
       <r>  -53.6010    1.0000 </r>
       <r>  -53.6009    1.0000 </r>
       <r>  -53.6009    1.0000 </r>
       <r>  -53.6007    1.0000 </r>
       <r>  -53.6006    1.0000 </r>
       <r>  -53.6006    1.0000 </r>
       <r>  -53.6005    1.0000 </r>
       <r>  -53.6003    1.0000 </r>
       <r>  -28.0588    1.0000 </r>
       <r>  -28.0588    1.0000 </r>
       <r>  -28.0587    1.0000 </r>
       <r>  -28.0587    1.0000 </r>
       <r>  -28.0587    1.0000 </r>
       <r>  -28.0587    1.0000 </r>
       <r>  -28.0586    1.0000 </r>
       <r>  -28.0586    1.0000 </r>
       <r>  -28.0586    1.0000 </r>
       <r>  -28.0586    1.0000 </r>
       <r>  -28.0586    1.0000 </r>
       <r>  -28.0585    1.0000 </r>
       <r>  -28.0585    1.0000 </r>
       <r>  -28.0585    1.0000 </r>
       <r>  -28.0585    1.0000 </r>
       <r>  -28.0585    1.0000 </r>
       <r>  -28.0585    1.0000 </r>
       <r>  -28.0585    1.0000 </r>
       <r>  -28.0584    1.0000 </r>
       <r>  -28.0584    1.0000 </r>
       <r>  -28.0584    1.0000 </r>
       <r>  -28.0584    1.0000 </r>
       <r>  -28.0583    1.0000 </r>
       <r>  -28.0583    1.0000 </r>
       <r>  -27.9924    1.0000 </r>
       <r>  -27.9924    1.0000 </r>
       <r>  -27.9923    1.0000 </r>
       <r>  -27.9923    1.0000 </r>
       <r>  -27.9923    1.0000 </r>
       <r>  -27.9923    1.0000 </r>
       <r>  -27.9923    1.0000 </r>
       <r>  -27.9923    1.0000 </r>
       <r>  -27.9922    1.0000 </r>
       <r>  -27.9922    1.0000 </r>
       <r>  -27.9922    1.0000 </r>
       <r>  -27.9922    1.0000 </r>
       <r>  -27.9922    1.0000 </r>
       <r>  -27.9922    1.0000 </r>
       <r>  -27.9921    1.0000 </r>
       <r>  -27.9921    1.0000 </r>
       <r>  -27.9921    1.0000 </r>
       <r>  -27.9921    1.0000 </r>
       <r>  -27.9921    1.0000 </r>
       <r>  -27.9921    1.0000 </r>
       <r>  -27.9920    1.0000 </r>
       <r>  -27.9920    1.0000 </r>
       <r>  -27.9920    1.0000 </r>
       <r>  -27.9920    1.0000 </r>
       <r>  -27.9302    1.0000 </r>
       <r>  -27.9302    1.0000 </r>
       <r>  -27.9301    1.0000 </r>
       <r>  -27.9301    1.0000 </r>
       <r>  -27.9301    1.0000 </r>
       <r>  -27.9301    1.0000 </r>
       <r>  -27.9301    1.0000 </r>
       <r>  -27.9301    1.0000 </r>
       <r>  -27.9206    1.0000 </r>
       <r>  -27.9206    1.0000 </r>
       <r>  -27.9206    1.0000 </r>
       <r>  -27.9205    1.0000 </r>
       <r>  -27.9205    1.0000 </r>
       <r>  -27.9205    1.0000 </r>
       <r>  -27.9205    1.0000 </r>
       <r>  -27.9205    1.0000 </r>
       <r>  -27.9205    1.0000 </r>
       <r>  -27.9205    1.0000 </r>
       <r>  -27.9204    1.0000 </r>
       <r>  -27.9204    1.0000 </r>
       <r>  -27.9204    1.0000 </r>
       <r>  -27.9204    1.0000 </r>
       <r>  -27.9203    1.0000 </r>
       <r>  -27.9203    1.0000 </r>
       <r>  -27.9203    1.0000 </r>
       <r>  -27.9203    1.0000 </r>
       <r>  -27.9203    1.0000 </r>
       <r>  -27.9203    1.0000 </r>
       <r>  -27.9202    1.0000 </r>
       <r>  -27.9202    1.0000 </r>
       <r>  -27.9202    1.0000 </r>
       <r>  -27.9202    1.0000 </r>
       <r>  -27.8607    1.0000 </r>
       <r>  -27.8607    1.0000 </r>
       <r>  -27.8607    1.0000 </r>
       <r>  -27.8606    1.0000 </r>
       <r>  -27.8606    1.0000 </r>
       <r>  -27.8606    1.0000 </r>
       <r>  -27.8605    1.0000 </r>
       <r>  -27.8605    1.0000 </r>
       <r>  -27.8605    1.0000 </r>
       <r>  -27.8604    1.0000 </r>
       <r>  -27.8604    1.0000 </r>
       <r>  -27.8603    1.0000 </r>
       <r>  -27.8603    1.0000 </r>
       <r>  -27.8603    1.0000 </r>
       <r>  -27.8602    1.0000 </r>
       <r>  -27.8602    1.0000 </r>
       <r>  -27.8182    1.0000 </r>
       <r>  -27.8181    1.0000 </r>
       <r>  -27.8181    1.0000 </r>
       <r>  -27.8181    1.0000 </r>
       <r>  -27.8181    1.0000 </r>
       <r>  -27.8181    1.0000 </r>
       <r>  -27.8181    1.0000 </r>
       <r>  -27.8181    1.0000 </r>
       <r>  -27.8181    1.0000 </r>
       <r>  -27.8181    1.0000 </r>
       <r>  -27.8180    1.0000 </r>
       <r>  -27.8180    1.0000 </r>
       <r>  -27.8180    1.0000 </r>
       <r>  -27.8180    1.0000 </r>
       <r>  -27.8180    1.0000 </r>
       <r>  -27.8180    1.0000 </r>
       <r>  -27.7391    1.0000 </r>
       <r>  -27.7391    1.0000 </r>
       <r>  -27.7390    1.0000 </r>
       <r>  -27.7390    1.0000 </r>
       <r>  -27.7390    1.0000 </r>
       <r>  -27.7390    1.0000 </r>
       <r>  -27.7389    1.0000 </r>
       <r>  -27.7389    1.0000 </r>
       <r>  -27.7389    1.0000 </r>
       <r>  -27.7389    1.0000 </r>
       <r>  -27.7389    1.0000 </r>
       <r>  -27.7389    1.0000 </r>
       <r>  -27.7389    1.0000 </r>
       <r>  -27.7389    1.0000 </r>
       <r>  -27.7388    1.0000 </r>
       <r>  -27.7388    1.0000 </r>
       <r>  -27.7388    1.0000 </r>
       <r>  -27.7388    1.0000 </r>
       <r>  -27.7388    1.0000 </r>
       <r>  -27.7388    1.0000 </r>
       <r>  -27.7387    1.0000 </r>
       <r>  -27.7387    1.0000 </r>
       <r>  -27.7387    1.0000 </r>
       <r>  -27.7387    1.0000 </r>
       <r>  -27.6778    1.0000 </r>
       <r>  -27.6777    1.0000 </r>
       <r>  -27.6777    1.0000 </r>
       <r>  -27.6777    1.0000 </r>
       <r>  -27.6777    1.0000 </r>
       <r>  -27.6776    1.0000 </r>
       <r>  -27.6776    1.0000 </r>
       <r>  -27.6776    1.0000 </r>
       <r>  -27.6726    1.0000 </r>
       <r>  -27.6726    1.0000 </r>
       <r>  -27.6725    1.0000 </r>
       <r>  -27.6725    1.0000 </r>
       <r>  -27.6725    1.0000 </r>
       <r>  -27.6725    1.0000 </r>
       <r>  -27.6725    1.0000 </r>
       <r>  -27.6725    1.0000 </r>
       <r>  -27.6725    1.0000 </r>
       <r>  -27.6725    1.0000 </r>
       <r>  -27.6725    1.0000 </r>
       <r>  -27.6725    1.0000 </r>
       <r>  -27.6725    1.0000 </r>
       <r>  -27.6725    1.0000 </r>
       <r>  -27.6725    1.0000 </r>
       <r>  -27.6725    1.0000 </r>
       <r>  -27.6724    1.0000 </r>
       <r>  -27.6724    1.0000 </r>
       <r>  -27.6724    1.0000 </r>
       <r>  -27.6724    1.0000 </r>
       <r>  -27.6724    1.0000 </r>
       <r>  -27.6724    1.0000 </r>
       <r>  -27.6724    1.0000 </r>
       <r>  -27.6724    1.0000 </r>
       <r>  -27.6055    1.0000 </r>
       <r>  -27.6055    1.0000 </r>
       <r>  -27.6055    1.0000 </r>
       <r>  -27.6055    1.0000 </r>
       <r>  -27.6055    1.0000 </r>
       <r>  -27.6054    1.0000 </r>
       <r>  -27.6054    1.0000 </r>
       <r>  -27.6054    1.0000 </r>
       <r>  -27.6054    1.0000 </r>
       <r>  -27.6054    1.0000 </r>
       <r>  -27.6054    1.0000 </r>
       <r>  -27.6054    1.0000 </r>
       <r>  -27.6054    1.0000 </r>
       <r>  -27.6053    1.0000 </r>
       <r>  -27.6053    1.0000 </r>
       <r>  -27.6053    1.0000 </r>
       <r>  -27.6053    1.0000 </r>
       <r>  -27.6053    1.0000 </r>
       <r>  -27.6053    1.0000 </r>
       <r>  -27.6053    1.0000 </r>
       <r>  -27.6052    1.0000 </r>
       <r>  -27.6052    1.0000 </r>
       <r>  -27.6052    1.0000 </r>
       <r>  -27.6052    1.0000 </r>
       <r>  -27.4842    1.0000 </r>
       <r>  -27.4842    1.0000 </r>
       <r>  -27.4842    1.0000 </r>
       <r>  -27.4842    1.0000 </r>
       <r>  -27.4842    1.0000 </r>
       <r>  -27.4842    1.0000 </r>
       <r>  -27.4841    1.0000 </r>
       <r>  -27.4841    1.0000 </r>
       <r>  -27.4841    1.0000 </r>
       <r>  -27.4841    1.0000 </r>
       <r>  -27.4841    1.0000 </r>
       <r>  -27.4841    1.0000 </r>
       <r>  -27.4841    1.0000 </r>
       <r>  -27.4841    1.0000 </r>
       <r>  -27.4841    1.0000 </r>
       <r>  -27.4841    1.0000 </r>
       <r>  -27.4759    1.0000 </r>
       <r>  -27.4759    1.0000 </r>
       <r>  -27.4758    1.0000 </r>
       <r>  -27.4758    1.0000 </r>
       <r>  -27.4758    1.0000 </r>
       <r>  -27.4758    1.0000 </r>
       <r>  -27.4758    1.0000 </r>
       <r>  -27.4758    1.0000 </r>
       <r>  -27.4757    1.0000 </r>
       <r>  -27.4757    1.0000 </r>
       <r>  -27.4757    1.0000 </r>
       <r>  -27.4757    1.0000 </r>
       <r>  -27.4757    1.0000 </r>
       <r>  -27.4757    1.0000 </r>
       <r>  -27.4757    1.0000 </r>
       <r>  -27.4756    1.0000 </r>
       <r>  -27.4756    1.0000 </r>
       <r>  -27.4756    1.0000 </r>
       <r>  -27.4756    1.0000 </r>
       <r>  -27.4756    1.0000 </r>
       <r>  -27.4756    1.0000 </r>
       <r>  -27.4756    1.0000 </r>
       <r>  -27.4755    1.0000 </r>
       <r>  -27.4755    1.0000 </r>
       <r>  -27.4735    1.0000 </r>
       <r>  -27.4735    1.0000 </r>
       <r>  -27.4735    1.0000 </r>
       <r>  -27.4735    1.0000 </r>
       <r>  -27.4734    1.0000 </r>
       <r>  -27.4734    1.0000 </r>
       <r>  -27.4734    1.0000 </r>
       <r>  -27.4734    1.0000 </r>
       <r>  -27.4734    1.0000 </r>
       <r>  -27.4734    1.0000 </r>
       <r>  -27.4734    1.0000 </r>
       <r>  -27.4734    1.0000 </r>
       <r>  -27.4734    1.0000 </r>
       <r>  -27.4733    1.0000 </r>
       <r>  -27.4733    1.0000 </r>
       <r>  -27.4733    1.0000 </r>
       <r>  -27.4733    1.0000 </r>
       <r>  -27.4733    1.0000 </r>
       <r>  -27.4733    1.0000 </r>
       <r>  -27.4733    1.0000 </r>
       <r>  -27.4733    1.0000 </r>
       <r>  -27.4732    1.0000 </r>
       <r>  -27.4732    1.0000 </r>
       <r>  -27.4732    1.0000 </r>
       <r>  -27.4336    1.0000 </r>
       <r>  -27.4335    1.0000 </r>
       <r>  -27.4335    1.0000 </r>
       <r>  -27.4335    1.0000 </r>
       <r>  -27.4335    1.0000 </r>
       <r>  -27.4334    1.0000 </r>
       <r>  -27.4334    1.0000 </r>
       <r>  -27.4334    1.0000 </r>
       <r>  -27.4166    1.0000 </r>
       <r>  -27.4166    1.0000 </r>
       <r>  -27.4165    1.0000 </r>
       <r>  -27.4165    1.0000 </r>
       <r>  -27.4165    1.0000 </r>
       <r>  -27.4165    1.0000 </r>
       <r>  -27.4165    1.0000 </r>
       <r>  -27.4165    1.0000 </r>
       <r>  -27.4165    1.0000 </r>
       <r>  -27.4165    1.0000 </r>
       <r>  -27.4165    1.0000 </r>
       <r>  -27.4165    1.0000 </r>
       <r>  -27.4165    1.0000 </r>
       <r>  -27.4165    1.0000 </r>
       <r>  -27.4165    1.0000 </r>
       <r>  -27.4165    1.0000 </r>
       <r>  -27.4164    1.0000 </r>
       <r>  -27.4164    1.0000 </r>
       <r>  -27.4164    1.0000 </r>
       <r>  -27.4164    1.0000 </r>
       <r>  -27.4164    1.0000 </r>
       <r>  -27.4164    1.0000 </r>
       <r>  -27.4164    1.0000 </r>
       <r>  -27.4164    1.0000 </r>
       <r>  -27.3680    1.0000 </r>
       <r>  -27.3680    1.0000 </r>
       <r>  -27.3680    1.0000 </r>
       <r>  -27.3679    1.0000 </r>
       <r>  -27.3679    1.0000 </r>
       <r>  -27.3679    1.0000 </r>
       <r>  -27.3679    1.0000 </r>
       <r>  -27.3679    1.0000 </r>
       <r>  -27.3119    1.0000 </r>
       <r>  -27.3119    1.0000 </r>
       <r>  -27.3118    1.0000 </r>
       <r>  -27.3118    1.0000 </r>
       <r>  -27.3118    1.0000 </r>
       <r>  -27.3118    1.0000 </r>
       <r>  -27.3118    1.0000 </r>
       <r>  -27.3118    1.0000 </r>
       <r>  -27.3118    1.0000 </r>
       <r>  -27.3117    1.0000 </r>
       <r>  -27.3117    1.0000 </r>
       <r>  -27.3117    1.0000 </r>
       <r>  -27.3117    1.0000 </r>
       <r>  -27.3117    1.0000 </r>
       <r>  -27.3117    1.0000 </r>
       <r>  -27.3117    1.0000 </r>
       <r>  -27.3116    1.0000 </r>
       <r>  -27.3116    1.0000 </r>
       <r>  -27.3116    1.0000 </r>
       <r>  -27.3116    1.0000 </r>
       <r>  -27.3116    1.0000 </r>
       <r>  -27.3116    1.0000 </r>
       <r>  -27.3115    1.0000 </r>
       <r>  -27.3115    1.0000 </r>
       <r>  -27.2990    1.0000 </r>
       <r>  -27.2990    1.0000 </r>
       <r>  -27.2990    1.0000 </r>
       <r>  -27.2990    1.0000 </r>
       <r>  -27.2989    1.0000 </r>
       <r>  -27.2989    1.0000 </r>
       <r>  -27.2989    1.0000 </r>
       <r>  -27.2989    1.0000 </r>
       <r>  -27.2989    1.0000 </r>
       <r>  -27.2989    1.0000 </r>
       <r>  -27.2989    1.0000 </r>
       <r>  -27.2989    1.0000 </r>
       <r>  -27.2989    1.0000 </r>
       <r>  -27.2989    1.0000 </r>
       <r>  -27.2988    1.0000 </r>
       <r>  -27.2988    1.0000 </r>
       <r>  -27.2988    1.0000 </r>
       <r>  -27.2988    1.0000 </r>
       <r>  -27.2988    1.0000 </r>
       <r>  -27.2988    1.0000 </r>
       <r>  -27.2988    1.0000 </r>
       <r>  -27.2988    1.0000 </r>
       <r>  -27.2988    1.0000 </r>
       <r>  -27.2988    1.0000 </r>
       <r>  -27.2548    1.0000 </r>
       <r>  -27.2548    1.0000 </r>
       <r>  -27.2547    1.0000 </r>
       <r>  -27.2547    1.0000 </r>
       <r>  -27.2547    1.0000 </r>
       <r>  -27.2547    1.0000 </r>
       <r>  -27.2547    1.0000 </r>
       <r>  -27.2546    1.0000 </r>
       <r>  -27.2546    1.0000 </r>
       <r>  -27.2546    1.0000 </r>
       <r>  -27.2546    1.0000 </r>
       <r>  -27.2546    1.0000 </r>
       <r>  -27.2545    1.0000 </r>
       <r>  -27.2545    1.0000 </r>
       <r>  -27.2545    1.0000 </r>
       <r>  -27.2545    1.0000 </r>
       <r>  -27.2545    1.0000 </r>
       <r>  -27.2545    1.0000 </r>
       <r>  -27.2545    1.0000 </r>
       <r>  -27.2544    1.0000 </r>
       <r>  -27.2544    1.0000 </r>
       <r>  -27.2544    1.0000 </r>
       <r>  -27.2543    1.0000 </r>
       <r>  -27.2543    1.0000 </r>
       <r>  -27.2423    1.0000 </r>
       <r>  -27.2423    1.0000 </r>
       <r>  -27.2423    1.0000 </r>
       <r>  -27.2423    1.0000 </r>
       <r>  -27.2422    1.0000 </r>
       <r>  -27.2422    1.0000 </r>
       <r>  -27.2422    1.0000 </r>
       <r>  -27.2421    1.0000 </r>
       <r>  -27.2421    1.0000 </r>
       <r>  -27.2421    1.0000 </r>
       <r>  -27.2420    1.0000 </r>
       <r>  -27.2420    1.0000 </r>
       <r>  -27.2420    1.0000 </r>
       <r>  -27.2419    1.0000 </r>
       <r>  -27.2419    1.0000 </r>
       <r>  -27.2419    1.0000 </r>
       <r>    4.0909    1.0000 </r>
       <r>    4.0909    1.0000 </r>
       <r>    4.0910    1.0000 </r>
       <r>    4.0911    1.0000 </r>
       <r>    4.0913    1.0000 </r>
       <r>    4.0913    1.0000 </r>
       <r>    4.0914    1.0000 </r>
       <r>    4.0916    1.0000 </r>
       <r>    6.0244    1.0000 </r>
       <r>    6.0244    1.0000 </r>
       <r>    6.0244    1.0000 </r>
       <r>    6.0244    1.0000 </r>
       <r>    6.0245    1.0000 </r>
       <r>    6.0245    1.0000 </r>
       <r>    6.0245    1.0000 </r>
       <r>    6.0245    1.0000 </r>
       <r>    6.0246    1.0000 </r>
       <r>    6.0246    1.0000 </r>
       <r>    6.0246    1.0000 </r>
       <r>    6.0246    1.0000 </r>
       <r>    6.0247    1.0000 </r>
       <r>    6.0247    1.0000 </r>
       <r>    6.0247    1.0000 </r>
       <r>    6.0248    1.0000 </r>
       <r>    6.0248    1.0000 </r>
       <r>    6.0248    1.0000 </r>
       <r>    6.0248    1.0000 </r>
       <r>    6.0248    1.0000 </r>
       <r>    6.0249    1.0000 </r>
       <r>    6.0249    1.0000 </r>
       <r>    6.0249    1.0000 </r>
       <r>    6.0250    1.0000 </r>
       <r>    6.7612    1.0000 </r>
       <r>    6.7612    1.0000 </r>
       <r>    6.7612    1.0000 </r>
       <r>    6.7612    1.0000 </r>
       <r>    6.7613    1.0000 </r>
       <r>    6.7613    1.0000 </r>
       <r>    6.7613    1.0000 </r>
       <r>    6.7613    1.0000 </r>
       <r>    6.7613    1.0000 </r>
       <r>    6.7614    1.0000 </r>
       <r>    6.7614    1.0000 </r>
       <r>    6.7614    1.0000 </r>
       <r>    6.7614    1.0000 </r>
       <r>    6.7614    1.0000 </r>
       <r>    6.7615    1.0000 </r>
       <r>    6.7615    1.0000 </r>
       <r>    6.7615    1.0000 </r>
       <r>    6.7615    1.0000 </r>
       <r>    6.7615    1.0000 </r>
       <r>    6.7615    1.0000 </r>
       <r>    6.7616    1.0000 </r>
       <r>    6.7616    1.0000 </r>
       <r>    6.7616    1.0000 </r>
       <r>    6.7616    1.0000 </r>
       <r>    7.2546    1.0000 </r>
       <r>    7.2547    1.0000 </r>
       <r>    7.2547    1.0000 </r>
       <r>    7.2547    1.0000 </r>
       <r>    7.2547    1.0000 </r>
       <r>    7.2548    1.0000 </r>
       <r>    7.2548    1.0000 </r>
       <r>    7.2548    1.0000 </r>
       <r>    7.2548    1.0000 </r>
       <r>    7.2548    1.0000 </r>
       <r>    7.2549    1.0000 </r>
       <r>    7.2549    1.0000 </r>
       <r>    7.2549    1.0000 </r>
       <r>    7.2549    1.0000 </r>
       <r>    7.2549    1.0000 </r>
       <r>    7.2549    1.0000 </r>
       <r>    7.2549    1.0000 </r>
       <r>    7.2550    1.0000 </r>
       <r>    7.2550    1.0000 </r>
       <r>    7.2550    1.0000 </r>
       <r>    7.2550    1.0000 </r>
       <r>    7.2550    1.0000 </r>
       <r>    7.2551    1.0000 </r>
       <r>    7.2551    1.0000 </r>
       <r>    7.2672    1.0000 </r>
       <r>    7.2672    1.0000 </r>
       <r>    7.2672    1.0000 </r>
       <r>    7.2672    1.0000 </r>
       <r>    7.2673    1.0000 </r>
       <r>    7.2673    1.0000 </r>
       <r>    7.2674    1.0000 </r>
       <r>    7.2674    1.0000 </r>
       <r>    7.2676    1.0000 </r>
       <r>    7.2676    1.0000 </r>
       <r>    7.2676    1.0000 </r>
       <r>    7.2676    1.0000 </r>
       <r>    7.2677    1.0000 </r>
       <r>    7.2677    1.0000 </r>
       <r>    7.2678    1.0000 </r>
       <r>    7.2678    1.0000 </r>
       <r>    7.7259    1.0000 </r>
       <r>    7.7259    1.0000 </r>
       <r>    7.7259    1.0000 </r>
       <r>    7.7259    1.0000 </r>
       <r>    7.7260    1.0000 </r>
       <r>    7.7260    1.0000 </r>
       <r>    7.7260    1.0000 </r>
       <r>    7.7260    1.0000 </r>
       <r>    7.7260    1.0000 </r>
       <r>    7.7260    1.0000 </r>
       <r>    7.7261    1.0000 </r>
       <r>    7.7261    1.0000 </r>
       <r>    7.7261    1.0000 </r>
       <r>    7.7261    1.0000 </r>
       <r>    7.7262    1.0000 </r>
       <r>    7.7262    1.0000 </r>
       <r>    7.7263    1.0000 </r>
       <r>    7.7263    1.0000 </r>
       <r>    7.7263    1.0000 </r>
       <r>    7.7263    1.0000 </r>
       <r>    7.7263    1.0000 </r>
       <r>    7.7264    1.0000 </r>
       <r>    7.7264    1.0000 </r>
       <r>    7.7264    1.0000 </r>
       <r>    8.0851    1.0000 </r>
       <r>    8.0851    1.0000 </r>
       <r>    8.0851    1.0000 </r>
       <r>    8.0851    1.0000 </r>
       <r>    8.0851    1.0000 </r>
       <r>    8.0851    1.0000 </r>
       <r>    8.0852    1.0000 </r>
       <r>    8.0852    1.0000 </r>
       <r>    8.2606    1.0000 </r>
       <r>    8.2607    1.0000 </r>
       <r>    8.2607    1.0000 </r>
       <r>    8.2607    1.0000 </r>
       <r>    8.2608    1.0000 </r>
       <r>    8.2608    1.0000 </r>
       <r>    8.2608    1.0000 </r>
       <r>    8.2608    1.0000 </r>
       <r>    8.2608    1.0000 </r>
       <r>    8.2608    1.0000 </r>
       <r>    8.2609    1.0000 </r>
       <r>    8.2609    1.0000 </r>
       <r>    8.2609    1.0000 </r>
       <r>    8.2609    1.0000 </r>
       <r>    8.2610    1.0000 </r>
       <r>    8.2610    1.0000 </r>
       <r>    8.2610    1.0000 </r>
       <r>    8.2610    1.0000 </r>
       <r>    8.2610    1.0000 </r>
       <r>    8.2610    1.0000 </r>
       <r>    8.2611    1.0000 </r>
       <r>    8.2611    1.0000 </r>
       <r>    8.2611    1.0000 </r>
       <r>    8.2612    1.0000 </r>
       <r>    8.4233    1.0000 </r>
       <r>    8.4233    1.0000 </r>
       <r>    8.4233    1.0000 </r>
       <r>    8.4233    1.0000 </r>
       <r>    8.4233    1.0000 </r>
       <r>    8.4233    1.0000 </r>
       <r>    8.4233    1.0000 </r>
       <r>    8.4234    1.0000 </r>
       <r>    8.5337    1.0000 </r>
       <r>    8.5337    1.0000 </r>
       <r>    8.5337    1.0000 </r>
       <r>    8.5337    1.0000 </r>
       <r>    8.5337    1.0000 </r>
       <r>    8.5337    1.0000 </r>
       <r>    8.5338    1.0000 </r>
       <r>    8.5338    1.0000 </r>
       <r>    8.5338    1.0000 </r>
       <r>    8.5338    1.0000 </r>
       <r>    8.5338    1.0000 </r>
       <r>    8.5338    1.0000 </r>
       <r>    8.5338    1.0000 </r>
       <r>    8.5338    1.0000 </r>
       <r>    8.5338    1.0000 </r>
       <r>    8.5338    1.0000 </r>
       <r>    8.7793    1.0000 </r>
       <r>    8.7793    1.0000 </r>
       <r>    8.7794    1.0000 </r>
       <r>    8.7794    1.0000 </r>
       <r>    8.7794    1.0000 </r>
       <r>    8.7794    1.0000 </r>
       <r>    8.7794    1.0000 </r>
       <r>    8.7794    1.0000 </r>
       <r>    8.7795    1.0000 </r>
       <r>    8.7795    1.0000 </r>
       <r>    8.7795    1.0000 </r>
       <r>    8.7795    1.0000 </r>
       <r>    8.7795    1.0000 </r>
       <r>    8.7795    1.0000 </r>
       <r>    8.7796    1.0000 </r>
       <r>    8.7796    1.0000 </r>
       <r>    8.7796    1.0000 </r>
       <r>    8.7796    1.0000 </r>
       <r>    8.7796    1.0000 </r>
       <r>    8.7796    1.0000 </r>
       <r>    8.7797    1.0000 </r>
       <r>    8.7797    1.0000 </r>
       <r>    8.7797    1.0000 </r>
       <r>    8.7797    1.0000 </r>
       <r>    8.8967    1.0000 </r>
       <r>    8.8967    1.0000 </r>
       <r>    8.8967    1.0000 </r>
       <r>    8.8967    1.0000 </r>
       <r>    8.8967    1.0000 </r>
       <r>    8.8967    1.0000 </r>
       <r>    8.8967    1.0000 </r>
       <r>    8.8968    1.0000 </r>
       <r>    8.8968    1.0000 </r>
       <r>    8.8968    1.0000 </r>
       <r>    8.8968    1.0000 </r>
       <r>    8.8968    1.0000 </r>
       <r>    8.8968    1.0000 </r>
       <r>    8.8968    1.0000 </r>
       <r>    8.8968    1.0000 </r>
       <r>    8.8968    1.0000 </r>
       <r>    8.9716    1.0000 </r>
       <r>    8.9716    1.0000 </r>
       <r>    8.9716    1.0000 </r>
       <r>    8.9717    1.0000 </r>
       <r>    8.9717    1.0000 </r>
       <r>    8.9717    1.0000 </r>
       <r>    8.9717    1.0000 </r>
       <r>    8.9717    1.0000 </r>
       <r>    8.9717    1.0000 </r>
       <r>    8.9718    1.0000 </r>
       <r>    8.9718    1.0000 </r>
       <r>    8.9718    1.0000 </r>
       <r>    8.9718    1.0000 </r>
       <r>    8.9718    1.0000 </r>
       <r>    8.9718    1.0000 </r>
       <r>    8.9718    1.0000 </r>
       <r>    8.9718    1.0000 </r>
       <r>    8.9719    1.0000 </r>
       <r>    8.9719    1.0000 </r>
       <r>    8.9719    1.0000 </r>
       <r>    8.9719    1.0000 </r>
       <r>    8.9719    1.0000 </r>
       <r>    8.9720    1.0000 </r>
       <r>    8.9720    1.0000 </r>
       <r>    9.3842    1.0078 </r>
       <r>    9.3842    1.0078 </r>
       <r>    9.3842    1.0078 </r>
       <r>    9.3843    1.0078 </r>
       <r>    9.3843    1.0078 </r>
       <r>    9.3843    1.0078 </r>
       <r>    9.3843    1.0078 </r>
       <r>    9.3843    1.0078 </r>
       <r>    9.3843    1.0078 </r>
       <r>    9.3843    1.0079 </r>
       <r>    9.3843    1.0079 </r>
       <r>    9.3843    1.0079 </r>
       <r>    9.3844    1.0079 </r>
       <r>    9.3844    1.0079 </r>
       <r>    9.3844    1.0079 </r>
       <r>    9.3844    1.0079 </r>
       <r>    9.3844    1.0079 </r>
       <r>    9.3844    1.0079 </r>
       <r>    9.3844    1.0079 </r>
       <r>    9.3844    1.0079 </r>
       <r>    9.3844    1.0079 </r>
       <r>    9.3845    1.0079 </r>
       <r>    9.3845    1.0079 </r>
       <r>    9.3845    1.0079 </r>
       <r>    9.6651    0.9209 </r>
       <r>    9.6651    0.9208 </r>
       <r>    9.6651    0.9208 </r>
       <r>    9.6651    0.9208 </r>
       <r>    9.6651    0.9207 </r>
       <r>    9.6651    0.9207 </r>
       <r>    9.6651    0.9207 </r>
       <r>    9.6651    0.9207 </r>
       <r>    9.6652    0.9207 </r>
       <r>    9.6652    0.9206 </r>
       <r>    9.6652    0.9206 </r>
       <r>    9.6652    0.9206 </r>
       <r>    9.6652    0.9206 </r>
       <r>    9.6652    0.9206 </r>
       <r>    9.6652    0.9205 </r>
       <r>    9.6652    0.9205 </r>
       <r>    9.6652    0.9205 </r>
       <r>    9.6652    0.9205 </r>
       <r>    9.6652    0.9205 </r>
       <r>    9.6652    0.9204 </r>
       <r>    9.6653    0.9204 </r>
       <r>    9.6653    0.9204 </r>
       <r>    9.6653    0.9204 </r>
       <r>    9.6653    0.9203 </r>
       <r>    9.6729    0.9027 </r>
       <r>    9.6729    0.9026 </r>
       <r>    9.6729    0.9026 </r>
       <r>    9.6729    0.9026 </r>
       <r>    9.6730    0.9024 </r>
       <r>    9.6730    0.9024 </r>
       <r>    9.6730    0.9024 </r>
       <r>    9.6730    0.9024 </r>
       <r>    9.6730    0.9023 </r>
       <r>    9.6730    0.9023 </r>
       <r>    9.6730    0.9023 </r>
       <r>    9.6730    0.9022 </r>
       <r>    9.6731    0.9022 </r>
       <r>    9.6731    0.9021 </r>
       <r>    9.6731    0.9021 </r>
       <r>    9.6731    0.9021 </r>
       <r>    9.6731    0.9021 </r>
       <r>    9.6731    0.9020 </r>
       <r>    9.6731    0.9020 </r>
       <r>    9.6731    0.9020 </r>
       <r>    9.6732    0.9018 </r>
       <r>    9.6732    0.9018 </r>
       <r>    9.6732    0.9018 </r>
       <r>    9.6732    0.9017 </r>
       <r>    9.8716    0.1701 </r>
       <r>    9.8717    0.1700 </r>
       <r>    9.8717    0.1700 </r>
       <r>    9.8717    0.1699 </r>
       <r>    9.8717    0.1699 </r>
       <r>    9.8718    0.1697 </r>
       <r>    9.8718    0.1697 </r>
       <r>    9.8718    0.1695 </r>
       <r>    9.8719    0.1694 </r>
       <r>    9.8719    0.1693 </r>
       <r>    9.8720    0.1691 </r>
       <r>    9.8720    0.1690 </r>
       <r>    9.8720    0.1690 </r>
       <r>    9.8720    0.1689 </r>
       <r>    9.8721    0.1688 </r>
       <r>    9.8721    0.1688 </r>
       <r>    9.8732    0.1653 </r>
       <r>    9.8732    0.1653 </r>
       <r>    9.8733    0.1652 </r>
       <r>    9.8733    0.1651 </r>
       <r>    9.8733    0.1651 </r>
       <r>    9.8733    0.1650 </r>
       <r>    9.8733    0.1650 </r>
       <r>    9.8733    0.1650 </r>
       <r>    9.8733    0.1650 </r>
       <r>    9.8733    0.1649 </r>
       <r>    9.8734    0.1649 </r>
       <r>    9.8734    0.1648 </r>
       <r>    9.8734    0.1648 </r>
       <r>    9.8734    0.1648 </r>
       <r>    9.8734    0.1647 </r>
       <r>    9.8734    0.1647 </r>
       <r>    9.8734    0.1646 </r>
       <r>    9.8734    0.1646 </r>
       <r>    9.8734    0.1646 </r>
       <r>    9.8734    0.1646 </r>
       <r>    9.8735    0.1645 </r>
       <r>    9.8735    0.1645 </r>
       <r>    9.8735    0.1644 </r>
       <r>    9.8735    0.1643 </r>
       <r>   10.1413   -0.0152 </r>
       <r>   10.1413   -0.0152 </r>
       <r>   10.1413   -0.0152 </r>
       <r>   10.1413   -0.0152 </r>
       <r>   10.1413   -0.0152 </r>
       <r>   10.1413   -0.0152 </r>
       <r>   10.1413   -0.0152 </r>
       <r>   10.1413   -0.0152 </r>
       <r>   10.1413   -0.0152 </r>
       <r>   10.1413   -0.0152 </r>
       <r>   10.1414   -0.0152 </r>
       <r>   10.1414   -0.0152 </r>
       <r>   10.1414   -0.0152 </r>
       <r>   10.1414   -0.0152 </r>
       <r>   10.1414   -0.0152 </r>
       <r>   10.1414   -0.0152 </r>
       <r>   10.1414   -0.0152 </r>
       <r>   10.1414   -0.0152 </r>
       <r>   10.1414   -0.0152 </r>
       <r>   10.1414   -0.0152 </r>
       <r>   10.1414   -0.0152 </r>
       <r>   10.1414   -0.0152 </r>
       <r>   10.1414   -0.0152 </r>
       <r>   10.1415   -0.0152 </r>
       <r>   10.9876   -0.0000 </r>
       <r>   10.9877   -0.0000 </r>
       <r>   10.9877   -0.0000 </r>
       <r>   10.9877   -0.0000 </r>
       <r>   10.9877   -0.0000 </r>
       <r>   10.9878   -0.0000 </r>
       <r>   10.9878   -0.0000 </r>
       <r>   10.9878   -0.0000 </r>
       <r>   11.2968   -0.0000 </r>
       <r>   11.2968   -0.0000 </r>
       <r>   11.2968   -0.0000 </r>
       <r>   11.2969   -0.0000 </r>
       <r>   11.2969   -0.0000 </r>
       <r>   11.2969   -0.0000 </r>
       <r>   11.2969   -0.0000 </r>
       <r>   11.2969   -0.0000 </r>
       <r>   11.2969   -0.0000 </r>
       <r>   11.2969   -0.0000 </r>
       <r>   11.2970   -0.0000 </r>
       <r>   11.2970   -0.0000 </r>
       <r>   11.2970   -0.0000 </r>
       <r>   11.2970   -0.0000 </r>
       <r>   11.2971   -0.0000 </r>
       <r>   11.2971   -0.0000 </r>
       <r>   11.2971   -0.0000 </r>
       <r>   11.2971   -0.0000 </r>
       <r>   11.2971   -0.0000 </r>
       <r>   11.2971   -0.0000 </r>
       <r>   11.2971   -0.0000 </r>
       <r>   11.2971   -0.0000 </r>
       <r>   11.2972   -0.0000 </r>
       <r>   11.2972   -0.0000 </r>
       <r>   11.5513   -0.0000 </r>
       <r>   11.5513   -0.0000 </r>
       <r>   11.5513   -0.0000 </r>
       <r>   11.5513   -0.0000 </r>
       <r>   11.5513   -0.0000 </r>
       <r>   11.5513   -0.0000 </r>
       <r>   11.5514   -0.0000 </r>
       <r>   11.5514   -0.0000 </r>
       <r>   11.5514   -0.0000 </r>
       <r>   11.5514   -0.0000 </r>
       <r>   11.5514   -0.0000 </r>
       <r>   11.5514   -0.0000 </r>
       <r>   11.5514   -0.0000 </r>
       <r>   11.5514   -0.0000 </r>
       <r>   11.5514   -0.0000 </r>
       <r>   11.5514   -0.0000 </r>
       <r>   11.5514   -0.0000 </r>
       <r>   11.5514   -0.0000 </r>
       <r>   11.5514   -0.0000 </r>
       <r>   11.5514   -0.0000 </r>
       <r>   11.5514   -0.0000 </r>
       <r>   11.5514   -0.0000 </r>
       <r>   11.5515   -0.0000 </r>
       <r>   11.5515   -0.0000 </r>
       <r>   11.5819   -0.0000 </r>
       <r>   11.5819   -0.0000 </r>
       <r>   11.5819   -0.0000 </r>
       <r>   11.5820   -0.0000 </r>
       <r>   11.5820   -0.0000 </r>
       <r>   11.5820   -0.0000 </r>
       <r>   11.5820   -0.0000 </r>
       <r>   11.5820   -0.0000 </r>
       <r>   11.8817   -0.0000 </r>
       <r>   11.8817   -0.0000 </r>
       <r>   11.8818   -0.0000 </r>
       <r>   11.8818   -0.0000 </r>
       <r>   11.8818   -0.0000 </r>
       <r>   11.8818   -0.0000 </r>
       <r>   11.8818   -0.0000 </r>
       <r>   11.8818   -0.0000 </r>
       <r>   11.8819   -0.0000 </r>
       <r>   11.8819   -0.0000 </r>
       <r>   11.8819   -0.0000 </r>
       <r>   11.8819   -0.0000 </r>
       <r>   11.8819   -0.0000 </r>
       <r>   11.8819   -0.0000 </r>
       <r>   11.8820   -0.0000 </r>
       <r>   11.8820   -0.0000 </r>
       <r>   11.8820   -0.0000 </r>
       <r>   11.8820   -0.0000 </r>
       <r>   11.8820   -0.0000 </r>
       <r>   11.8820   -0.0000 </r>
       <r>   11.8821   -0.0000 </r>
       <r>   11.8821   -0.0000 </r>
       <r>   11.8821   -0.0000 </r>
       <r>   11.8821   -0.0000 </r>
       <r>   12.0933   -0.0000 </r>
       <r>   12.0933   -0.0000 </r>
       <r>   12.0934   -0.0000 </r>
       <r>   12.0934   -0.0000 </r>
       <r>   12.0934   -0.0000 </r>
       <r>   12.0935   -0.0000 </r>
       <r>   12.0936   -0.0000 </r>
       <r>   12.0936   -0.0000 </r>
       <r>   12.0936   -0.0000 </r>
       <r>   12.0937   -0.0000 </r>
       <r>   12.0937   -0.0000 </r>
       <r>   12.0937   -0.0000 </r>
       <r>   12.0938   -0.0000 </r>
       <r>   12.0938   -0.0000 </r>
       <r>   12.0939   -0.0000 </r>
       <r>   12.0940   -0.0000 </r>
       <r>   12.1766   -0.0000 </r>
       <r>   12.1770   -0.0000 </r>
       <r>   12.1774   -0.0000 </r>
       <r>   12.1776   -0.0000 </r>
       <r>   12.1780   -0.0000 </r>
       <r>   12.1792   -0.0000 </r>
       <r>   12.1795   -0.0000 </r>
       <r>   12.1805   -0.0000 </r>
      </set>
     </set>
    </set>
   </array>
  </eigenvalues>
  <separator name="orbital magnetization" >
   <v name="MAGDIPOLOUT">      0.00000000      0.00000000      0.00000000</v>
  </separator>
  <dos>
   <i name="efermi">      9.78543867 </i>
   <total>
    <array>
     <dimension dim="1">gridpoints</dimension>
     <dimension dim="2">spin</dimension>
     <field>energy</field>
     <field>total</field>
     <field>integrated</field>
     <set>
      <set comment="spin 1">
       <r>   -57.2169     0.0000     0.0000 </r>
       <r>   -56.9745     0.0000     0.0000 </r>
       <r>   -56.7322     0.0000     0.0000 </r>
       <r>   -56.4898     0.0000     0.0000 </r>
       <r>   -56.2475     0.0000     0.0000 </r>
       <r>   -56.0052     0.0000     0.0000 </r>
       <r>   -55.7628     0.0000     0.0000 </r>
       <r>   -55.5205    -0.0000    -0.0000 </r>
       <r>   -55.2781    -0.0000    -0.0000 </r>
       <r>   -55.0358    -0.0000    -0.0000 </r>
       <r>   -54.7935    -0.0000    -0.0000 </r>
       <r>   -54.5511    -0.0006    -0.0002 </r>
       <r>   -54.3088    -0.4461    -0.1083 </r>
       <r>   -54.0664   -16.9890    -4.2254 </r>
       <r>   -53.8241   177.7138    38.8418 </r>
       <r>   -53.5818   804.6193   233.8331 </r>
       <r>   -53.3394   105.6061   259.4257 </r>
       <r>   -53.0971   -13.9819   256.0373 </r>
       <r>   -52.8547    -0.1539   256.0000 </r>
       <r>   -52.6124    -0.0001   256.0000 </r>
       <r>   -52.3701    -0.0000   256.0000 </r>
       <r>   -52.1277    -0.0000   256.0000 </r>
       <r>   -51.8854     0.0000   256.0000 </r>
       <r>   -51.6430     0.0000   256.0000 </r>
       <r>   -51.4007     0.0000   256.0000 </r>
       <r>   -51.1584     0.0000   256.0000 </r>
       <r>   -50.9160     0.0000   256.0000 </r>
       <r>   -50.6737     0.0000   256.0000 </r>
       <r>   -50.4313     0.0000   256.0000 </r>
       <r>   -50.1890     0.0000   256.0000 </r>
       <r>   -49.9467     0.0000   256.0000 </r>
       <r>   -49.7043     0.0000   256.0000 </r>
       <r>   -49.4620     0.0000   256.0000 </r>
       <r>   -49.2196     0.0000   256.0000 </r>
       <r>   -48.9773     0.0000   256.0000 </r>
       <r>   -48.7350     0.0000   256.0000 </r>
       <r>   -48.4926     0.0000   256.0000 </r>
       <r>   -48.2503     0.0000   256.0000 </r>
       <r>   -48.0079     0.0000   256.0000 </r>
       <r>   -47.7656     0.0000   256.0000 </r>
       <r>   -47.5233     0.0000   256.0000 </r>
       <r>   -47.2809     0.0000   256.0000 </r>
       <r>   -47.0386     0.0000   256.0000 </r>
       <r>   -46.7962     0.0000   256.0000 </r>
       <r>   -46.5539     0.0000   256.0000 </r>
       <r>   -46.3116     0.0000   256.0000 </r>
       <r>   -46.0692     0.0000   256.0000 </r>
       <r>   -45.8269     0.0000   256.0000 </r>
       <r>   -45.5845     0.0000   256.0000 </r>
       <r>   -45.3422     0.0000   256.0000 </r>
       <r>   -45.0999     0.0000   256.0000 </r>
       <r>   -44.8575     0.0000   256.0000 </r>
       <r>   -44.6152     0.0000   256.0000 </r>
       <r>   -44.3728     0.0000   256.0000 </r>
       <r>   -44.1305     0.0000   256.0000 </r>
       <r>   -43.8882     0.0000   256.0000 </r>
       <r>   -43.6458     0.0000   256.0000 </r>
       <r>   -43.4035     0.0000   256.0000 </r>
       <r>   -43.1611     0.0000   256.0000 </r>
       <r>   -42.9188     0.0000   256.0000 </r>
       <r>   -42.6765     0.0000   256.0000 </r>
       <r>   -42.4341     0.0000   256.0000 </r>
       <r>   -42.1918     0.0000   256.0000 </r>
       <r>   -41.9494     0.0000   256.0000 </r>
       <r>   -41.7071     0.0000   256.0000 </r>
       <r>   -41.4648     0.0000   256.0000 </r>
       <r>   -41.2224     0.0000   256.0000 </r>
       <r>   -40.9801     0.0000   256.0000 </r>
       <r>   -40.7377     0.0000   256.0000 </r>
       <r>   -40.4954     0.0000   256.0000 </r>
       <r>   -40.2531     0.0000   256.0000 </r>
       <r>   -40.0107     0.0000   256.0000 </r>
       <r>   -39.7684     0.0000   256.0000 </r>
       <r>   -39.5260     0.0000   256.0000 </r>
       <r>   -39.2837     0.0000   256.0000 </r>
       <r>   -39.0414     0.0000   256.0000 </r>
       <r>   -38.7990     0.0000   256.0000 </r>
       <r>   -38.5567     0.0000   256.0000 </r>
       <r>   -38.3143     0.0000   256.0000 </r>
       <r>   -38.0720     0.0000   256.0000 </r>
       <r>   -37.8297     0.0000   256.0000 </r>
       <r>   -37.5873     0.0000   256.0000 </r>
       <r>   -37.3450     0.0000   256.0000 </r>
       <r>   -37.1026     0.0000   256.0000 </r>
       <r>   -36.8603     0.0000   256.0000 </r>
       <r>   -36.6180     0.0000   256.0000 </r>
       <r>   -36.3756     0.0000   256.0000 </r>
       <r>   -36.1333     0.0000   256.0000 </r>
       <r>   -35.8909     0.0000   256.0000 </r>
       <r>   -35.6486     0.0000   256.0000 </r>
       <r>   -35.4063     0.0000   256.0000 </r>
       <r>   -35.1639     0.0000   256.0000 </r>
       <r>   -34.9216     0.0000   256.0000 </r>
       <r>   -34.6792     0.0000   256.0000 </r>
       <r>   -34.4369     0.0000   256.0000 </r>
       <r>   -34.1946     0.0000   256.0000 </r>
       <r>   -33.9522     0.0000   256.0000 </r>
       <r>   -33.7099     0.0000   256.0000 </r>
       <r>   -33.4675     0.0000   256.0000 </r>
       <r>   -33.2252     0.0000   256.0000 </r>
       <r>   -32.9829     0.0000   256.0000 </r>
       <r>   -32.7405     0.0000   256.0000 </r>
       <r>   -32.4982     0.0000   256.0000 </r>
       <r>   -32.2559     0.0000   256.0000 </r>
       <r>   -32.0135     0.0000   256.0000 </r>
       <r>   -31.7712     0.0000   256.0000 </r>
       <r>   -31.5288     0.0000   256.0000 </r>
       <r>   -31.2865     0.0000   256.0000 </r>
       <r>   -31.0442     0.0000   256.0000 </r>
       <r>   -30.8018     0.0000   256.0000 </r>
       <r>   -30.5595     0.0000   256.0000 </r>
       <r>   -30.3171     0.0000   256.0000 </r>
       <r>   -30.0748     0.0000   256.0000 </r>
       <r>   -29.8325    -0.0000   256.0000 </r>
       <r>   -29.5901    -0.0000   256.0000 </r>
       <r>   -29.3478    -0.0000   256.0000 </r>
       <r>   -29.1054    -0.0000   256.0000 </r>
       <r>   -28.8631    -0.0000   256.0000 </r>
       <r>   -28.6208    -0.0733   255.9822 </r>
       <r>   -28.3784    -7.1250   254.2556 </r>
       <r>   -28.1361    32.9159   262.2324 </r>
       <r>   -27.8937   573.9631   401.3265 </r>
       <r>   -27.6514   692.9884   569.2653 </r>
       <r>   -27.4091   936.5853   796.2372 </r>
       <r>   -27.1667   889.4652  1011.7901 </r>
       <r>   -26.9244    62.5292  1026.9434 </r>
       <r>   -26.6820   -12.0483  1024.0237 </r>
       <r>   -26.4397    -0.0976  1024.0000 </r>
       <r>   -26.1974    -0.0000  1024.0000 </r>
       <r>   -25.9550    -0.0000  1024.0000 </r>
       <r>   -25.7127     0.0000  1024.0000 </r>
       <r>   -25.4703     0.0000  1024.0000 </r>
       <r>   -25.2280     0.0000  1024.0000 </r>
       <r>   -24.9857     0.0000  1024.0000 </r>
       <r>   -24.7433     0.0000  1024.0000 </r>
       <r>   -24.5010     0.0000  1024.0000 </r>
       <r>   -24.2586     0.0000  1024.0000 </r>
       <r>   -24.0163     0.0000  1024.0000 </r>
       <r>   -23.7740     0.0000  1024.0000 </r>
       <r>   -23.5316     0.0000  1024.0000 </r>
       <r>   -23.2893     0.0000  1024.0000 </r>
       <r>   -23.0469     0.0000  1024.0000 </r>
       <r>   -22.8046     0.0000  1024.0000 </r>
       <r>   -22.5623     0.0000  1024.0000 </r>
       <r>   -22.3199     0.0000  1024.0000 </r>
       <r>   -22.0776     0.0000  1024.0000 </r>
       <r>   -21.8352     0.0000  1024.0000 </r>
       <r>   -21.5929     0.0000  1024.0000 </r>
       <r>   -21.3506     0.0000  1024.0000 </r>
       <r>   -21.1082     0.0000  1024.0000 </r>
       <r>   -20.8659     0.0000  1024.0000 </r>
       <r>   -20.6235     0.0000  1024.0000 </r>
       <r>   -20.3812     0.0000  1024.0000 </r>
       <r>   -20.1389     0.0000  1024.0000 </r>
       <r>   -19.8965     0.0000  1024.0000 </r>
       <r>   -19.6542     0.0000  1024.0000 </r>
       <r>   -19.4118     0.0000  1024.0000 </r>
       <r>   -19.1695     0.0000  1024.0000 </r>
       <r>   -18.9272     0.0000  1024.0000 </r>
       <r>   -18.6848     0.0000  1024.0000 </r>
       <r>   -18.4425     0.0000  1024.0000 </r>
       <r>   -18.2001     0.0000  1024.0000 </r>
       <r>   -17.9578     0.0000  1024.0000 </r>
       <r>   -17.7155     0.0000  1024.0000 </r>
       <r>   -17.4731     0.0000  1024.0000 </r>
       <r>   -17.2308     0.0000  1024.0000 </r>
       <r>   -16.9884     0.0000  1024.0000 </r>
       <r>   -16.7461     0.0000  1024.0000 </r>
       <r>   -16.5038     0.0000  1024.0000 </r>
       <r>   -16.2614     0.0000  1024.0000 </r>
       <r>   -16.0191     0.0000  1024.0000 </r>
       <r>   -15.7767     0.0000  1024.0000 </r>
       <r>   -15.5344     0.0000  1024.0000 </r>
       <r>   -15.2921     0.0000  1024.0000 </r>
       <r>   -15.0497     0.0000  1024.0000 </r>
       <r>   -14.8074     0.0000  1024.0000 </r>
       <r>   -14.5650     0.0000  1024.0000 </r>
       <r>   -14.3227     0.0000  1024.0000 </r>
       <r>   -14.0804     0.0000  1024.0000 </r>
       <r>   -13.8380     0.0000  1024.0000 </r>
       <r>   -13.5957     0.0000  1024.0000 </r>
       <r>   -13.3533     0.0000  1024.0000 </r>
       <r>   -13.1110     0.0000  1024.0000 </r>
       <r>   -12.8687     0.0000  1024.0000 </r>
       <r>   -12.6263     0.0000  1024.0000 </r>
       <r>   -12.3840     0.0000  1024.0000 </r>
       <r>   -12.1416     0.0000  1024.0000 </r>
       <r>   -11.8993     0.0000  1024.0000 </r>
       <r>   -11.6570     0.0000  1024.0000 </r>
       <r>   -11.4146     0.0000  1024.0000 </r>
       <r>   -11.1723     0.0000  1024.0000 </r>
       <r>   -10.9299     0.0000  1024.0000 </r>
       <r>   -10.6876     0.0000  1024.0000 </r>
       <r>   -10.4453     0.0000  1024.0000 </r>
       <r>   -10.2029     0.0000  1024.0000 </r>
       <r>    -9.9606     0.0000  1024.0000 </r>
       <r>    -9.7182     0.0000  1024.0000 </r>
       <r>    -9.4759     0.0000  1024.0000 </r>
       <r>    -9.2336     0.0000  1024.0000 </r>
       <r>    -8.9912     0.0000  1024.0000 </r>
       <r>    -8.7489     0.0000  1024.0000 </r>
       <r>    -8.5065     0.0000  1024.0000 </r>
       <r>    -8.2642     0.0000  1024.0000 </r>
       <r>    -8.0219     0.0000  1024.0000 </r>
       <r>    -7.7795     0.0000  1024.0000 </r>
       <r>    -7.5372     0.0000  1024.0000 </r>
       <r>    -7.2948     0.0000  1024.0000 </r>
       <r>    -7.0525     0.0000  1024.0000 </r>
       <r>    -6.8102     0.0000  1024.0000 </r>
       <r>    -6.5678     0.0000  1024.0000 </r>
       <r>    -6.3255     0.0000  1024.0000 </r>
       <r>    -6.0831     0.0000  1024.0000 </r>
       <r>    -5.8408     0.0000  1024.0000 </r>
       <r>    -5.5985     0.0000  1024.0000 </r>
       <r>    -5.3561     0.0000  1024.0000 </r>
       <r>    -5.1138     0.0000  1024.0000 </r>
       <r>    -4.8714     0.0000  1024.0000 </r>
       <r>    -4.6291     0.0000  1024.0000 </r>
       <r>    -4.3868     0.0000  1024.0000 </r>
       <r>    -4.1444     0.0000  1024.0000 </r>
       <r>    -3.9021     0.0000  1024.0000 </r>
       <r>    -3.6597     0.0000  1024.0000 </r>
       <r>    -3.4174     0.0000  1024.0000 </r>
       <r>    -3.1751     0.0000  1024.0000 </r>
       <r>    -2.9327     0.0000  1024.0000 </r>
       <r>    -2.6904     0.0000  1024.0000 </r>
       <r>    -2.4480     0.0000  1024.0000 </r>
       <r>    -2.2057     0.0000  1024.0000 </r>
       <r>    -1.9634     0.0000  1024.0000 </r>
       <r>    -1.7210     0.0000  1024.0000 </r>
       <r>    -1.4787     0.0000  1024.0000 </r>
       <r>    -1.2363     0.0000  1024.0000 </r>
       <r>    -0.9940     0.0000  1024.0000 </r>
       <r>    -0.7517     0.0000  1024.0000 </r>
       <r>    -0.5093     0.0000  1024.0000 </r>
       <r>    -0.2670     0.0000  1024.0000 </r>
       <r>    -0.0246     0.0000  1024.0000 </r>
       <r>     0.2177     0.0000  1024.0000 </r>
       <r>     0.4600     0.0000  1024.0000 </r>
       <r>     0.7024     0.0000  1024.0000 </r>
       <r>     0.9447     0.0000  1024.0000 </r>
       <r>     1.1871     0.0000  1024.0000 </r>
       <r>     1.4294    -0.0000  1024.0000 </r>
       <r>     1.6717    -0.0000  1024.0000 </r>
       <r>     1.9141    -0.0000  1024.0000 </r>
       <r>     2.1564    -0.0000  1024.0000 </r>
       <r>     2.3988    -0.0000  1024.0000 </r>
       <r>     2.6411    -0.0005  1023.9999 </r>
       <r>     2.8834    -0.0297  1023.9927 </r>
       <r>     3.1258     0.2469  1024.0525 </r>
       <r>     3.3681     1.1973  1024.3427 </r>
       <r>     3.6105     5.0581  1025.5684 </r>
       <r>     3.8528     9.5554  1027.8841 </r>
       <r>     4.0951     7.9842  1029.8190 </r>
       <r>     4.3375     5.4677  1031.1440 </r>
       <r>     4.5798    10.4509  1033.6767 </r>
       <r>     4.8222    23.5756  1039.3900 </r>
       <r>     5.0645    19.4660  1044.1073 </r>
       <r>     5.3068     4.7493  1045.2583 </r>
       <r>     5.5492    15.4169  1048.9944 </r>
       <r>     5.7915    32.2884  1056.8192 </r>
       <r>     6.0339    30.1479  1064.1252 </r>
       <r>     6.2762    33.6172  1072.2720 </r>
       <r>     6.5185    55.3824  1085.6934 </r>
       <r>     6.7609    55.0126  1099.0251 </r>
       <r>     7.0032   135.6772  1131.9051 </r>
       <r>     7.2456   159.0573  1170.4511 </r>
       <r>     7.4879   119.3043  1199.3633 </r>
       <r>     7.7302   254.3049  1260.9915 </r>
       <r>     7.9726    76.0599  1279.4239 </r>
       <r>     8.2149    78.1404  1298.3604 </r>
       <r>     8.4572   125.0433  1328.6634 </r>
       <r>     8.6996   224.8132  1383.1446 </r>
       <r>     8.9419   282.0154  1451.4882 </r>
       <r>     9.1843   250.4146  1512.1736 </r>
       <r>     9.4266   219.9392  1565.4736 </r>
       <r>     9.6689   278.3915  1632.9390 </r>
       <r>     9.9113   247.9557  1693.0286 </r>
       <r>    10.1536   141.5685  1727.3362 </r>
       <r>    10.3960   101.2735  1751.8788 </r>
       <r>    10.6383    69.8531  1768.8070 </r>
       <r>    10.8806    61.8593  1783.7980 </r>
       <r>    11.1230    69.8540  1800.7264 </r>
       <r>    11.3653   121.2811  1830.1177 </r>
       <r>    11.6077   148.6539  1866.1424 </r>
       <r>    11.8500   266.0933  1930.6275 </r>
       <r>    12.0923   209.0508  1981.2888 </r>
       <r>    12.3347    82.5201  2001.2867 </r>
       <r>    12.5770    -4.9405  2000.0894 </r>
       <r>    12.8194    -0.3683  2000.0002 </r>
       <r>    13.0617    -0.0007  2000.0000 </r>
       <r>    13.3040    -0.0000  2000.0000 </r>
       <r>    13.5464    -0.0000  2000.0000 </r>
       <r>    13.7887     0.0000  2000.0000 </r>
       <r>    14.0311     0.0000  2000.0000 </r>
       <r>    14.2734     0.0000  2000.0000 </r>
       <r>    14.5157     0.0000  2000.0000 </r>
       <r>    14.7581     0.0000  2000.0000 </r>
       <r>    15.0004     0.0000  2000.0000 </r>
       <r>    15.2428     0.0000  2000.0000 </r>
       <r>    15.4851     0.0000  2000.0000 </r>
      </set>
     </set>
    </array>
   </total>
  </dos>
 </calculation>
 <structure name="finalpos" >
  <crystal>
   <varray name="basis" >
    <v>      11.96761640      -0.00000005       0.00000009 </v>
    <v>      -0.00000006      11.96761714      -0.00000010 </v>
    <v>       0.00000009      -0.00000008      11.96761612 </v>
   </varray>
   <i name="volume">   1714.04807000 </i>
   <varray name="rec_basis" >
    <v>       0.08355883       0.00000000      -0.00000000 </v>
    <v>       0.00000000       0.08355882       0.00000000 </v>
    <v>      -0.00000000       0.00000000       0.08355883 </v>
   </varray>
  </crystal>
  <varray name="positions" >
   <v>       0.37500013       0.12500023       0.62500004 </v>
   <v>       0.12500006       0.37499995       0.87500011 </v>
   <v>       0.87500004       0.87499978       0.37499983 </v>
   <v>       0.00000015       0.00000015       0.25000007 </v>
   <v>       0.74999975       0.74999991       0.24999987 </v>
   <v>       0.00000005       0.00000020       0.00000003 </v>
   <v>       0.74999994       0.74999985       0.74999983 </v>
   <v>       0.62499996       0.37499975       0.62500002 </v>
   <v>       0.12499983       0.62499991       0.12500018 </v>
   <v>       0.00000017       0.49999989       0.24999991 </v>
   <v>       0.12499991       0.37500025       0.12499998 </v>
   <v>       0.50000026       0.99999996       0.75000000 </v>
   <v>       0.50000014       0.50000002       0.24999987 </v>
   <v>       0.50000020       0.50000003       0.50000005 </v>
   <v>       0.12499983       0.62499994       0.37499963 </v>
   <v>       0.87500017       0.62499985       0.87500026 </v>
   <v>       0.37499997       0.87499991       0.37499997 </v>
   <v>       0.24999990       0.24999997       0.24999996 </v>
   <v>       0.37499991       0.12500016       0.12500003 </v>
   <v>       0.62499996       0.12500020       0.37500026 </v>
   <v>       0.62500013       0.62499965       0.87500008 </v>
   <v>       0.24999979       0.49999993       0.00000029 </v>
   <v>       0.12500000       0.87500011       0.62499995 </v>
   <v>       0.75000000       0.00000014       0.74999994 </v>
   <v>       0.12500010       0.12500005       0.37499991 </v>
   <v>       0.50000028       0.00000006       0.00000032 </v>
   <v>       0.24999971       0.00000001       0.74999980 </v>
   <v>       0.24999980       0.74999995       0.74999972 </v>
   <v>       0.74999975       0.00000007       0.24999979 </v>
   <v>       0.87499996       0.37499988       0.87500003 </v>
   <v>       0.62500012       0.62499974       0.12500022 </v>
   <v>       0.00000014       0.49999989       0.50000028 </v>
   <v>       0.50000033       0.24999991       0.00000031 </v>
   <v>       0.74999997       0.74999983       0.50000022 </v>
   <v>       0.37500001       0.87500026       0.62499976 </v>
   <v>       0.24999959       0.25000007       0.49999999 </v>
   <v>       0.12499987       0.87500005       0.87500012 </v>
   <v>       0.87500002       0.12500024       0.87499996 </v>
   <v>       0.00000010       0.74999988       0.50000021 </v>
   <v>       0.87499998       0.37500023       0.37499990 </v>
   <v>       0.87499990       0.12500007       0.37500000 </v>
   <v>       0.62500001       0.87500018       0.62499976 </v>
   <v>       0.37499996       0.37499990       0.87499989 </v>
   <v>       0.00000021       0.00000014       0.50000015 </v>
   <v>       0.75000009       0.25000010       0.74999998 </v>
   <v>       0.00000001       0.74999981       0.74999970 </v>
   <v>       0.74999993       0.49999997       0.50000025 </v>
   <v>       0.50000013       0.74999992       0.24999980 </v>
   <v>       0.00000020       0.25000009       0.25000001 </v>
   <v>       0.12499999       0.12500021       0.87499995 </v>
   <v>       0.24999997       0.74999989       0.00000019 </v>
   <v>       0.12499989       0.62499979       0.87500036 </v>
   <v>       0.00000022       0.25000008       0.50000028 </v>
   <v>       0.12499994       0.12500014       0.12499994 </v>
   <v>       0.62500001       0.37499984       0.87499982 </v>
   <v>       0.24999999       0.00000019       0.00000019 </v>
   <v>       0.12500024       0.12500017       0.62500020 </v>
   <v>       0.50000011       0.00000011       0.24999974 </v>
   <v>       0.37499982       0.62499960       0.87500014 </v>
   <v>       0.62499996       0.87499991       0.37500015 </v>
   <v>       0.50000011       0.74999989       0.50000005 </v>
   <v>       0.50000038       0.25000013       0.74999994 </v>
   <v>       0.62500009       0.87499990       0.12500014 </v>
   <v>       0.12500002       0.87499976       0.37499975 </v>
   <v>       0.87500013       0.37500025       0.12500001 </v>
   <v>       0.87499997       0.87500000       0.62499995 </v>
   <v>       0.87499986       0.37499989       0.62500006 </v>
   <v>       0.87499978       0.12500027       0.62500012 </v>
   <v>       0.12500005       0.37499995       0.62500005 </v>
   <v>       0.62500011       0.37500012       0.12500006 </v>
   <v>       0.62499985       0.12500034       0.62500001 </v>
   <v>       0.87500031       0.87499975       0.12500011 </v>
   <v>       0.37500006       0.12500013       0.37500023 </v>
   <v>       0.62500004       0.12500024       0.12499997 </v>
   <v>       0.12500000       0.62499978       0.62499983 </v>
   <v>       0.00000015       0.74999986       0.25000006 </v>
   <v>       0.24999952       0.25000009       0.74999975 </v>
   <v>       0.50000010       0.24999996       0.24999979 </v>
   <v>       0.00000000       0.49999986       0.74999973 </v>
   <v>       0.37499977       0.87499984       0.12500023 </v>
   <v>       0.37499986       0.37500014       0.12500000 </v>
   <v>       0.24999984       0.24999997       0.00000030 </v>
   <v>       0.87500021       0.62499991       0.37499967 </v>
   <v>       0.87500027       0.62499987       0.12500025 </v>
   <v>       0.37500012       0.37499982       0.62500002 </v>
   <v>       0.75000002       0.00000002       0.50000016 </v>
   <v>       0.24999998       0.74999988       0.25000002 </v>
   <v>       0.50000001       0.99999995       0.49999993 </v>
   <v>       0.50000030       0.74999998       0.00000025 </v>
   <v>       0.62499993       0.62499974       0.62499980 </v>
   <v>       0.75000003       0.49999994       0.74999986 </v>
   <v>       0.99999999       0.25000011       0.74999970 </v>
   <v>       0.24999983       0.74999993       0.50000007 </v>
   <v>       0.50000025       0.74999991       0.74999986 </v>
   <v>       0.37499995       0.12500027       0.87499972 </v>
   <v>       0.74999983       0.49999992       0.24999987 </v>
   <v>       0.74999981       0.25000007       0.24999977 </v>
   <v>       0.75000006       0.25000021       0.50000021 </v>
   <v>       0.74999988       0.49999989       0.00000003 </v>
   <v>       0.37499992       0.62499992       0.37499991 </v>
   <v>       0.12499982       0.87499971       0.12500017 </v>
   <v>       0.87500000       0.62499984       0.62499982 </v>
   <v>       0.74999967       0.00000019       0.00000011 </v>
   <v>       0.62500009       0.87500021       0.87499996 </v>
   <v>       0.62500005       0.62499989       0.37499992 </v>
   <v>       0.12500001       0.37500025       0.37499986 </v>
   <v>       0.24999976       0.00000005       0.49999995 </v>
   <v>       0.87500010       0.12500013       0.12499992 </v>
   <v>       0.37499990       0.87500022       0.87500004 </v>
   <v>       0.00000003       0.00000023       0.74999974 </v>
   <v>       0.50000014       0.25000015       0.49999993 </v>
   <v>       0.00000002       0.74999976       0.00000003 </v>
   <v>       0.74999969       0.74999985       0.00000010 </v>
   <v>       0.24999961       0.49999996       0.74999964 </v>
   <v>       0.24999999       0.00000020       0.25000007 </v>
   <v>       0.50000035       0.50000000       0.74999980 </v>
   <v>       0.50000035       0.50000005       0.00000027 </v>
   <v>       0.87500015       0.87500004       0.87500013 </v>
   <v>       0.00000000       0.25000013       0.00000002 </v>
   <v>       0.37500008       0.37500002       0.37500007 </v>
   <v>       0.37500008       0.62499970       0.62499977 </v>
   <v>       0.37499978       0.62499986       0.12500019 </v>
   <v>       0.99999998       0.49999990       0.00000006 </v>
   <v>       0.62499993       0.37499999       0.37500011 </v>
   <v>       0.74999983       0.25000006       0.00000004 </v>
   <v>       0.24999988       0.49999996       0.24999995 </v>
   <v>       0.62500004       0.12500031       0.87499976 </v>
   <v>       0.24999974       0.49999993       0.50000011 </v>
  </varray>
 </structure>
</modeling>
