Nb Ti                                   
    1.000000000000000     
    11.3232645112068262    1.0194701365105219   -0.0173573746290654
    -4.7705964659633047   10.2849915294238894    0.0012425180780034
    -0.0049056197672998    0.0314940684889779   18.4357058376778298
  Nb              Ti            
    52    76
Direct
     0.3142055745645511    0.1924246527466180    0.5622151363836639
     0.8120517109970675    0.9371916854099197    0.0626547307259609
     0.4298032969873019    0.8092110299579506    0.9384138234171816
     0.6885034844504941    0.0590697352858342    0.4417780914017504
     0.5614899438847731    0.1916775062573532    0.3113379514650523
     0.8115584828950132    0.6884838230251085    0.0623703369519350
     0.3153934161081556    0.1899336567586433    0.3163433096995006
     0.9412941314185261    0.5638441734400446    0.9360594576457308
     0.9399423763084852    0.0651068463537802    0.9388380143038307
     0.9379655257655850    0.5547399751294292    0.6899726947670122
     0.0589120928955743    0.6818619696850770    0.8119185745908675
     0.6923115067129680    0.0616745657431528    0.9345587648003769
     0.5616220797795104    0.6806857079933298    0.0561097312356246
     0.4460221685687223    0.0639594169132510    0.1880735279277972
     0.0676402915862338    0.4405618128050533    0.5594836306723464
     0.9387901270431808    0.3157385237277704    0.4378984015174964
     0.1889449175084572    0.8135045041645004    0.9355251173845450
     0.9442535542827474    0.8220386901860682    0.4388806483067085
     0.0597965704603674    0.6844197302684368    0.0582767449975128
     0.0753843463224488    0.6887199867919614    0.3162708958339210
     0.5705972097961598    0.6898174626544963    0.8123372065499035
     0.1919236932495089    0.8209906089884015    0.4355007040859487
     0.1830362017718372    0.3110277041878428    0.1910333320397367
     0.4416163172243072    0.0620653335623210    0.6898274588902772
     0.1939897677523696    0.5665624491349645    0.1862647764109592
     0.0611899198249543    0.4442988599324468    0.0665011698274348
     0.3115552881087146    0.9451490674700604    0.8118098592382965
     0.5614997485526542    0.9363333637068095    0.5626837501096380
     0.9380947254901896    0.8171159667569181    0.9368351126107823
     0.8153931938752664    0.6919139696499195    0.8130151384565903
     0.9363914462090366    0.3166294078824665    0.1886379874156568
     0.8107526297480194    0.1888728786281302    0.5636366169496033
     0.6895310854121433    0.3091030570348891    0.1888187487551525
     0.3081776232416452    0.4277614263104393    0.5614661657457950
     0.0631891559835298    0.1805766866567614    0.3131220796526618
     0.0588138598417498    0.1802475599456886    0.8138247823313147
     0.3042343566121541    0.4443109963467798    0.8157686984327973
     0.9404761584094783    0.0664227207281319    0.4346740223929079
     0.6848200306811540    0.5536425924714206    0.4355503402814654
     0.5622919534772574    0.1892259554929513    0.0650926544148070
     0.5744226058184498    0.6969571050585602    0.5616654044365137
     0.6818219593958015    0.8135097857025748    0.9375493412548230
     0.5785228900798811    0.7005331846432847    0.3120603945194484
     0.3147922073028627    0.4308324017469015    0.3114035209838913
     0.6904517320937361    0.8096823829533749    0.4369645519989430
     0.6866595888861332    0.0642387617224183    0.6861987028039065
     0.3090571514365126    0.1931262079500830    0.8145573932617658
     0.8144770395015515    0.4354146530854483    0.5660896652925211
     0.4367144908412355    0.3063546578337264    0.6871385081506571
     0.6909268361807188    0.3095453758971339    0.4356442868622133
     0.6928154538830744    0.3014287407703605    0.9420585317805551
     0.6879385329166656    0.0548459220327786    0.1910060748334409
     0.8046840872712903    0.4430438452502264    0.8194343835479041
     0.1835523381383607    0.3107133241157555    0.4364354004314152
     0.9110686992645624    0.7930359193029631    0.6846858294380966
     0.0584282398859654    0.9341337530001793    0.8064523765532744
     0.4576582791152370    0.3129383735574960    0.9273108691292585
     0.9435386147641101    0.0631454420510671    0.1866089357495007
     0.8147872725319605    0.9360034790591923    0.5612745216057387
     0.5595323799603575    0.9356778893245304    0.0616686618466427
     0.8124718053176735    0.4393749926699445    0.0642738252553657
     0.4358916839398373    0.0552754723760243    0.4341012425652461
     0.4173964369240989    0.8154385921480820    0.1890292645075984
     0.5522326301847258    0.4332574034170831    0.0595149998397397
     0.8116866095272417    0.1860862036428410    0.3139666203565471
     0.4376004729624235    0.5565486356008597    0.9375034918866730
     0.8194727363977946    0.6784543896015595    0.5543748753165734
     0.3010114007249955    0.4387384049597536    0.0683263492844920
     0.2045650694709039    0.0720673931081037    0.1859499403653940
     0.8101757022726888    0.9442576598858070    0.8155595284060854
     0.5563928796236962    0.9420101050515857    0.3149243508381966
     0.1826997858050455    0.0555089633453750    0.9402410232588716
     0.0784597924468727    0.6884744932379100    0.5632730208182913
     0.8146776066905960    0.4381093243085159    0.3121249973827700
     0.3139907322279220    0.6894455721278706    0.0612302256261500
     0.0684510013069706    0.1920177330276052    0.0614955719808176
     0.4399921243139844    0.5614938637415372    0.4370110911953843
     0.3222991284141387    0.6684911284952565    0.5605591858824843
     0.1679087908302334    0.8205937124697924    0.6907212648532892
     0.5623598798650465    0.1898365746655246    0.8158085833744166
     0.8229714248474075    0.6844559316706553    0.3192221027374758
     0.4397682722540297    0.0600588301082761    0.9409766532144562
     0.5619393258808530    0.4442461676226255    0.3120907782499748
     0.6604275331078922    0.8025368751494197    0.1783805414634266
     0.9439474056891549    0.3070239011177418    0.6785620064394186
     0.3224931859750836    0.2026990865243334    0.0534674159544141
     0.1895487613530851    0.5708536551372934    0.4356835252253446
     0.3253513202077203    0.6804121338155168    0.3118297329517934
     0.9455637067891537    0.5716318597090637    0.1890236540338444
     0.6945152572336738    0.5715558374767783    0.6859433531539327
     0.4190905911021221    0.8113875775320770    0.6816167464070565
     0.1623418824597217    0.8110406723587203    0.1846122711005145
     0.9038638260808902    0.8043767041200087    0.1903489351252399
     0.0559720454458244    0.9316463318459598    0.0707286856107264
     0.4333362409554905    0.3119210084887717    0.1869974590729351
     0.3220900453310436    0.6980097025985104    0.8121697148974659
     0.4430747679333327    0.3112754202890364    0.4404439098046227
     0.2014067728002440    0.3091573758255953    0.9379779439357130
     0.3107307747528064    0.9326478360083358    0.5638601696764838
     0.4431270356137331    0.5696979794678170    0.1892218671424664
     0.1930486565648395    0.3216096660006601    0.6923476946560307
     0.4362408291466123    0.8057122300890616    0.4407666499821454
     0.8190787658439482    0.1999423841122741    0.8099712146715156
     0.0679360213009345    0.4348349669429168    0.3117404026011290
     0.5563060729811012    0.4447479364074386    0.8043697307582949
     0.3068399536850865    0.9359344808926872    0.3069356873527788
     0.6905749288826762    0.3131335450675830    0.6901930817233580
     0.0597835868015274    0.1858917207472557    0.5657537796280935
     0.5624693648485842    0.4419275422988977    0.5648777423865872
     0.1857479482642616    0.0607229667835401    0.4386537174036216
     0.9445701397404567    0.3150014307151612    0.9422386195587604
     0.0565486111330304    0.9315381840832839    0.3072347178116295
     0.6918944512971361    0.5609460408355934    0.1874434610310013
     0.1891556742414111    0.5729333950732675    0.6866860091018600
     0.9381349896530355    0.5684837703690506    0.4391493321152771
     0.8102573561882428    0.1819125135619365    0.0670916803808248
     0.3087511326956472    0.9427352977678939    0.0653550459137209
     0.8063002008631551    0.9330980427163309    0.3087469398928884
     0.0595804885120618    0.9322889134869443    0.5710228106622756
     0.5596362161031206    0.1875780106381918    0.5616462515530932
     0.5538707966881035    0.9320199209499733    0.8102736626761775
     0.1896597170090054    0.5574302311987435    0.9353824145156066
     0.4373438815122412    0.5630647394771755    0.6871160526821491
     0.6747127161211971    0.8196815439968712    0.6911584436753747
     0.9418272997717108    0.0493864178105613    0.6881604438656719
     0.6904539250241256    0.5576654865372571    0.9360400914850441
     0.0519175813867420    0.4279972941444643    0.8092003411540412
     0.2007527336091618    0.0775894053043884    0.6877095184683096
 
  0.00000000E+00  0.00000000E+00  0.00000000E+00
  0.00000000E+00  0.00000000E+00  0.00000000E+00
  0.00000000E+00  0.00000000E+00  0.00000000E+00
  0.00000000E+00  0.00000000E+00  0.00000000E+00
  0.00000000E+00  0.00000000E+00  0.00000000E+00
  0.00000000E+00  0.00000000E+00  0.00000000E+00
  0.00000000E+00  0.00000000E+00  0.00000000E+00
  0.00000000E+00  0.00000000E+00  0.00000000E+00
  0.00000000E+00  0.00000000E+00  0.00000000E+00
  0.00000000E+00  0.00000000E+00  0.00000000E+00
  0.00000000E+00  0.00000000E+00  0.00000000E+00
  0.00000000E+00  0.00000000E+00  0.00000000E+00
  0.00000000E+00  0.00000000E+00  0.00000000E+00
  0.00000000E+00  0.00000000E+00  0.00000000E+00
  0.00000000E+00  0.00000000E+00  0.00000000E+00
  0.00000000E+00  0.00000000E+00  0.00000000E+00
  0.00000000E+00  0.00000000E+00  0.00000000E+00
  0.00000000E+00  0.00000000E+00  0.00000000E+00
  0.00000000E+00  0.00000000E+00  0.00000000E+00
  0.00000000E+00  0.00000000E+00  0.00000000E+00
  0.00000000E+00  0.00000000E+00  0.00000000E+00
  0.00000000E+00  0.00000000E+00  0.00000000E+00
  0.00000000E+00  0.00000000E+00  0.00000000E+00
  0.00000000E+00  0.00000000E+00  0.00000000E+00
  0.00000000E+00  0.00000000E+00  0.00000000E+00
  0.00000000E+00  0.00000000E+00  0.00000000E+00
  0.00000000E+00  0.00000000E+00  0.00000000E+00
  0.00000000E+00  0.00000000E+00  0.00000000E+00
  0.00000000E+00  0.00000000E+00  0.00000000E+00
  0.00000000E+00  0.00000000E+00  0.00000000E+00
  0.00000000E+00  0.00000000E+00  0.00000000E+00
  0.00000000E+00  0.00000000E+00  0.00000000E+00
  0.00000000E+00  0.00000000E+00  0.00000000E+00
  0.00000000E+00  0.00000000E+00  0.00000000E+00
  0.00000000E+00  0.00000000E+00  0.00000000E+00
  0.00000000E+00  0.00000000E+00  0.00000000E+00
  0.00000000E+00  0.00000000E+00  0.00000000E+00
  0.00000000E+00  0.00000000E+00  0.00000000E+00
  0.00000000E+00  0.00000000E+00  0.00000000E+00
  0.00000000E+00  0.00000000E+00  0.00000000E+00
  0.00000000E+00  0.00000000E+00  0.00000000E+00
  0.00000000E+00  0.00000000E+00  0.00000000E+00
  0.00000000E+00  0.00000000E+00  0.00000000E+00
  0.00000000E+00  0.00000000E+00  0.00000000E+00
  0.00000000E+00  0.00000000E+00  0.00000000E+00
  0.00000000E+00  0.00000000E+00  0.00000000E+00
  0.00000000E+00  0.00000000E+00  0.00000000E+00
  0.00000000E+00  0.00000000E+00  0.00000000E+00
  0.00000000E+00  0.00000000E+00  0.00000000E+00
  0.00000000E+00  0.00000000E+00  0.00000000E+00
  0.00000000E+00  0.00000000E+00  0.00000000E+00
  0.00000000E+00  0.00000000E+00  0.00000000E+00
  0.00000000E+00  0.00000000E+00  0.00000000E+00
  0.00000000E+00  0.00000000E+00  0.00000000E+00
  0.00000000E+00  0.00000000E+00  0.00000000E+00
  0.00000000E+00  0.00000000E+00  0.00000000E+00
  0.00000000E+00  0.00000000E+00  0.00000000E+00
  0.00000000E+00  0.00000000E+00  0.00000000E+00
  0.00000000E+00  0.00000000E+00  0.00000000E+00
  0.00000000E+00  0.00000000E+00  0.00000000E+00
  0.00000000E+00  0.00000000E+00  0.00000000E+00
  0.00000000E+00  0.00000000E+00  0.00000000E+00
  0.00000000E+00  0.00000000E+00  0.00000000E+00
  0.00000000E+00  0.00000000E+00  0.00000000E+00
  0.00000000E+00  0.00000000E+00  0.00000000E+00
  0.00000000E+00  0.00000000E+00  0.00000000E+00
  0.00000000E+00  0.00000000E+00  0.00000000E+00
  0.00000000E+00  0.00000000E+00  0.00000000E+00
  0.00000000E+00  0.00000000E+00  0.00000000E+00
  0.00000000E+00  0.00000000E+00  0.00000000E+00
  0.00000000E+00  0.00000000E+00  0.00000000E+00
  0.00000000E+00  0.00000000E+00  0.00000000E+00
  0.00000000E+00  0.00000000E+00  0.00000000E+00
  0.00000000E+00  0.00000000E+00  0.00000000E+00
  0.00000000E+00  0.00000000E+00  0.00000000E+00
  0.00000000E+00  0.00000000E+00  0.00000000E+00
  0.00000000E+00  0.00000000E+00  0.00000000E+00
  0.00000000E+00  0.00000000E+00  0.00000000E+00
  0.00000000E+00  0.00000000E+00  0.00000000E+00
  0.00000000E+00  0.00000000E+00  0.00000000E+00
  0.00000000E+00  0.00000000E+00  0.00000000E+00
  0.00000000E+00  0.00000000E+00  0.00000000E+00
  0.00000000E+00  0.00000000E+00  0.00000000E+00
  0.00000000E+00  0.00000000E+00  0.00000000E+00
  0.00000000E+00  0.00000000E+00  0.00000000E+00
  0.00000000E+00  0.00000000E+00  0.00000000E+00
  0.00000000E+00  0.00000000E+00  0.00000000E+00
  0.00000000E+00  0.00000000E+00  0.00000000E+00
  0.00000000E+00  0.00000000E+00  0.00000000E+00
  0.00000000E+00  0.00000000E+00  0.00000000E+00
  0.00000000E+00  0.00000000E+00  0.00000000E+00
  0.00000000E+00  0.00000000E+00  0.00000000E+00
  0.00000000E+00  0.00000000E+00  0.00000000E+00
  0.00000000E+00  0.00000000E+00  0.00000000E+00
  0.00000000E+00  0.00000000E+00  0.00000000E+00
  0.00000000E+00  0.00000000E+00  0.00000000E+00
  0.00000000E+00  0.00000000E+00  0.00000000E+00
  0.00000000E+00  0.00000000E+00  0.00000000E+00
  0.00000000E+00  0.00000000E+00  0.00000000E+00
  0.00000000E+00  0.00000000E+00  0.00000000E+00
  0.00000000E+00  0.00000000E+00  0.00000000E+00
  0.00000000E+00  0.00000000E+00  0.00000000E+00
  0.00000000E+00  0.00000000E+00  0.00000000E+00
  0.00000000E+00  0.00000000E+00  0.00000000E+00
  0.00000000E+00  0.00000000E+00  0.00000000E+00
  0.00000000E+00  0.00000000E+00  0.00000000E+00
  0.00000000E+00  0.00000000E+00  0.00000000E+00
  0.00000000E+00  0.00000000E+00  0.00000000E+00
  0.00000000E+00  0.00000000E+00  0.00000000E+00
  0.00000000E+00  0.00000000E+00  0.00000000E+00
  0.00000000E+00  0.00000000E+00  0.00000000E+00
  0.00000000E+00  0.00000000E+00  0.00000000E+00
  0.00000000E+00  0.00000000E+00  0.00000000E+00
  0.00000000E+00  0.00000000E+00  0.00000000E+00
  0.00000000E+00  0.00000000E+00  0.00000000E+00
  0.00000000E+00  0.00000000E+00  0.00000000E+00
  0.00000000E+00  0.00000000E+00  0.00000000E+00
  0.00000000E+00  0.00000000E+00  0.00000000E+00
  0.00000000E+00  0.00000000E+00  0.00000000E+00
  0.00000000E+00  0.00000000E+00  0.00000000E+00
  0.00000000E+00  0.00000000E+00  0.00000000E+00
  0.00000000E+00  0.00000000E+00  0.00000000E+00
  0.00000000E+00  0.00000000E+00  0.00000000E+00
  0.00000000E+00  0.00000000E+00  0.00000000E+00
  0.00000000E+00  0.00000000E+00  0.00000000E+00
  0.00000000E+00  0.00000000E+00  0.00000000E+00
  0.00000000E+00  0.00000000E+00  0.00000000E+00
  0.00000000E+00  0.00000000E+00  0.00000000E+00
