Hf Nb                                   
    1.000000000000000     
    11.7441721480880101    1.0457715536602208   -0.0357500004949469
    -4.9981284992594883   10.7037092835634482   -0.0188624900858710
     0.0383116218895669    0.0970662187639905   19.1034376238957790
  Hf             Nb           
              48              80
Direct
  0.6841514013709233  0.0688147509527126  0.1898876142710148
  0.3108252337072987  0.4440599022893179  0.0522909645055899
  0.5675632754995968  0.6917604096180648  0.8097246759468835
  0.8094678426222195  0.6813701382198037  0.0601178592702895
  0.9304895757978812  0.8095893759897275  0.1942365045139123
  0.1855782066554362  0.0647646213223186  0.4438553256840850
  0.1825930950788354  0.2959157739742410  0.9297911656571454
  0.8105540116962993  0.1775626585268991  0.3269883437332848
  0.4222925285801834  0.0592840598501996  0.1785257683440450
  0.3283182398834700  0.4326335647445916  0.8050905350887376
  0.4379569792352965  0.7997532811033131  0.9342268954786687
  0.3129460321194786  0.1804903582763696  0.3075560336204404
  0.0746821590604645  0.4337069749612119  0.8009901562186613
  0.9306574856304330  0.3091409154227197  0.1929547901562896
  0.5649029630032057  0.4406462790491963  0.5618043235378516
  0.1883149185368650  0.8059072672683256  0.1851504916951841
  0.0598667988856043  0.9407762792367298  0.8079763830094248
  0.4355995251567098  0.0627231443855107  0.6894637447926840
  0.3128022305317084  0.9276916484509717  0.3166327137946731
  0.3073685844899398  0.6959973601673122  0.0749840357399958
  0.1912851600170418  0.5671920470400229  0.9374916803659801
  0.0590011839612621  0.4360008358593309  0.5621168092290098
  0.0520760605081098  0.6817639021107411  0.8124934392705115
  0.0618639235314320  0.4446294559900729  0.0681978703056700
  0.0713446955770574  0.1829065112714565  0.5649380128740169
  0.5583065853995250  0.6910722035762659  0.0512178191630293
  0.6893627149831891  0.3137859706841166  0.4420872538949610
  0.5669143208635037  0.4382525034472090  0.0601897496255143
  0.9358705448707276  0.0610989053697283  0.1831566320626248
  0.0644596543383427  0.6935962013117161  0.5667160195806477
  0.9312363506868832  0.3136202769330411  0.9352217515643351
  0.4401883865090604  0.5614324056428065  0.4451130528631429
  0.4376090525441254  0.5651859342939735  0.1835464984605572
  0.6897761229681920  0.8094672316524798  0.4446717512322332
  0.0682819813451278  0.1987541683730130  0.3145702571750680
  0.9346881691407770  0.5559762044714116  0.4382289007474836
  0.5657810371064087  0.6856415466831273  0.3129480917349733
  0.8107542814774350  0.1906904027370162  0.5628192154671096
  0.4428270090444186  0.0671190223562994  0.9356766778589946
  0.3071292451602030  0.6910159916302354  0.8007665912034414
  0.3100844155349862  0.4358582553058486  0.3116893075163218
  0.5679819268496877  0.1898671633978154  0.3058163642259543
  0.9440040036352262  0.5642501451157578  0.1844437404925105
  0.8136811289983314  0.4379962445420906  0.8134573250890090
  0.9213268328706891  0.0481051398776968  0.4388991925007152
  0.3125167587596121  0.1874277551194756  0.0623742354193085
  0.4412004363921634  0.0688900327350929  0.4451116865125450
  0.5567983825066027  0.9431638842028741  0.0608262296643506
  0.3247373975699296  0.1903006505019323  0.5683547198085709
  0.5665947503003217  0.4370448284185670  0.3127773049139481
  0.0668700559135348  0.6954547962160169  0.3158866652963155
  0.8041449998930290  0.4345539319794058  0.3085518236294672
  0.9342148491056276  0.5582084252841145  0.6859146757019808
  0.1708587968680729  0.0521617515713207  0.1898627152045104
  0.1972166716764639  0.8229354622829399  0.6904059034159001
  0.9625496417089754  0.3100676909983646  0.4352520831487185
  0.8159517005068758  0.6824297419315606  0.3186902110886872
  0.4369817270036082  0.3166487746051397  0.6892530690753975
  0.9369436612406692  0.8146392011275564  0.9347815662172252
  0.3091885782828888  0.6842621667602424  0.3161647939289720
  0.6829235858557148  0.3092781846540243  0.6856146809424341
  0.8060240872774777  0.9229073421484905  0.3082718716687637
  0.5720658965907048  0.1938012816115972  0.8104569692889820
  0.4438071079887883  0.5665548859744723  0.6813068119928110
  0.6923097363072803  0.8155596068884688  0.6852703906341457
  0.3115487893856946  0.4351007643156558  0.5699652708390425
  0.9371033010191118  0.0598694785089072  0.6914226899206012
  0.0566142013841421  0.1835239536383096  0.8051904220392874
  0.5690743328045798  0.4341485116534786  0.8082680047310478
  0.6716152398330181  0.0470058125292350  0.4453226988053134
  0.2001636798888635  0.3297153458222883  0.4445890048313599
  0.6977802961362559  0.0678969582224934  0.9336564974642695
  0.8133772735364289  0.4288000977184293  0.0573358777752489
  0.8121366484718296  0.1816843167317030  0.0596650430574493
  0.7012223830732727  0.8240442911205395  0.9357399678881558
  0.1851374175025652  0.8208394378035901  0.9344610004700532
  0.8155839756472796  0.9360060654079264  0.5732805048166137
  0.3029249045772961  0.9312163175609711  0.5640983441143225
  0.9486323462438548  0.8114117775280796  0.4415759100917841
  0.4455756479647134  0.8149829007230966  0.6831908948265460
  0.0600764627830823  0.6944808638680929  0.0528807687571335
  0.9381936187894733  0.8079390304007894  0.6842739243006011
  0.4508008517125188  0.8204686870239604  0.2021198348211247
  0.5771114226803620  0.1924450394964948  0.0625639803807338
  0.5607622174842246  0.9412028970165148  0.5663608005392526
  0.8148984318380269  0.4483085516686606  0.5738223383527528
  0.1924252206227796  0.5690648958020993  0.4376413364893721
  0.5633825285073388  0.6940046325855376  0.5708935714060651
  0.6827002625721492  0.8122719067328470  0.1840268630562842
  0.0540012564618955  0.1834648848790798  0.0572624060680993
  0.5600449177188273  0.9470164947395566  0.8096998927101217
  0.4419985011635982  0.3154180629723261  0.9292808058687868
  0.5611806060081224  0.1880883751555644  0.5694441362720819
  0.1911192216840988  0.5747208871550510  0.6777749487297888
  0.0556506097749198  0.9378183105590706  0.0613638798616012
  0.0590376494163357  0.9342569409208468  0.5687756803762637
  0.8081337721732120  0.6868421739677735  0.5628882095548239
  0.1894191185154634  0.3014673128029691  0.1814620328055946
  0.6903785853342085  0.5703606581344981  0.1941668159294282
  0.0582048949177818  0.9400486641783128  0.3164159559069167
  0.6886160751056949  0.0618233748566513  0.6902221723000713
  0.0544582228025539  0.4476053602790396  0.3182639723697556
  0.3122922257133989  0.1761954456170673  0.8100438521301021
  0.8162580881211553  0.6989539340916365  0.8100688522573376
  0.1829930001526076  0.3144684854224355  0.6867679502039231
  0.3178474275152378  0.6893493312198071  0.5624923666202366
  0.1819963365617669  0.0514508488600090  0.9380804638019979
  0.8118039884442176  0.9369954243495486  0.0576636010287388
  0.8046400514076004  0.9374337716612594  0.8114140860689780
  0.6927412794008624  0.5662768774680953  0.6903451179422312
  0.5704459448178019  0.9353585807078493  0.3211597205792935
  0.1862073598778302  0.8071766620422756  0.4396805143087476
  0.1851627009340980  0.0672295842914967  0.6834678667097674
  0.6908042956443016  0.5655701990945583  0.4304024949669754
  0.2936071113276750  0.9362977777215666  0.0516453741679318
  0.9268622961464488  0.3099127343460480  0.6892764085501280
  0.4248373711582175  0.3091926548724082  0.4370835628899862
  0.6865600548774845  0.3279620086021588  0.1812106470169490
  0.9283803982805389  0.5695811051278359  0.9445683021129768
  0.4297782707380294  0.8114075150350721  0.4401736193801836
  0.6794807391448837  0.3072712649963411  0.9384754290488877
  0.4489112924524299  0.5437252780992364  0.9334155031507203
  0.6878572352699677  0.5644809106783528  0.9296343602318698
  0.8098105998735180  0.1809969929828198  0.8088684410314178
  0.3121256399577086  0.9387645106978818  0.8132195130012049
  0.1838932476586026  0.5436212073408897  0.2009793513704533
  0.9404082498603956  0.0625059202774564  0.9348152251103254
  0.4465460599158282  0.3182999594211127  0.1918301806751600
 
  0.00000000E+00  0.00000000E+00  0.00000000E+00
  0.00000000E+00  0.00000000E+00  0.00000000E+00
  0.00000000E+00  0.00000000E+00  0.00000000E+00
  0.00000000E+00  0.00000000E+00  0.00000000E+00
  0.00000000E+00  0.00000000E+00  0.00000000E+00
  0.00000000E+00  0.00000000E+00  0.00000000E+00
  0.00000000E+00  0.00000000E+00  0.00000000E+00
  0.00000000E+00  0.00000000E+00  0.00000000E+00
  0.00000000E+00  0.00000000E+00  0.00000000E+00
  0.00000000E+00  0.00000000E+00  0.00000000E+00
  0.00000000E+00  0.00000000E+00  0.00000000E+00
  0.00000000E+00  0.00000000E+00  0.00000000E+00
  0.00000000E+00  0.00000000E+00  0.00000000E+00
  0.00000000E+00  0.00000000E+00  0.00000000E+00
  0.00000000E+00  0.00000000E+00  0.00000000E+00
  0.00000000E+00  0.00000000E+00  0.00000000E+00
  0.00000000E+00  0.00000000E+00  0.00000000E+00
  0.00000000E+00  0.00000000E+00  0.00000000E+00
  0.00000000E+00  0.00000000E+00  0.00000000E+00
  0.00000000E+00  0.00000000E+00  0.00000000E+00
  0.00000000E+00  0.00000000E+00  0.00000000E+00
  0.00000000E+00  0.00000000E+00  0.00000000E+00
  0.00000000E+00  0.00000000E+00  0.00000000E+00
  0.00000000E+00  0.00000000E+00  0.00000000E+00
  0.00000000E+00  0.00000000E+00  0.00000000E+00
  0.00000000E+00  0.00000000E+00  0.00000000E+00
  0.00000000E+00  0.00000000E+00  0.00000000E+00
  0.00000000E+00  0.00000000E+00  0.00000000E+00
  0.00000000E+00  0.00000000E+00  0.00000000E+00
  0.00000000E+00  0.00000000E+00  0.00000000E+00
  0.00000000E+00  0.00000000E+00  0.00000000E+00
  0.00000000E+00  0.00000000E+00  0.00000000E+00
  0.00000000E+00  0.00000000E+00  0.00000000E+00
  0.00000000E+00  0.00000000E+00  0.00000000E+00
  0.00000000E+00  0.00000000E+00  0.00000000E+00
  0.00000000E+00  0.00000000E+00  0.00000000E+00
  0.00000000E+00  0.00000000E+00  0.00000000E+00
  0.00000000E+00  0.00000000E+00  0.00000000E+00
  0.00000000E+00  0.00000000E+00  0.00000000E+00
  0.00000000E+00  0.00000000E+00  0.00000000E+00
  0.00000000E+00  0.00000000E+00  0.00000000E+00
  0.00000000E+00  0.00000000E+00  0.00000000E+00
  0.00000000E+00  0.00000000E+00  0.00000000E+00
  0.00000000E+00  0.00000000E+00  0.00000000E+00
  0.00000000E+00  0.00000000E+00  0.00000000E+00
  0.00000000E+00  0.00000000E+00  0.00000000E+00
  0.00000000E+00  0.00000000E+00  0.00000000E+00
  0.00000000E+00  0.00000000E+00  0.00000000E+00
  0.00000000E+00  0.00000000E+00  0.00000000E+00
  0.00000000E+00  0.00000000E+00  0.00000000E+00
  0.00000000E+00  0.00000000E+00  0.00000000E+00
  0.00000000E+00  0.00000000E+00  0.00000000E+00
  0.00000000E+00  0.00000000E+00  0.00000000E+00
  0.00000000E+00  0.00000000E+00  0.00000000E+00
  0.00000000E+00  0.00000000E+00  0.00000000E+00
  0.00000000E+00  0.00000000E+00  0.00000000E+00
  0.00000000E+00  0.00000000E+00  0.00000000E+00
  0.00000000E+00  0.00000000E+00  0.00000000E+00
  0.00000000E+00  0.00000000E+00  0.00000000E+00
  0.00000000E+00  0.00000000E+00  0.00000000E+00
  0.00000000E+00  0.00000000E+00  0.00000000E+00
  0.00000000E+00  0.00000000E+00  0.00000000E+00
  0.00000000E+00  0.00000000E+00  0.00000000E+00
  0.00000000E+00  0.00000000E+00  0.00000000E+00
  0.00000000E+00  0.00000000E+00  0.00000000E+00
  0.00000000E+00  0.00000000E+00  0.00000000E+00
  0.00000000E+00  0.00000000E+00  0.00000000E+00
  0.00000000E+00  0.00000000E+00  0.00000000E+00
  0.00000000E+00  0.00000000E+00  0.00000000E+00
  0.00000000E+00  0.00000000E+00  0.00000000E+00
  0.00000000E+00  0.00000000E+00  0.00000000E+00
  0.00000000E+00  0.00000000E+00  0.00000000E+00
  0.00000000E+00  0.00000000E+00  0.00000000E+00
  0.00000000E+00  0.00000000E+00  0.00000000E+00
  0.00000000E+00  0.00000000E+00  0.00000000E+00
  0.00000000E+00  0.00000000E+00  0.00000000E+00
  0.00000000E+00  0.00000000E+00  0.00000000E+00
  0.00000000E+00  0.00000000E+00  0.00000000E+00
  0.00000000E+00  0.00000000E+00  0.00000000E+00
  0.00000000E+00  0.00000000E+00  0.00000000E+00
  0.00000000E+00  0.00000000E+00  0.00000000E+00
  0.00000000E+00  0.00000000E+00  0.00000000E+00
  0.00000000E+00  0.00000000E+00  0.00000000E+00
  0.00000000E+00  0.00000000E+00  0.00000000E+00
  0.00000000E+00  0.00000000E+00  0.00000000E+00
  0.00000000E+00  0.00000000E+00  0.00000000E+00
  0.00000000E+00  0.00000000E+00  0.00000000E+00
  0.00000000E+00  0.00000000E+00  0.00000000E+00
  0.00000000E+00  0.00000000E+00  0.00000000E+00
  0.00000000E+00  0.00000000E+00  0.00000000E+00
  0.00000000E+00  0.00000000E+00  0.00000000E+00
  0.00000000E+00  0.00000000E+00  0.00000000E+00
  0.00000000E+00  0.00000000E+00  0.00000000E+00
  0.00000000E+00  0.00000000E+00  0.00000000E+00
  0.00000000E+00  0.00000000E+00  0.00000000E+00
  0.00000000E+00  0.00000000E+00  0.00000000E+00
  0.00000000E+00  0.00000000E+00  0.00000000E+00
  0.00000000E+00  0.00000000E+00  0.00000000E+00
  0.00000000E+00  0.00000000E+00  0.00000000E+00
  0.00000000E+00  0.00000000E+00  0.00000000E+00
  0.00000000E+00  0.00000000E+00  0.00000000E+00
  0.00000000E+00  0.00000000E+00  0.00000000E+00
  0.00000000E+00  0.00000000E+00  0.00000000E+00
  0.00000000E+00  0.00000000E+00  0.00000000E+00
  0.00000000E+00  0.00000000E+00  0.00000000E+00
  0.00000000E+00  0.00000000E+00  0.00000000E+00
  0.00000000E+00  0.00000000E+00  0.00000000E+00
  0.00000000E+00  0.00000000E+00  0.00000000E+00
  0.00000000E+00  0.00000000E+00  0.00000000E+00
  0.00000000E+00  0.00000000E+00  0.00000000E+00
  0.00000000E+00  0.00000000E+00  0.00000000E+00
  0.00000000E+00  0.00000000E+00  0.00000000E+00
  0.00000000E+00  0.00000000E+00  0.00000000E+00
  0.00000000E+00  0.00000000E+00  0.00000000E+00
  0.00000000E+00  0.00000000E+00  0.00000000E+00
  0.00000000E+00  0.00000000E+00  0.00000000E+00
  0.00000000E+00  0.00000000E+00  0.00000000E+00
  0.00000000E+00  0.00000000E+00  0.00000000E+00
  0.00000000E+00  0.00000000E+00  0.00000000E+00
  0.00000000E+00  0.00000000E+00  0.00000000E+00
  0.00000000E+00  0.00000000E+00  0.00000000E+00
  0.00000000E+00  0.00000000E+00  0.00000000E+00
  0.00000000E+00  0.00000000E+00  0.00000000E+00
  0.00000000E+00  0.00000000E+00  0.00000000E+00
  0.00000000E+00  0.00000000E+00  0.00000000E+00
  0.00000000E+00  0.00000000E+00  0.00000000E+00
  0.00000000E+00  0.00000000E+00  0.00000000E+00
  0.00000000E+00  0.00000000E+00  0.00000000E+00
