Hf Nb                                   
    1.000000000000000     
    13.7549414711848570   -0.0082369273763543   -0.0276793659228321
    -6.9226399406823695    9.7384105709684174    0.0262364715078524
    -0.0430629813174493    0.0233706601391258   19.6147514175943307
  Hf             Nb           
              76              52
Direct
  0.4394657127207187  0.8727374080816307  0.6863531250134700
  0.9372947018142389  0.8876216102464700  0.4339020774728808
  0.4395670705006279  0.3767856737186333  0.1915579285197588
  0.9565948952982162  0.3812389399566153  0.2030826896306824
  0.2027637827382339  0.8837425255713812  0.1843454398264064
  0.9394994813807489  0.8905443587783749  0.9501666736863146
  0.4443141891178526  0.8708892848251082  0.9353138696708475
  0.0667782625868402  0.1238498627534767  0.5598681623583531
  0.0610508456111117  0.6142308055686559  0.3112155526247630
  0.8340591156609988  0.1402904259134504  0.3160728721715825
  0.7992295595011010  0.3627511046730720  0.5565857846602658
  0.5667721715923086  0.6254363106035158  0.0637030186946103
  0.6782298773032718  0.3646245680570440  0.9519304543826697
  0.6936598106534727  0.1398762596296625  0.1898776759105662
  0.6838213814828019  0.8814082773678279  0.4350807414379514
  0.4468871367024777  0.8750939057613973  0.4323611409462375
  0.4465072540847963  0.1286466502215372  0.6783728868575857
  0.6939526681581335  0.3870223509462277  0.6873337580411224
  0.4365389638148565  0.8737209073452800  0.1868173556046869
  0.4237317548394641  0.3685964606675323  0.4291279606495317
  0.8226991663644569  0.8872119276564993  0.8141415828694959
  0.3003973878293011  0.1152582302849522  0.7967543105310527
  0.9430911994637972  0.3863976337451239  0.4319971048614128
  0.0612855438915465  0.8714202992052527  0.5608663180778529
  0.5627186180502685  0.1210690893086647  0.0598982304924480
  0.3260950104743455  0.3807559636297247  0.8268075964623300
  0.6745254903664661  0.8694547455393328  0.6877083577084416
  0.1997979806583564  0.6228549096084266  0.4331616135770764
  0.7015227070823769  0.6302286820497042  0.9305296815129388
  0.9232193137148114  0.3865191810682254  0.6876438532585130
  0.6889055256170675  0.1386083326467674  0.4415041131426271
  0.6848338105762560  0.8770656533008533  0.9412628433497452
  0.0712566691413981  0.8754631861760303  0.3112119976005660
  0.8099905217848246  0.6262862933486399  0.3207978010620683
  0.3284595188735507  0.6430543891073525  0.3058873109182387
  0.9427972169318987  0.6531048115825174  0.6773352732962926
  0.0599477529856802  0.1224733555160923  0.3158818484422340
  0.0503413684164999  0.3660129261496349  0.8098779773423864
  0.1971830310035647  0.8713147298247875  0.6906627505788617
  0.3191204592314539  0.1370048826213246  0.3089520014252257
  0.5552762394013329  0.3594413565995919  0.8207292655911098
  0.8038735284131800  0.1131502986927528  0.0572722783959769
  0.1961859907852650  0.1243091763702274  0.9371911325882838
  0.6794213694167726  0.6238480350377845  0.4445507279440615
  0.1735748927006677  0.3648783865361747  0.9374210449205792
  0.0770401246323757  0.6403804430697634  0.8042111753784541
  0.4555582896948801  0.3806006888885795  0.9581180664295872
  0.0646935990258763  0.3792489683260704  0.0684087593488495
  0.9310812420422580  0.6321364425257829  0.1896503982732996
  0.0717311601803314  0.6515341961513994  0.0681458508759674
  0.9373337449144817  0.6240503329430773  0.9350206170398131
  0.5599502186769232  0.3700292102973285  0.5571886329214116
  0.3223676344453790  0.1257502963492440  0.0694146201237457
  0.7998756730698463  0.8616234415763174  0.5619080607172227
  0.7977683019645845  0.8681275588445527  0.3031062785924934
  0.7944667813018579  0.3647896653884525  0.3076400192385439
  0.4355466550891416  0.1233718322415017  0.4418446063583741
  0.5483885299300578  0.6144355470639898  0.3082156079144804
  0.0485390590030167  0.8728524188560507  0.8164470514401844
  0.5646180654496450  0.6331800497761565  0.8045126836907449
  0.3002168558672768  0.3719347390626487  0.0685596439747110
  0.6766618914011240  0.8674898430935640  0.1779902116309355
  0.5398019263884632  0.1020399166348402  0.3108073554293749
  0.1757470242315095  0.6205035775239882  0.9417140643209907
  0.9344396040992055  0.1258558490096391  0.6934533379924893
  0.3264383632667864  0.6415086201015862  0.8175361524784692
  0.1976447636657578  0.3461742611247174  0.6881666339754733
  0.4373146706703928  0.3763451835727311  0.6871117254535418
  0.1882450340578872  0.5915949771746456  0.6878419350258406
  0.0533227965877094  0.3633002857725741  0.5636799114848017
  0.0722254747932542  0.6259315495511459  0.5592673291335943
  0.4217185939258082  0.1112546249920761  0.9298341374896133
  0.8065559459279574  0.3662163541522617  0.8216863499165291
  0.7976116937314035  0.6170626580909395  0.7948884989594900
  0.8215312767485740  0.3814416732744718  0.0727085552287774
  0.3222879906718786  0.6361499270516368  0.5612527966612796
  0.6808616943085274  0.3853183322642531  0.1914891055578777
  0.6947696049213916  0.1335488357393071  0.9286288531264374
  0.5847342697057405  0.3879520656856079  0.0780925256617793
  0.1758096943693234  0.0966977638098220  0.6774604792953242
  0.8194056679890416  0.8739447127725074  0.0690566775884677
  0.1898424656877573  0.1138500528516448  0.4396938932027977
  0.9366615352407944  0.1302248952151619  0.9342643783348484
  0.2974153685827804  0.3740884552456060  0.3086064108536598
  0.5692285927099059  0.3760724664415006  0.3173828218924203
  0.2909628640009435  0.8698961373953986  0.3197975870783177
  0.5428621252315267  0.6184316022901059  0.5626067488067361
  0.0901704689552682  0.3850495751287056  0.3216808836335805
  0.9436631403051798  0.1220329128186722  0.1824854071623749
  0.8195494269503164  0.6364522960097593  0.0626548257310406
  0.6912329369882045  0.6338528399829767  0.6692720229577435
  0.9265636927468707  0.8738399446660764  0.6867786329523280
  0.9417723238674756  0.8875387713711386  0.1850981398715264
  0.8041233421774647  0.1156661580772554  0.5659973616609956
  0.1910456386285851  0.6166223969525226  0.1818402063682018
  0.8043449293525866  0.1203885929987337  0.8146298186600536
  0.9403290788499199  0.1425349329210314  0.4486544520796322
  0.3164474167354289  0.3727234867666405  0.5584004584824904
  0.5427082510716370  0.8563720950303434  0.0620895202202914
  0.4199882311263473  0.6141335094178396  0.6858175282191160
  0.1896811513685712  0.3648139192432593  0.4414430220151846
  0.5722873969900084  0.8851649383022783  0.5602825938813247
  0.0622285286633899  0.8856475755905384  0.0685632539113510
  0.4328553450543756  0.6090958597516921  0.9383046109048313
  0.3163223019271633  0.6294034123988911  0.0603593893754277
  0.9353804956312349  0.6323305197527386  0.4428461212745384
  0.1791656263074391  0.1273471390261989  0.1844305233457151
  0.5539755203445338  0.1026108108757844  0.5633845915896443
  0.0704686244039556  0.1351896632030273  0.8185259924554273
  0.4275249338927514  0.6165333037155054  0.4377433536466278
  0.7013978538361918  0.6369413353585228  0.1884413341545766
  0.4586656005983358  0.1405460486384744  0.1867838944812411
  0.1832693757599144  0.8687593344217474  0.4390023440101583
  0.3174157518752909  0.8690622389843968  0.0558548682638906
  0.5758652545418367  0.8928542690740867  0.8119667479034556
  0.9318280266419562  0.3561528798029583  0.9435922013564494
  0.5592341723707882  0.1105429691623637  0.8085843617380127
  0.1859902496479267  0.3695867793863977  0.1918662696941237
  0.4213221066405294  0.6118976593428321  0.1767407263881646
  0.6837788003225117  0.1259432351785802  0.6857090922677311
  0.3055555885549578  0.1263254741134855  0.5604263334867013
  0.5867003042125395  0.8862198530906346  0.3075333926478118
  0.3157422055895032  0.8903416967590069  0.5558753436446607
  0.6957836533429200  0.3931955257164589  0.4304316841113047
  0.1853449932310713  0.8665787827631569  0.9443986345705500
  0.3231786363498254  0.8899726974140340  0.8197239213159995
  0.8107664531886973  0.6200749522507262  0.5582574586797919
  0.0558172020158420  0.1164258440546679  0.0630019478780384
 
  0.00000000E+00  0.00000000E+00  0.00000000E+00
  0.00000000E+00  0.00000000E+00  0.00000000E+00
  0.00000000E+00  0.00000000E+00  0.00000000E+00
  0.00000000E+00  0.00000000E+00  0.00000000E+00
  0.00000000E+00  0.00000000E+00  0.00000000E+00
  0.00000000E+00  0.00000000E+00  0.00000000E+00
  0.00000000E+00  0.00000000E+00  0.00000000E+00
  0.00000000E+00  0.00000000E+00  0.00000000E+00
  0.00000000E+00  0.00000000E+00  0.00000000E+00
  0.00000000E+00  0.00000000E+00  0.00000000E+00
  0.00000000E+00  0.00000000E+00  0.00000000E+00
  0.00000000E+00  0.00000000E+00  0.00000000E+00
  0.00000000E+00  0.00000000E+00  0.00000000E+00
  0.00000000E+00  0.00000000E+00  0.00000000E+00
  0.00000000E+00  0.00000000E+00  0.00000000E+00
  0.00000000E+00  0.00000000E+00  0.00000000E+00
  0.00000000E+00  0.00000000E+00  0.00000000E+00
  0.00000000E+00  0.00000000E+00  0.00000000E+00
  0.00000000E+00  0.00000000E+00  0.00000000E+00
  0.00000000E+00  0.00000000E+00  0.00000000E+00
  0.00000000E+00  0.00000000E+00  0.00000000E+00
  0.00000000E+00  0.00000000E+00  0.00000000E+00
  0.00000000E+00  0.00000000E+00  0.00000000E+00
  0.00000000E+00  0.00000000E+00  0.00000000E+00
  0.00000000E+00  0.00000000E+00  0.00000000E+00
  0.00000000E+00  0.00000000E+00  0.00000000E+00
  0.00000000E+00  0.00000000E+00  0.00000000E+00
  0.00000000E+00  0.00000000E+00  0.00000000E+00
  0.00000000E+00  0.00000000E+00  0.00000000E+00
  0.00000000E+00  0.00000000E+00  0.00000000E+00
  0.00000000E+00  0.00000000E+00  0.00000000E+00
  0.00000000E+00  0.00000000E+00  0.00000000E+00
  0.00000000E+00  0.00000000E+00  0.00000000E+00
  0.00000000E+00  0.00000000E+00  0.00000000E+00
  0.00000000E+00  0.00000000E+00  0.00000000E+00
  0.00000000E+00  0.00000000E+00  0.00000000E+00
  0.00000000E+00  0.00000000E+00  0.00000000E+00
  0.00000000E+00  0.00000000E+00  0.00000000E+00
  0.00000000E+00  0.00000000E+00  0.00000000E+00
  0.00000000E+00  0.00000000E+00  0.00000000E+00
  0.00000000E+00  0.00000000E+00  0.00000000E+00
  0.00000000E+00  0.00000000E+00  0.00000000E+00
  0.00000000E+00  0.00000000E+00  0.00000000E+00
  0.00000000E+00  0.00000000E+00  0.00000000E+00
  0.00000000E+00  0.00000000E+00  0.00000000E+00
  0.00000000E+00  0.00000000E+00  0.00000000E+00
  0.00000000E+00  0.00000000E+00  0.00000000E+00
  0.00000000E+00  0.00000000E+00  0.00000000E+00
  0.00000000E+00  0.00000000E+00  0.00000000E+00
  0.00000000E+00  0.00000000E+00  0.00000000E+00
  0.00000000E+00  0.00000000E+00  0.00000000E+00
  0.00000000E+00  0.00000000E+00  0.00000000E+00
  0.00000000E+00  0.00000000E+00  0.00000000E+00
  0.00000000E+00  0.00000000E+00  0.00000000E+00
  0.00000000E+00  0.00000000E+00  0.00000000E+00
  0.00000000E+00  0.00000000E+00  0.00000000E+00
  0.00000000E+00  0.00000000E+00  0.00000000E+00
  0.00000000E+00  0.00000000E+00  0.00000000E+00
  0.00000000E+00  0.00000000E+00  0.00000000E+00
  0.00000000E+00  0.00000000E+00  0.00000000E+00
  0.00000000E+00  0.00000000E+00  0.00000000E+00
  0.00000000E+00  0.00000000E+00  0.00000000E+00
  0.00000000E+00  0.00000000E+00  0.00000000E+00
  0.00000000E+00  0.00000000E+00  0.00000000E+00
  0.00000000E+00  0.00000000E+00  0.00000000E+00
  0.00000000E+00  0.00000000E+00  0.00000000E+00
  0.00000000E+00  0.00000000E+00  0.00000000E+00
  0.00000000E+00  0.00000000E+00  0.00000000E+00
  0.00000000E+00  0.00000000E+00  0.00000000E+00
  0.00000000E+00  0.00000000E+00  0.00000000E+00
  0.00000000E+00  0.00000000E+00  0.00000000E+00
  0.00000000E+00  0.00000000E+00  0.00000000E+00
  0.00000000E+00  0.00000000E+00  0.00000000E+00
  0.00000000E+00  0.00000000E+00  0.00000000E+00
  0.00000000E+00  0.00000000E+00  0.00000000E+00
  0.00000000E+00  0.00000000E+00  0.00000000E+00
  0.00000000E+00  0.00000000E+00  0.00000000E+00
  0.00000000E+00  0.00000000E+00  0.00000000E+00
  0.00000000E+00  0.00000000E+00  0.00000000E+00
  0.00000000E+00  0.00000000E+00  0.00000000E+00
  0.00000000E+00  0.00000000E+00  0.00000000E+00
  0.00000000E+00  0.00000000E+00  0.00000000E+00
  0.00000000E+00  0.00000000E+00  0.00000000E+00
  0.00000000E+00  0.00000000E+00  0.00000000E+00
  0.00000000E+00  0.00000000E+00  0.00000000E+00
  0.00000000E+00  0.00000000E+00  0.00000000E+00
  0.00000000E+00  0.00000000E+00  0.00000000E+00
  0.00000000E+00  0.00000000E+00  0.00000000E+00
  0.00000000E+00  0.00000000E+00  0.00000000E+00
  0.00000000E+00  0.00000000E+00  0.00000000E+00
  0.00000000E+00  0.00000000E+00  0.00000000E+00
  0.00000000E+00  0.00000000E+00  0.00000000E+00
  0.00000000E+00  0.00000000E+00  0.00000000E+00
  0.00000000E+00  0.00000000E+00  0.00000000E+00
  0.00000000E+00  0.00000000E+00  0.00000000E+00
  0.00000000E+00  0.00000000E+00  0.00000000E+00
  0.00000000E+00  0.00000000E+00  0.00000000E+00
  0.00000000E+00  0.00000000E+00  0.00000000E+00
  0.00000000E+00  0.00000000E+00  0.00000000E+00
  0.00000000E+00  0.00000000E+00  0.00000000E+00
  0.00000000E+00  0.00000000E+00  0.00000000E+00
  0.00000000E+00  0.00000000E+00  0.00000000E+00
  0.00000000E+00  0.00000000E+00  0.00000000E+00
  0.00000000E+00  0.00000000E+00  0.00000000E+00
  0.00000000E+00  0.00000000E+00  0.00000000E+00
  0.00000000E+00  0.00000000E+00  0.00000000E+00
  0.00000000E+00  0.00000000E+00  0.00000000E+00
  0.00000000E+00  0.00000000E+00  0.00000000E+00
  0.00000000E+00  0.00000000E+00  0.00000000E+00
  0.00000000E+00  0.00000000E+00  0.00000000E+00
  0.00000000E+00  0.00000000E+00  0.00000000E+00
  0.00000000E+00  0.00000000E+00  0.00000000E+00
  0.00000000E+00  0.00000000E+00  0.00000000E+00
  0.00000000E+00  0.00000000E+00  0.00000000E+00
  0.00000000E+00  0.00000000E+00  0.00000000E+00
  0.00000000E+00  0.00000000E+00  0.00000000E+00
  0.00000000E+00  0.00000000E+00  0.00000000E+00
  0.00000000E+00  0.00000000E+00  0.00000000E+00
  0.00000000E+00  0.00000000E+00  0.00000000E+00
  0.00000000E+00  0.00000000E+00  0.00000000E+00
  0.00000000E+00  0.00000000E+00  0.00000000E+00
  0.00000000E+00  0.00000000E+00  0.00000000E+00
  0.00000000E+00  0.00000000E+00  0.00000000E+00
  0.00000000E+00  0.00000000E+00  0.00000000E+00
  0.00000000E+00  0.00000000E+00  0.00000000E+00
  0.00000000E+00  0.00000000E+00  0.00000000E+00
  0.00000000E+00  0.00000000E+00  0.00000000E+00
  0.00000000E+00  0.00000000E+00  0.00000000E+00
