Hf Ta                                   
    1.000000000000000     
    13.9888155802251397    0.0077181947515446   -0.0034984084786707
    -7.0247910997420959    9.8963176620221631   -0.0547203898486400
    -0.0023810573297893   -0.1101009310564805   19.3546091228453605
  Hf             Ta           
              84              44
Direct
  0.3246231276617007  0.1413481261178839  0.5681320852334332
  0.5598669131206161  0.1294472696494228  0.5640978741970522
  0.4360950284487499  0.3658440599545003  0.4418595163400815
  0.0688342083934188  0.8851579429574038  0.5593175048651445
  0.1751434103367268  0.3579100330386806  0.9431367963000150
  0.1731727762623156  0.5947906612366398  0.6910512633316304
  0.4478855599359124  0.1220632374397957  0.9372126427406466
  0.0516311722074580  0.8748620589196585  0.8051459863756560
  0.9313790835179631  0.8566093934763106  0.1814556090983369
  0.8183881682774581  0.1462920585953491  0.3165273544650557
  0.6851601828233677  0.8762203742311877  0.4372718625458358
  0.6764052488799044  0.3753625832166128  0.1875348940100808
  0.3310036702502684  0.9074590524733945  0.0672983277811735
  0.1885198281862846  0.8774351018693854  0.9344079532969132
  0.3041817138511455  0.3679901681393757  0.3114407130606229
  0.0874807511790634  0.3921251139983812  0.3165717791549258
  0.4373128771519148  0.8652299668679272  0.1880439602902722
  0.5654197728629511  0.6287807552517294  0.3208138385106120
  0.3295467121531970  0.1491747049642277  0.0636011487794097
  0.6925919814319933  0.6057295755593979  0.4478451742443565
  0.0733624227541165  0.6699674298370583  0.0595173203171407
  0.6790402794725060  0.6130803702413491  0.6899600478784574
  0.1791959924151918  0.3425265390690677  0.6891743164446406
  0.5795074193951709  0.6375962255251229  0.0550318966295789
  0.1676912716897262  0.3679540558997449  0.1776125281982797
  0.1766141039081306  0.6126735647561407  0.9386195904121363
  0.9368281666191216  0.6108806956706274  0.9279840623201486
  0.9328063144127903  0.3579323892657165  0.1946383551628997
  0.9341944052769446  0.6081136197357222  0.6967701784119172
  0.3044949497223138  0.1323879618657918  0.8146003896142694
  0.3056979156514246  0.8841384006433425  0.5449513876335744
  0.5714074249410156  0.6450100960422409  0.8198636483935887
  0.6877789302867804  0.1122615878646869  0.6854688513197210
  0.9244124860740098  0.1000423376515003  0.6810244001571530
  0.3993483277908778  0.5854862016504122  0.4377398635301998
  0.3415863521637226  0.6530590830798010  0.3046466940736157
  0.4243480004340157  0.3515747325945250  0.6856834213850738
  0.0732235628460768  0.6352422640246508  0.5656117887248504
  0.8089252664357983  0.6287403291335421  0.3080866676175306
  0.8200632919798687  0.1412351343363366  0.0593623929353872
  0.8157863990169953  0.8823342803796471  0.8090679912526803
  0.9216258931926626  0.0910421038534008  0.9364768471309616
  0.4414888312388623  0.8698329017991363  0.9415090289917607
  0.0803036989423290  0.1427138071662837  0.8137528506876776
  0.3051433986112588  0.8787626567217138  0.3122939788919153
  0.0804350814723521  0.4056903602927911  0.8135420127907296
  0.6636007392929478  0.3453640451297037  0.6877855125076180
  0.4527661487412878  0.3654788662919770  0.1817530949021097
  0.8184868256694987  0.3914832196531331  0.8136225857101823
  0.9295801144774197  0.3652497114002263  0.4345047302863292
  0.9167530417706162  0.6105064547491033  0.4484302840464679
  0.3242556606943129  0.3986917299210745  0.0640519373172928
  0.8352079303394628  0.1549700407413214  0.8110527521032075
  0.3059815888592597  0.3865705436001088  0.5601121501923220
  0.1854803763909308  0.1266339216087952  0.1887711659740495
  0.4547178694699473  0.8677949630350085  0.4341951226322885
  0.5582522739771262  0.6351767269671935  0.5625585308576767
  0.1870078875032677  0.8603426152154713  0.6855004034254935
  0.9252270918494332  0.8506806530033671  0.9402194966773822
  0.5891278918937468  0.9069328891000877  0.8149330214610809
  0.8150257085214733  0.6379325645207620  0.0610680884056489
  0.0567322950103930  0.3676085249131890  0.5669033458398940
  0.4346891017221740  0.8658274435074277  0.6855387492094862
  0.6796203388274967  0.1132248280522559  0.1861375533883060
  0.3339816373180918  0.6617717450401146  0.8147938612051847
  0.3249284197946456  0.6473711396073202  0.0629840693097997
  0.9294394538372938  0.3504624315880157  0.9397199428880182
  0.9383945987986196  0.6090236871899739  0.1846428639951673
  0.8187560595310693  0.3753738427938710  0.5698340084981377
  0.9308128276831051  0.1045358744279158  0.1884930171824559
  0.8139832769440032  0.3864160491486101  0.0639548754122757
  0.4442575465192731  0.6081399046630210  0.1844021745968940
  0.1931523517658937  0.6300584982621419  0.4325125593719417
  0.3253083543079806  0.6512294641653570  0.5673429268266583
  0.5707932168344042  0.3870022590445681  0.8158840654978687
  0.3274183406686836  0.4121280583819555  0.8149481722073074
  0.0411084178439756  0.6216560428297040  0.3194406068816665
  0.8146982153719917  0.8831898418203262  0.5639751075615976
  0.5622110943622615  0.3569698271727528  0.3193544842876096
  0.1730458377828195  0.6232733410885688  0.1883398142550017
  0.4251087663269734  0.1054556522485700  0.4329642108079821
  0.9404792706835412  0.8746298978468420  0.4270627164525602
  0.8077907182176900  0.8846397158864600  0.3022395927884275
  0.4299341930273836  0.3634081930135434  0.9396542478374188
  0.0655135256147105  0.4106740027728391  0.0627821408186217
  0.6808447161308425  0.1218410836215555  0.9337434352891938
  0.1616505885752767  0.3332927696780650  0.4388967856069370
  0.6885332008440112  0.3691706777887022  0.9369180772251627
  0.0638492701491371  0.1436891244162299  0.0621758743957893
  0.8198148817919785  0.8971638785735749  0.0606731171555346
  0.4264567792506044  0.6087986116568671  0.9395197734509897
  0.8118350687687551  0.6385627109139086  0.8194245743921154
  0.5805171909659385  0.3757327028357685  0.0532593370775765
  0.1701603476158867  0.1088069676242389  0.9489235648778820
  0.5828834510717518  0.8959859810670914  0.5681877381899176
  0.6764668382454206  0.8609413953172583  0.9427803351642974
  0.6637248504593393  0.8449346314835193  0.6859366233483477
  0.5645527063822638  0.1139402920225749  0.3130118778066899
  0.5770016118785339  0.8944396886880809  0.0632118750467431
  0.9350458023531919  0.1162019687955109  0.4396034291419256
  0.5884330098541890  0.8940493876621950  0.3032144566070875
  0.8099866462182663  0.1227046149979902  0.5535193053868523
  0.1622906737423848  0.8656402731810456  0.4261785846266257
  0.4303819308732180  0.6090870877728372  0.6906877263039611
  0.8220599094923093  0.6356709696825593  0.5761799838492340
  0.1853807469522957  0.8823887097708819  0.1829430988432316
  0.0677475769798313  0.1309458909793122  0.5593744231547664
  0.5728240631033130  0.1394682563314162  0.8102188478221944
  0.6846888098292634  0.8693495267365919  0.1765436143245921
  0.4316231202696770  0.1100949158090464  0.1897790364193349
  0.9316024694896047  0.3503820940986528  0.6967908872002101
  0.6838877573862996  0.6011942555363352  0.9333227001520146
  0.0800570409952830  0.9190987409406021  0.0602454894817991
  0.0618470469765195  0.1171995295107362  0.3200862382284096
  0.7861004090565272  0.3684961687794124  0.3186599111101074
  0.6793526171612746  0.6339420252614183  0.1877972517394414
  0.6853740600744156  0.1249664178411250  0.4387416701229179
  0.5812324389054051  0.3997952694468616  0.5632927016301782
  0.1843536144914713  0.1169748342851110  0.4350271930874745
  0.3054350993629206  0.1209025947695611  0.3119294386195567
  0.0946181087094492  0.6654419695609739  0.8122329076207058
  0.1620225050432544  0.0887411343826456  0.6810419050399465
  0.3323398343973774  0.9081197688084062  0.8099778949224120
  0.4283549062548433  0.1021017321730923  0.6998214595576243
  0.6774261975828524  0.3514200065375656  0.4461323771749192
  0.0741638593771474  0.8914655006392238  0.3039817666719897
  0.5738399064926583  0.1316267323970911  0.0598277005583346
  0.9256578025234466  0.8472393781642300  0.6779642324284050
 
  0.00000000E+00  0.00000000E+00  0.00000000E+00
  0.00000000E+00  0.00000000E+00  0.00000000E+00
  0.00000000E+00  0.00000000E+00  0.00000000E+00
  0.00000000E+00  0.00000000E+00  0.00000000E+00
  0.00000000E+00  0.00000000E+00  0.00000000E+00
  0.00000000E+00  0.00000000E+00  0.00000000E+00
  0.00000000E+00  0.00000000E+00  0.00000000E+00
  0.00000000E+00  0.00000000E+00  0.00000000E+00
  0.00000000E+00  0.00000000E+00  0.00000000E+00
  0.00000000E+00  0.00000000E+00  0.00000000E+00
  0.00000000E+00  0.00000000E+00  0.00000000E+00
  0.00000000E+00  0.00000000E+00  0.00000000E+00
  0.00000000E+00  0.00000000E+00  0.00000000E+00
  0.00000000E+00  0.00000000E+00  0.00000000E+00
  0.00000000E+00  0.00000000E+00  0.00000000E+00
  0.00000000E+00  0.00000000E+00  0.00000000E+00
  0.00000000E+00  0.00000000E+00  0.00000000E+00
  0.00000000E+00  0.00000000E+00  0.00000000E+00
  0.00000000E+00  0.00000000E+00  0.00000000E+00
  0.00000000E+00  0.00000000E+00  0.00000000E+00
  0.00000000E+00  0.00000000E+00  0.00000000E+00
  0.00000000E+00  0.00000000E+00  0.00000000E+00
  0.00000000E+00  0.00000000E+00  0.00000000E+00
  0.00000000E+00  0.00000000E+00  0.00000000E+00
  0.00000000E+00  0.00000000E+00  0.00000000E+00
  0.00000000E+00  0.00000000E+00  0.00000000E+00
  0.00000000E+00  0.00000000E+00  0.00000000E+00
  0.00000000E+00  0.00000000E+00  0.00000000E+00
  0.00000000E+00  0.00000000E+00  0.00000000E+00
  0.00000000E+00  0.00000000E+00  0.00000000E+00
  0.00000000E+00  0.00000000E+00  0.00000000E+00
  0.00000000E+00  0.00000000E+00  0.00000000E+00
  0.00000000E+00  0.00000000E+00  0.00000000E+00
  0.00000000E+00  0.00000000E+00  0.00000000E+00
  0.00000000E+00  0.00000000E+00  0.00000000E+00
  0.00000000E+00  0.00000000E+00  0.00000000E+00
  0.00000000E+00  0.00000000E+00  0.00000000E+00
  0.00000000E+00  0.00000000E+00  0.00000000E+00
  0.00000000E+00  0.00000000E+00  0.00000000E+00
  0.00000000E+00  0.00000000E+00  0.00000000E+00
  0.00000000E+00  0.00000000E+00  0.00000000E+00
  0.00000000E+00  0.00000000E+00  0.00000000E+00
  0.00000000E+00  0.00000000E+00  0.00000000E+00
  0.00000000E+00  0.00000000E+00  0.00000000E+00
  0.00000000E+00  0.00000000E+00  0.00000000E+00
  0.00000000E+00  0.00000000E+00  0.00000000E+00
  0.00000000E+00  0.00000000E+00  0.00000000E+00
  0.00000000E+00  0.00000000E+00  0.00000000E+00
  0.00000000E+00  0.00000000E+00  0.00000000E+00
  0.00000000E+00  0.00000000E+00  0.00000000E+00
  0.00000000E+00  0.00000000E+00  0.00000000E+00
  0.00000000E+00  0.00000000E+00  0.00000000E+00
  0.00000000E+00  0.00000000E+00  0.00000000E+00
  0.00000000E+00  0.00000000E+00  0.00000000E+00
  0.00000000E+00  0.00000000E+00  0.00000000E+00
  0.00000000E+00  0.00000000E+00  0.00000000E+00
  0.00000000E+00  0.00000000E+00  0.00000000E+00
  0.00000000E+00  0.00000000E+00  0.00000000E+00
  0.00000000E+00  0.00000000E+00  0.00000000E+00
  0.00000000E+00  0.00000000E+00  0.00000000E+00
  0.00000000E+00  0.00000000E+00  0.00000000E+00
  0.00000000E+00  0.00000000E+00  0.00000000E+00
  0.00000000E+00  0.00000000E+00  0.00000000E+00
  0.00000000E+00  0.00000000E+00  0.00000000E+00
  0.00000000E+00  0.00000000E+00  0.00000000E+00
  0.00000000E+00  0.00000000E+00  0.00000000E+00
  0.00000000E+00  0.00000000E+00  0.00000000E+00
  0.00000000E+00  0.00000000E+00  0.00000000E+00
  0.00000000E+00  0.00000000E+00  0.00000000E+00
  0.00000000E+00  0.00000000E+00  0.00000000E+00
  0.00000000E+00  0.00000000E+00  0.00000000E+00
  0.00000000E+00  0.00000000E+00  0.00000000E+00
  0.00000000E+00  0.00000000E+00  0.00000000E+00
  0.00000000E+00  0.00000000E+00  0.00000000E+00
  0.00000000E+00  0.00000000E+00  0.00000000E+00
  0.00000000E+00  0.00000000E+00  0.00000000E+00
  0.00000000E+00  0.00000000E+00  0.00000000E+00
  0.00000000E+00  0.00000000E+00  0.00000000E+00
  0.00000000E+00  0.00000000E+00  0.00000000E+00
  0.00000000E+00  0.00000000E+00  0.00000000E+00
  0.00000000E+00  0.00000000E+00  0.00000000E+00
  0.00000000E+00  0.00000000E+00  0.00000000E+00
  0.00000000E+00  0.00000000E+00  0.00000000E+00
  0.00000000E+00  0.00000000E+00  0.00000000E+00
  0.00000000E+00  0.00000000E+00  0.00000000E+00
  0.00000000E+00  0.00000000E+00  0.00000000E+00
  0.00000000E+00  0.00000000E+00  0.00000000E+00
  0.00000000E+00  0.00000000E+00  0.00000000E+00
  0.00000000E+00  0.00000000E+00  0.00000000E+00
  0.00000000E+00  0.00000000E+00  0.00000000E+00
  0.00000000E+00  0.00000000E+00  0.00000000E+00
  0.00000000E+00  0.00000000E+00  0.00000000E+00
  0.00000000E+00  0.00000000E+00  0.00000000E+00
  0.00000000E+00  0.00000000E+00  0.00000000E+00
  0.00000000E+00  0.00000000E+00  0.00000000E+00
  0.00000000E+00  0.00000000E+00  0.00000000E+00
  0.00000000E+00  0.00000000E+00  0.00000000E+00
  0.00000000E+00  0.00000000E+00  0.00000000E+00
  0.00000000E+00  0.00000000E+00  0.00000000E+00
  0.00000000E+00  0.00000000E+00  0.00000000E+00
  0.00000000E+00  0.00000000E+00  0.00000000E+00
  0.00000000E+00  0.00000000E+00  0.00000000E+00
  0.00000000E+00  0.00000000E+00  0.00000000E+00
  0.00000000E+00  0.00000000E+00  0.00000000E+00
  0.00000000E+00  0.00000000E+00  0.00000000E+00
  0.00000000E+00  0.00000000E+00  0.00000000E+00
  0.00000000E+00  0.00000000E+00  0.00000000E+00
  0.00000000E+00  0.00000000E+00  0.00000000E+00
  0.00000000E+00  0.00000000E+00  0.00000000E+00
  0.00000000E+00  0.00000000E+00  0.00000000E+00
  0.00000000E+00  0.00000000E+00  0.00000000E+00
  0.00000000E+00  0.00000000E+00  0.00000000E+00
  0.00000000E+00  0.00000000E+00  0.00000000E+00
  0.00000000E+00  0.00000000E+00  0.00000000E+00
  0.00000000E+00  0.00000000E+00  0.00000000E+00
  0.00000000E+00  0.00000000E+00  0.00000000E+00
  0.00000000E+00  0.00000000E+00  0.00000000E+00
  0.00000000E+00  0.00000000E+00  0.00000000E+00
  0.00000000E+00  0.00000000E+00  0.00000000E+00
  0.00000000E+00  0.00000000E+00  0.00000000E+00
  0.00000000E+00  0.00000000E+00  0.00000000E+00
  0.00000000E+00  0.00000000E+00  0.00000000E+00
  0.00000000E+00  0.00000000E+00  0.00000000E+00
  0.00000000E+00  0.00000000E+00  0.00000000E+00
  0.00000000E+00  0.00000000E+00  0.00000000E+00
  0.00000000E+00  0.00000000E+00  0.00000000E+00
  0.00000000E+00  0.00000000E+00  0.00000000E+00
  0.00000000E+00  0.00000000E+00  0.00000000E+00
