Nb Ti                                   
    1.000000000000000     
    11.5258419560037080   -0.3680497437635033   -0.0018905336922835
    -6.0733163790382880   10.6652557762515130    0.0036396438075120
    -0.0022205511811436    0.0051041632745887   18.4688133744083487
  Nb              Ti            
    20   108
Direct
     0.1173956312845672    0.1752924080685170    0.0643112874186338
     0.3588817085917627    0.9360779275015330    0.0608980499347562
     0.0985391978348776    0.9370776348586241    0.8125305005531340
     0.3839841493374178    0.5718702136304293    0.9348494057127152
     0.8550022831782659    0.4234526539014745    0.5628664466456531
     0.3978053095481935    0.3205498861417496    0.4365915849546902
     0.8571253248393587    0.4266601748549855    0.8072863037730083
     0.6420250050410937    0.3210103753290446    0.9402389458170241
     0.1384916350862446    0.5694964865147842    0.6870313126632428
     0.6258774489743432    0.1854714286974961    0.0607142387302817
     0.1334300769664777    0.5701950417547844    0.1888761821117139
     0.3988697663489608    0.8139768340448588    0.4385557159842947
     0.5881831489172783    0.6857787512788103    0.5626147728943049
     0.8548220386520207    0.4269962521726976    0.3182310798189468
     0.6409182359566648    0.3146668738138473    0.1824904500983483
     0.6373991351933098    0.5768029394867644    0.1924493198663088
     0.8696274613314492    0.1785498981478869    0.0620889498448676
     0.1591531108890398    0.0667898319785699    0.4361262758432929
     0.1335044734829822    0.5695982167257284    0.9344244691381752
     0.5993958183616611    0.6863519559883027    0.0662607552010571
     0.9195601613142118    0.0772759667863886    0.1880257615413333
     0.5839713632298070    0.9191553537822964    0.8122990708898177
     0.3712528745025439    0.1796898691163600    0.0627186638613944
     0.1677958523479043    0.0784744959371973    0.9404901843365082
     0.3278637946552342    0.6678631053358819    0.5637810781726280
     0.1538715254311396    0.3281223476574152    0.1851863161166445
     0.8973261917305408    0.5798748609496828    0.6847164442152434
     0.6583731402969788    0.8324321417817004    0.6883885242423988
     0.5806607184275637    0.6720402126256891    0.8109615749378712
     0.8961885451939027    0.5802121200497766    0.4396272093105769
     0.3506754186722115    0.4277621072206172    0.3114907411782064
     0.0869267544283529    0.9208188364282891    0.5627348269866286
     0.9176173215361298    0.0777747735489864    0.6873172528720204
     0.6010351660615888    0.4233659071590232    0.3098324610607983
     0.1058587372836286    0.1762460217552826    0.3119265144934788
     0.6063689058702102    0.4348043598392829    0.0629430388382775
     0.8538523178171422    0.4337268362625988    0.0619029666905555
     0.6059794873979004    0.4277741535666748    0.8140616336147340
     0.8894303939268499    0.5728127539045291    0.9331549053459781
     0.0955324530852046    0.6837909615858012    0.0618979204714494
     0.5971606229552930    0.9184295731630917    0.0621689716146007
     0.1681134225682859    0.0755175204320981    0.1874731451058838
     0.5824539737590250    0.6799116903703938    0.3143149969764865
     0.9044058531470023    0.8250504134784350    0.4377327485257135
     0.4113049451205791    0.0655987608940325    0.1905663622746933
     0.3571508859427958    0.4280222149293315    0.5622964146528177
     0.6574485453379778    0.0648853793378564    0.9381801101710477
     0.4044998528834186    0.8280022621499893    0.6867122993062519
     0.9191802161042384    0.0821406631939186    0.4370194336067774
     0.6527622779873004    0.8223045948787114    0.9363185602709307
     0.8426094454405825    0.1602858215111487    0.8135970653903247
     0.1497427755028047    0.3210699032810646    0.9408872282415703
     0.4171850194284460    0.3264084591721225    0.6869427690222129
     0.6663644983503838    0.3284129730710806    0.6887427034880165
     0.3421627556077220    0.9268780756756758    0.5635274580029905
     0.0831363654464462    0.6755653196289299    0.8096210137314886
     0.0853746664385218    0.6757289384630419    0.5626965683823053
     0.0894008611310210    0.4123616217338152    0.3117872076751137
     0.8309186387332241    0.6756987606634176    0.5622061023798014
     0.0972008491203491    0.1708721852111478    0.8143532636556189
     0.3483701753889058    0.1704907256366933    0.5628132015270517
     0.8298593363566765    0.6768324163714198    0.3134998496937459
     0.8430010341206123    0.1638985897932275    0.5624537916262194
     0.9077125515459608    0.8315799777685339    0.6860426527017957
     0.6004780611579537    0.1739837164581497    0.5635943217693645
     0.3247396326990162    0.6679864562996713    0.3129217405093164
     0.8936821903211019    0.3197131078470250    0.1880726970320971
     0.6067195097717752    0.1738463631260769    0.3100874907366369
     0.1570627431999005    0.8323177433539223    0.6861976816246143
     0.4069929380541820    0.3352935665095345    0.9407330968811221
     0.6004117344771314    0.4193471487402158    0.5632975117918738
     0.9089915775045717    0.3177824512968377    0.6879251585255376
     0.1570269424272120    0.8265963223822447    0.4388245453196846
     0.4004658593500287    0.8218851300297609    0.9354019784637729
     0.9108982989134025    0.8285221446878515    0.9377155630311588
     0.1002447609539301    0.9228508970908386    0.0633523043185105
     0.1389899380419383    0.5680474293953423    0.4378127974381691
     0.6631429401220872    0.8359123539532688    0.4368849140723751
     0.4000384578802594    0.5781201576590084    0.6887323562797903
     0.1677580455944448    0.0825620281832351    0.6866231914028160
     0.6061999368327229    0.1758894805901439    0.8143592639784918
     0.3485578226611563    0.4186810054113739    0.8112370638259071
     0.3396336015771118    0.9224393697275398    0.8108667633109673
     0.6476739530439739    0.5863006095704785    0.9373319184954836
     0.0945535661529061    0.4138054989570461    0.5637163934447212
     0.3540335482620436    0.1827620401123057    0.8145509182140839
     0.1647747629248864    0.3344149912310057    0.4371345948924017
     0.6597647037973688    0.0724164245781889    0.4374914852786629
     0.1654343363676057    0.3228465598636606    0.6876690065446843
     0.8852970641461761    0.5709771853891425    0.1909220230597337
     0.0806066867673464    0.6743625389197827    0.3149829213863826
     0.3377562259800913    0.6750904255754537    0.0615215306142031
     0.5833463890852897    0.9223698584648362    0.3123325569936295
     0.6611722015293047    0.8355850619499147    0.1913727803989526
     0.3518546843760728    0.1709783872868487    0.3111487594014519
     0.3968535573061320    0.5835843917775370    0.1894387671977168
     0.4154674993575686    0.0804553648626335    0.6886687143242489
     0.4060650246300188    0.3277861367194127    0.1885560682656501
     0.0990264596426332    0.4304571209485967    0.0611851976015819
     0.6478353257620704    0.5807906241396739    0.6867135806235677
     0.4022487691014502    0.8233999372243688    0.1880040077583389
     0.0890615800811582    0.9193004005404826    0.3107605694660833
     0.3390179047435152    0.9196146736620480    0.3137979211837597
     0.6573695099036084    0.3269528425548530    0.4357202568803290
     0.4008999333493238    0.5830056932829910    0.4372194741452451
     0.4109577420956712    0.0707265392738991    0.9325387964631685
     0.8422990574676062    0.1592038663211827    0.3112504265499786
     0.6594947223792423    0.0677704357216369    0.1856006823731312
     0.8458467957588416    0.9263240758366936    0.3134633799400505
     0.9139265492257134    0.0727625683842515    0.9380416179937866
     0.8940955658178429    0.3190685639614577    0.9366866127474086
     0.8380185755434838    0.9210320748734515    0.8131573706055447
     0.4171383220337696    0.0754457330905827    0.4376918899062134
     0.6603125483705476    0.0721558642476370    0.6883853223725324
     0.3530111737855163    0.4332910023843506    0.0649410935984764
     0.8475705898771893    0.9233237984917695    0.0620964648204365
     0.1024297249238715    0.1758037033307927    0.5609591328819480
     0.0974028013836940    0.4161386638085233    0.8119088179579996
     0.8443668334855736    0.6806688485515839    0.0611355381088938
     0.8433256719838094    0.9294231271870401    0.5617347818835811
     0.8371347435749399    0.6820404240114345    0.8112869581849016
     0.6400846949954277    0.5745810859005828    0.4385957624091467
     0.9054897078112716    0.8262948648345109    0.1866208203120462
     0.5862382588730738    0.9252008984070190    0.5630986886179893
     0.9046186517460189    0.3175002154250982    0.4375112807108181
     0.1537594490990445    0.8239184497029439    0.9353708187574930
     0.1542126916689574    0.8203801788226960    0.1892645437118878
     0.3280256468059846    0.6712824140841241    0.8089322584049771
 
  0.00000000E+00  0.00000000E+00  0.00000000E+00
  0.00000000E+00  0.00000000E+00  0.00000000E+00
  0.00000000E+00  0.00000000E+00  0.00000000E+00
  0.00000000E+00  0.00000000E+00  0.00000000E+00
  0.00000000E+00  0.00000000E+00  0.00000000E+00
  0.00000000E+00  0.00000000E+00  0.00000000E+00
  0.00000000E+00  0.00000000E+00  0.00000000E+00
  0.00000000E+00  0.00000000E+00  0.00000000E+00
  0.00000000E+00  0.00000000E+00  0.00000000E+00
  0.00000000E+00  0.00000000E+00  0.00000000E+00
  0.00000000E+00  0.00000000E+00  0.00000000E+00
  0.00000000E+00  0.00000000E+00  0.00000000E+00
  0.00000000E+00  0.00000000E+00  0.00000000E+00
  0.00000000E+00  0.00000000E+00  0.00000000E+00
  0.00000000E+00  0.00000000E+00  0.00000000E+00
  0.00000000E+00  0.00000000E+00  0.00000000E+00
  0.00000000E+00  0.00000000E+00  0.00000000E+00
  0.00000000E+00  0.00000000E+00  0.00000000E+00
  0.00000000E+00  0.00000000E+00  0.00000000E+00
  0.00000000E+00  0.00000000E+00  0.00000000E+00
  0.00000000E+00  0.00000000E+00  0.00000000E+00
  0.00000000E+00  0.00000000E+00  0.00000000E+00
  0.00000000E+00  0.00000000E+00  0.00000000E+00
  0.00000000E+00  0.00000000E+00  0.00000000E+00
  0.00000000E+00  0.00000000E+00  0.00000000E+00
  0.00000000E+00  0.00000000E+00  0.00000000E+00
  0.00000000E+00  0.00000000E+00  0.00000000E+00
  0.00000000E+00  0.00000000E+00  0.00000000E+00
  0.00000000E+00  0.00000000E+00  0.00000000E+00
  0.00000000E+00  0.00000000E+00  0.00000000E+00
  0.00000000E+00  0.00000000E+00  0.00000000E+00
  0.00000000E+00  0.00000000E+00  0.00000000E+00
  0.00000000E+00  0.00000000E+00  0.00000000E+00
  0.00000000E+00  0.00000000E+00  0.00000000E+00
  0.00000000E+00  0.00000000E+00  0.00000000E+00
  0.00000000E+00  0.00000000E+00  0.00000000E+00
  0.00000000E+00  0.00000000E+00  0.00000000E+00
  0.00000000E+00  0.00000000E+00  0.00000000E+00
  0.00000000E+00  0.00000000E+00  0.00000000E+00
  0.00000000E+00  0.00000000E+00  0.00000000E+00
  0.00000000E+00  0.00000000E+00  0.00000000E+00
  0.00000000E+00  0.00000000E+00  0.00000000E+00
  0.00000000E+00  0.00000000E+00  0.00000000E+00
  0.00000000E+00  0.00000000E+00  0.00000000E+00
  0.00000000E+00  0.00000000E+00  0.00000000E+00
  0.00000000E+00  0.00000000E+00  0.00000000E+00
  0.00000000E+00  0.00000000E+00  0.00000000E+00
  0.00000000E+00  0.00000000E+00  0.00000000E+00
  0.00000000E+00  0.00000000E+00  0.00000000E+00
  0.00000000E+00  0.00000000E+00  0.00000000E+00
  0.00000000E+00  0.00000000E+00  0.00000000E+00
  0.00000000E+00  0.00000000E+00  0.00000000E+00
  0.00000000E+00  0.00000000E+00  0.00000000E+00
  0.00000000E+00  0.00000000E+00  0.00000000E+00
  0.00000000E+00  0.00000000E+00  0.00000000E+00
  0.00000000E+00  0.00000000E+00  0.00000000E+00
  0.00000000E+00  0.00000000E+00  0.00000000E+00
  0.00000000E+00  0.00000000E+00  0.00000000E+00
  0.00000000E+00  0.00000000E+00  0.00000000E+00
  0.00000000E+00  0.00000000E+00  0.00000000E+00
  0.00000000E+00  0.00000000E+00  0.00000000E+00
  0.00000000E+00  0.00000000E+00  0.00000000E+00
  0.00000000E+00  0.00000000E+00  0.00000000E+00
  0.00000000E+00  0.00000000E+00  0.00000000E+00
  0.00000000E+00  0.00000000E+00  0.00000000E+00
  0.00000000E+00  0.00000000E+00  0.00000000E+00
  0.00000000E+00  0.00000000E+00  0.00000000E+00
  0.00000000E+00  0.00000000E+00  0.00000000E+00
  0.00000000E+00  0.00000000E+00  0.00000000E+00
  0.00000000E+00  0.00000000E+00  0.00000000E+00
  0.00000000E+00  0.00000000E+00  0.00000000E+00
  0.00000000E+00  0.00000000E+00  0.00000000E+00
  0.00000000E+00  0.00000000E+00  0.00000000E+00
  0.00000000E+00  0.00000000E+00  0.00000000E+00
  0.00000000E+00  0.00000000E+00  0.00000000E+00
  0.00000000E+00  0.00000000E+00  0.00000000E+00
  0.00000000E+00  0.00000000E+00  0.00000000E+00
  0.00000000E+00  0.00000000E+00  0.00000000E+00
  0.00000000E+00  0.00000000E+00  0.00000000E+00
  0.00000000E+00  0.00000000E+00  0.00000000E+00
  0.00000000E+00  0.00000000E+00  0.00000000E+00
  0.00000000E+00  0.00000000E+00  0.00000000E+00
  0.00000000E+00  0.00000000E+00  0.00000000E+00
  0.00000000E+00  0.00000000E+00  0.00000000E+00
  0.00000000E+00  0.00000000E+00  0.00000000E+00
  0.00000000E+00  0.00000000E+00  0.00000000E+00
  0.00000000E+00  0.00000000E+00  0.00000000E+00
  0.00000000E+00  0.00000000E+00  0.00000000E+00
  0.00000000E+00  0.00000000E+00  0.00000000E+00
  0.00000000E+00  0.00000000E+00  0.00000000E+00
  0.00000000E+00  0.00000000E+00  0.00000000E+00
  0.00000000E+00  0.00000000E+00  0.00000000E+00
  0.00000000E+00  0.00000000E+00  0.00000000E+00
  0.00000000E+00  0.00000000E+00  0.00000000E+00
  0.00000000E+00  0.00000000E+00  0.00000000E+00
  0.00000000E+00  0.00000000E+00  0.00000000E+00
  0.00000000E+00  0.00000000E+00  0.00000000E+00
  0.00000000E+00  0.00000000E+00  0.00000000E+00
  0.00000000E+00  0.00000000E+00  0.00000000E+00
  0.00000000E+00  0.00000000E+00  0.00000000E+00
  0.00000000E+00  0.00000000E+00  0.00000000E+00
  0.00000000E+00  0.00000000E+00  0.00000000E+00
  0.00000000E+00  0.00000000E+00  0.00000000E+00
  0.00000000E+00  0.00000000E+00  0.00000000E+00
  0.00000000E+00  0.00000000E+00  0.00000000E+00
  0.00000000E+00  0.00000000E+00  0.00000000E+00
  0.00000000E+00  0.00000000E+00  0.00000000E+00
  0.00000000E+00  0.00000000E+00  0.00000000E+00
  0.00000000E+00  0.00000000E+00  0.00000000E+00
  0.00000000E+00  0.00000000E+00  0.00000000E+00
  0.00000000E+00  0.00000000E+00  0.00000000E+00
  0.00000000E+00  0.00000000E+00  0.00000000E+00
  0.00000000E+00  0.00000000E+00  0.00000000E+00
  0.00000000E+00  0.00000000E+00  0.00000000E+00
  0.00000000E+00  0.00000000E+00  0.00000000E+00
  0.00000000E+00  0.00000000E+00  0.00000000E+00
  0.00000000E+00  0.00000000E+00  0.00000000E+00
  0.00000000E+00  0.00000000E+00  0.00000000E+00
  0.00000000E+00  0.00000000E+00  0.00000000E+00
  0.00000000E+00  0.00000000E+00  0.00000000E+00
  0.00000000E+00  0.00000000E+00  0.00000000E+00
  0.00000000E+00  0.00000000E+00  0.00000000E+00
  0.00000000E+00  0.00000000E+00  0.00000000E+00
  0.00000000E+00  0.00000000E+00  0.00000000E+00
  0.00000000E+00  0.00000000E+00  0.00000000E+00
  0.00000000E+00  0.00000000E+00  0.00000000E+00
  0.00000000E+00  0.00000000E+00  0.00000000E+00
  0.00000000E+00  0.00000000E+00  0.00000000E+00
