Hf Ti                                   
    1.000000000000000     
    12.2768390829749041   -0.0162714348108989    0.0058038752905214
    -6.1525014630321335   10.6526276999407195   -0.0094085019529132
     0.0093157872673796   -0.0119468345919857   19.3853558975758986
  Hf              Ti            
    60    68
Direct
     0.9190971150767668    0.5830799850826676    0.6878058382389267
     0.1699772770279465    0.5841880429553428    0.1871939902936462
     0.9161444130120967    0.5861327930353391    0.4352079841026592
     0.1656357843202275    0.0817568527577788    0.1845907061097148
     0.9210290843545967    0.3332933103455333    0.9368164411743389
     0.4147312211539879    0.5790834253518280    0.6880823111452390
     0.0806087391906521    0.6646072011864630    0.8195256663466950
     0.5789275489982370    0.4117775760338402    0.5643345433737299
     0.6625033406171326    0.8308467981614290    0.4338566095243285
     0.1651032904551467    0.8370587949091262    0.1879113219425397
     0.8336646034074513    0.1714910735211762    0.5635215120408728
     0.3378824424516251    0.4191524825917348    0.8146252093568122
     0.3324912186893748    0.6628675134024782    0.8153132385180678
     0.4147059081296210    0.3324981946353093    0.9419435024930999
     0.1627488686222588    0.5797209957802446    0.4370407388358091
     0.0836022502493667    0.6699110595467632    0.0570743926670960
     0.4224136955507838    0.5855712621905441    0.1856574320865876
     0.8345311499252706    0.1715742931176737    0.3097147759999961
     0.9082621612782051    0.5817960884646609    0.1871623895903125
     0.9141548400645666    0.0861334648128180    0.6910132134915927
     0.1700422849172130    0.8318411091106155    0.6878167207447495
     0.0913760531286471    0.4178600242079406    0.0627379993918717
     0.3330159098399311    0.9218609123787178    0.0647081836798331
     0.5794728332158101    0.1685132478951991    0.0603123905848520
     0.6689001407024092    0.8300340146746240    0.9433626480090935
     0.1677425803799968    0.3382078046159255    0.4359615436982216
     0.3370259291278646    0.1681411396583520    0.8139953178337027
     0.0856153779143044    0.1653353683023794    0.3102667607992078
     0.8299594036195330    0.9151048919592657    0.5629076632751644
     0.8296461009427225    0.4165688730502181    0.8155161813557021
     0.0899854533582336    0.9183054042621174    0.5617220323579426
     0.5802963922112222    0.6671820836245770    0.5628377316352390
     0.5890072234608709    0.9211367080572013    0.8142031406387619
     0.3271730870882806    0.6607525550073070    0.5623089439065272
     0.6672503273868059    0.5842088361916212    0.6924402269251065
     0.3373590380973300    0.1644789834930083    0.3105907414687185
     0.4131286402613763    0.3338195901511066    0.4347855785436067
     0.8378416221524290    0.4167228916758781    0.5607083380590797
     0.9172689883678055    0.0819317668907630    0.4348207964405112
     0.0869383625142678    0.1669198241979468    0.0584807106626802
     0.8296226288001296    0.4156935666988488    0.0625013823922375
     0.6611754347277140    0.3277841374568466    0.4326035184510148
     0.6642303241305484    0.3252691584112489    0.6887116527215335
     0.0838180511842752    0.1693541907649125    0.8165339301865844
     0.4195390000058098    0.8357073022855915    0.6852244554148069
     0.8325645923663592    0.9110224755650005    0.8169203401401144
     0.6622383260047896    0.0817475171123653    0.1856292800721345
     0.5803341405186585    0.9101201260696423    0.3075211774972653
     0.4175152029161769    0.0842678678145033    0.6844961669290395
     0.6609952689507993    0.0832033966829401    0.4369019288002789
     0.5865509269694716    0.4246607953047073    0.0662797041586460
     0.0860690991768943    0.6719953945570343    0.3123775860397499
     0.6651639829951405    0.5818210769153547    0.4342140999277512
     0.9190356085923883    0.8332447615940035    0.4328773346239552
     0.8317291059084748    0.1570045815375909    0.0616611665795823
     0.0908909553032825    0.1701698931589095    0.5645521225242131
     0.9178099121756716    0.8333992846319666    0.6897213945950054
     0.4140979733605734    0.8319168097960322    0.9417069885007474
     0.3343529765262885    0.9202864601611903    0.8163520965781831
     0.4116008939755004    0.8325289924245685    0.4354210931149435
     0.1733453241571240    0.8416280707760976    0.4354068708336377
     0.8277502539164191    0.6664869487400856    0.3081001739584071
     0.4068244488016777    0.3286162478728263    0.6856921608750264
     0.6687009058627658    0.5833195118332369    0.9375241053889742
     0.8339504838385748    0.6670485122000136    0.8186272900926315
     0.3320870433285589    0.1641407728733959    0.0629518229887586
     0.8303370677154743    0.1680983581027892    0.8145728661387761
     0.0825677391557808    0.9166234929359675    0.3114623199695233
     0.9150574912151229    0.0790262880227386    0.1863627140503006
     0.9142080150366375    0.8347081417668653    0.1870308912626600
     0.3369021640321063    0.9206290796555753    0.3100835363545905
     0.0769098177081379    0.9136296016685328    0.0606661193888154
     0.8316820282101972    0.9122616329304885    0.3063693641108366
     0.6670264202073310    0.0845588701619976    0.9372143996322856
     0.4228106811911903    0.0908396928565188    0.1879938396600539
     0.3313761331279861    0.4165590501636640    0.5622020262214327
     0.3395075799620635    0.6693084139357441    0.0625827705595357
     0.3338960648263419    0.9181122249978202    0.5586696390566924
     0.6690846687115948    0.0864431117764633    0.6890844788962488
     0.6625878207105201    0.3339708485071205    0.9369584048131854
     0.1725316397706583    0.3401643739115588    0.9377356421148880
     0.1594191349232152    0.5754681495611599    0.6886168641607423
     0.8336594289197951    0.4145058889631323    0.3095098282361062
     0.5810515183902819    0.9104861937951301    0.0644238929535483
     0.4184044417021364    0.5807545231372951    0.9439095742176922
     0.3357975224305799    0.4224077382917437    0.3087606069664164
     0.6645740484594083    0.8340194037761477    0.6890611990220289
     0.5826875673538036    0.4152065711694735    0.8157320134908878
     0.9138964075001198    0.0788957284943037    0.9382478628003063
     0.6728071062851181    0.8332004612064943    0.1835337668235187
     0.8353985537697644    0.6664356456003838    0.5631328591815935
     0.0834734661417605    0.4149156956361919    0.8116601417011359
     0.3343685338649696    0.6632255283592923    0.3110359298596809
     0.4161683818117091    0.0856747199388446    0.9385448534600387
     0.4136522805245566    0.3330627416415706    0.1878372183535919
     0.5871055024163652    0.4240704234202974    0.3048555205158090
     0.5859306605574656    0.1670758830925263    0.8168153806982970
     0.1695168190391216    0.0866301931744115    0.6893746518311337
     0.1656577685507432    0.0742435661439610    0.9379153789757623
     0.0820149750437233    0.4173978270480719    0.3104200405019268
     0.5847624363372110    0.9213552206745151    0.5642018639668384
     0.9185146597804554    0.3328983754610334    0.1879568676649848
     0.0810725161846453    0.4166845692499812    0.5658817266735540
     0.6643453673851509    0.3290581341853673    0.1911487419933730
     0.8404245363536104    0.9162783635509850    0.0646605811542281
     0.4117756178963667    0.0795140377237379    0.4376425512328086
     0.1705069596389081    0.5781153983741608    0.9381679948780933
     0.8310740999343605    0.6768574160058844    0.0612935231267472
     0.5775473542251945    0.1639308968882390    0.3101755130164788
     0.4163528084912112    0.8294818796156144    0.1864042795500833
     0.9232938727642582    0.8342393991708068    0.9404520970583520
     0.0877537422565045    0.6709726480372705    0.5619643887461607
     0.3312222945256948    0.4139811557172020    0.0652699208762137
     0.1673676008031790    0.3373160757056943    0.6879776956517457
     0.6708565859538698    0.5931590080135263    0.1867447508823006
     0.5849867975779968    0.6643352954167973    0.3083243173548842
     0.1705635296166307    0.0807994714826279    0.4367421955703308
     0.3327130083726799    0.1662271686459051    0.5614151387046711
     0.1658154323578193    0.3313182441456126    0.1883286472646340
     0.4155564178644401    0.5816663594191395    0.4322647063658993
     0.9215651251373989    0.3333518745028627    0.6901031262752868
     0.5835475623674646    0.6662566306743238    0.8172676299235945
     0.5772897709907521    0.1592232101564136    0.5616183438899551
     0.1643118144568644    0.8420447631650934    0.9386318037661205
     0.5870024595360979    0.6663099598768615    0.0629132817363607
     0.9198182664327620    0.3364460781931374    0.4343972574204886
     0.0821520521053189    0.9162754584846011    0.8164598106884935
     0.9064851436310525    0.5853886010920423    0.9398293378594194
 
  0.00000000E+00  0.00000000E+00  0.00000000E+00
  0.00000000E+00  0.00000000E+00  0.00000000E+00
  0.00000000E+00  0.00000000E+00  0.00000000E+00
  0.00000000E+00  0.00000000E+00  0.00000000E+00
  0.00000000E+00  0.00000000E+00  0.00000000E+00
  0.00000000E+00  0.00000000E+00  0.00000000E+00
  0.00000000E+00  0.00000000E+00  0.00000000E+00
  0.00000000E+00  0.00000000E+00  0.00000000E+00
  0.00000000E+00  0.00000000E+00  0.00000000E+00
  0.00000000E+00  0.00000000E+00  0.00000000E+00
  0.00000000E+00  0.00000000E+00  0.00000000E+00
  0.00000000E+00  0.00000000E+00  0.00000000E+00
  0.00000000E+00  0.00000000E+00  0.00000000E+00
  0.00000000E+00  0.00000000E+00  0.00000000E+00
  0.00000000E+00  0.00000000E+00  0.00000000E+00
  0.00000000E+00  0.00000000E+00  0.00000000E+00
  0.00000000E+00  0.00000000E+00  0.00000000E+00
  0.00000000E+00  0.00000000E+00  0.00000000E+00
  0.00000000E+00  0.00000000E+00  0.00000000E+00
  0.00000000E+00  0.00000000E+00  0.00000000E+00
  0.00000000E+00  0.00000000E+00  0.00000000E+00
  0.00000000E+00  0.00000000E+00  0.00000000E+00
  0.00000000E+00  0.00000000E+00  0.00000000E+00
  0.00000000E+00  0.00000000E+00  0.00000000E+00
  0.00000000E+00  0.00000000E+00  0.00000000E+00
  0.00000000E+00  0.00000000E+00  0.00000000E+00
  0.00000000E+00  0.00000000E+00  0.00000000E+00
  0.00000000E+00  0.00000000E+00  0.00000000E+00
  0.00000000E+00  0.00000000E+00  0.00000000E+00
  0.00000000E+00  0.00000000E+00  0.00000000E+00
  0.00000000E+00  0.00000000E+00  0.00000000E+00
  0.00000000E+00  0.00000000E+00  0.00000000E+00
  0.00000000E+00  0.00000000E+00  0.00000000E+00
  0.00000000E+00  0.00000000E+00  0.00000000E+00
  0.00000000E+00  0.00000000E+00  0.00000000E+00
  0.00000000E+00  0.00000000E+00  0.00000000E+00
  0.00000000E+00  0.00000000E+00  0.00000000E+00
  0.00000000E+00  0.00000000E+00  0.00000000E+00
  0.00000000E+00  0.00000000E+00  0.00000000E+00
  0.00000000E+00  0.00000000E+00  0.00000000E+00
  0.00000000E+00  0.00000000E+00  0.00000000E+00
  0.00000000E+00  0.00000000E+00  0.00000000E+00
  0.00000000E+00  0.00000000E+00  0.00000000E+00
  0.00000000E+00  0.00000000E+00  0.00000000E+00
  0.00000000E+00  0.00000000E+00  0.00000000E+00
  0.00000000E+00  0.00000000E+00  0.00000000E+00
  0.00000000E+00  0.00000000E+00  0.00000000E+00
  0.00000000E+00  0.00000000E+00  0.00000000E+00
  0.00000000E+00  0.00000000E+00  0.00000000E+00
  0.00000000E+00  0.00000000E+00  0.00000000E+00
  0.00000000E+00  0.00000000E+00  0.00000000E+00
  0.00000000E+00  0.00000000E+00  0.00000000E+00
  0.00000000E+00  0.00000000E+00  0.00000000E+00
  0.00000000E+00  0.00000000E+00  0.00000000E+00
  0.00000000E+00  0.00000000E+00  0.00000000E+00
  0.00000000E+00  0.00000000E+00  0.00000000E+00
  0.00000000E+00  0.00000000E+00  0.00000000E+00
  0.00000000E+00  0.00000000E+00  0.00000000E+00
  0.00000000E+00  0.00000000E+00  0.00000000E+00
  0.00000000E+00  0.00000000E+00  0.00000000E+00
  0.00000000E+00  0.00000000E+00  0.00000000E+00
  0.00000000E+00  0.00000000E+00  0.00000000E+00
  0.00000000E+00  0.00000000E+00  0.00000000E+00
  0.00000000E+00  0.00000000E+00  0.00000000E+00
  0.00000000E+00  0.00000000E+00  0.00000000E+00
  0.00000000E+00  0.00000000E+00  0.00000000E+00
  0.00000000E+00  0.00000000E+00  0.00000000E+00
  0.00000000E+00  0.00000000E+00  0.00000000E+00
  0.00000000E+00  0.00000000E+00  0.00000000E+00
  0.00000000E+00  0.00000000E+00  0.00000000E+00
  0.00000000E+00  0.00000000E+00  0.00000000E+00
  0.00000000E+00  0.00000000E+00  0.00000000E+00
  0.00000000E+00  0.00000000E+00  0.00000000E+00
  0.00000000E+00  0.00000000E+00  0.00000000E+00
  0.00000000E+00  0.00000000E+00  0.00000000E+00
  0.00000000E+00  0.00000000E+00  0.00000000E+00
  0.00000000E+00  0.00000000E+00  0.00000000E+00
  0.00000000E+00  0.00000000E+00  0.00000000E+00
  0.00000000E+00  0.00000000E+00  0.00000000E+00
  0.00000000E+00  0.00000000E+00  0.00000000E+00
  0.00000000E+00  0.00000000E+00  0.00000000E+00
  0.00000000E+00  0.00000000E+00  0.00000000E+00
  0.00000000E+00  0.00000000E+00  0.00000000E+00
  0.00000000E+00  0.00000000E+00  0.00000000E+00
  0.00000000E+00  0.00000000E+00  0.00000000E+00
  0.00000000E+00  0.00000000E+00  0.00000000E+00
  0.00000000E+00  0.00000000E+00  0.00000000E+00
  0.00000000E+00  0.00000000E+00  0.00000000E+00
  0.00000000E+00  0.00000000E+00  0.00000000E+00
  0.00000000E+00  0.00000000E+00  0.00000000E+00
  0.00000000E+00  0.00000000E+00  0.00000000E+00
  0.00000000E+00  0.00000000E+00  0.00000000E+00
  0.00000000E+00  0.00000000E+00  0.00000000E+00
  0.00000000E+00  0.00000000E+00  0.00000000E+00
  0.00000000E+00  0.00000000E+00  0.00000000E+00
  0.00000000E+00  0.00000000E+00  0.00000000E+00
  0.00000000E+00  0.00000000E+00  0.00000000E+00
  0.00000000E+00  0.00000000E+00  0.00000000E+00
  0.00000000E+00  0.00000000E+00  0.00000000E+00
  0.00000000E+00  0.00000000E+00  0.00000000E+00
  0.00000000E+00  0.00000000E+00  0.00000000E+00
  0.00000000E+00  0.00000000E+00  0.00000000E+00
  0.00000000E+00  0.00000000E+00  0.00000000E+00
  0.00000000E+00  0.00000000E+00  0.00000000E+00
  0.00000000E+00  0.00000000E+00  0.00000000E+00
  0.00000000E+00  0.00000000E+00  0.00000000E+00
  0.00000000E+00  0.00000000E+00  0.00000000E+00
  0.00000000E+00  0.00000000E+00  0.00000000E+00
  0.00000000E+00  0.00000000E+00  0.00000000E+00
  0.00000000E+00  0.00000000E+00  0.00000000E+00
  0.00000000E+00  0.00000000E+00  0.00000000E+00
  0.00000000E+00  0.00000000E+00  0.00000000E+00
  0.00000000E+00  0.00000000E+00  0.00000000E+00
  0.00000000E+00  0.00000000E+00  0.00000000E+00
  0.00000000E+00  0.00000000E+00  0.00000000E+00
  0.00000000E+00  0.00000000E+00  0.00000000E+00
  0.00000000E+00  0.00000000E+00  0.00000000E+00
  0.00000000E+00  0.00000000E+00  0.00000000E+00
  0.00000000E+00  0.00000000E+00  0.00000000E+00
  0.00000000E+00  0.00000000E+00  0.00000000E+00
  0.00000000E+00  0.00000000E+00  0.00000000E+00
  0.00000000E+00  0.00000000E+00  0.00000000E+00
  0.00000000E+00  0.00000000E+00  0.00000000E+00
  0.00000000E+00  0.00000000E+00  0.00000000E+00
  0.00000000E+00  0.00000000E+00  0.00000000E+00
  0.00000000E+00  0.00000000E+00  0.00000000E+00
  0.00000000E+00  0.00000000E+00  0.00000000E+00
  0.00000000E+00  0.00000000E+00  0.00000000E+00
