Nb Ta                                   
    1.000000000000000     
    13.2452614709858736   -0.0020830175308042   -0.0014700096328170
    -0.0020835064105730   13.2481982406947356   -0.0005059852765358
    -0.0014703824239110   -0.0005059989841417   13.2469028552320722
   Nb   Ta
    92    36
Direct
  0.7505840829474008 -0.0010667167561791  0.2506383683320296
 -0.0000845673129326  0.4997741241183485  0.5003133039510262
  0.6252395898360424  0.6255323899089646  0.1246376474087190
  0.8759793091472213  0.8762138840372589  0.8743046365928322
  0.6238260143267593  0.6251691063000171  0.3769857376019407
  0.6248169628438656  0.3730892028803460  0.3769995511762550
  0.2490859168403956  0.7487245564631857  0.0011076697150496
  0.4992787604708442  0.2506369888609543  0.2509604432960424
  0.8736966203106552  0.6239220382618251  0.6265311684812285
  0.6236434601381555  0.3747306449919258  0.1254681534565912
  0.2500450287267416  0.2509428955142646  0.2503839940543742
  0.8755265198662577  0.3725876620993933  0.3758063592065171
  0.1275771847501223  0.3751513168889370  0.6247881729193023
  0.1238869759284080  0.1238802037078113  0.8754268728506065
 -0.0000204803629573  0.2505939033660245  0.5020511131823716
 -0.0000275489080361  0.0000798087405480  0.4998566437335838
  0.4990156128983018  0.4994984584006957  0.7526906745650105
  0.4994075819489561  0.4982853539837132  0.4986133391401694
  0.8750397428496158  0.1251498534102516  0.6251262357154190
  0.5009987292997869  0.7512042327313634  0.4999211511177215
  0.6260402119976225  0.1251994059371344  0.1270195981345844
  0.1242151432246233  0.1255704013895020  0.6233190137183025
  0.3740824620003790  0.1237292048040059  0.8757951722369015
 -0.0003688061628606  0.2489376453277808 -0.0015558485056488
  0.5022917532122242  0.4997176955590781  0.2487791299242662
  0.2493193887812854  0.0012455450270576  0.7478131981335221
  0.7505404459982691  0.7505425591538727 -0.0017492139442833
  0.1246425576973828  0.6243219276681603  0.6238385610957304
  0.0006727901976429  0.7516285955800126  0.2483674714643621
  0.7512573548460898  0.5005907972920531  0.4971599330892928
  0.0021661064033880  0.5000457569476955 -0.0005653424714588
  0.7501275624041696 -0.0028298226472075  0.7480605840893227
  0.6249093651260653  0.3752408056009406  0.8730728104566334
  0.6232683555692762  0.8752582099590396  0.8749362232960022
  0.6247355144712919  0.8759317089087466  0.3742992381054799
  0.1230604869248256  0.6263167301919403  0.8756274900820277
  0.2504568167195732  0.0012175415549116  0.0008427064653377
  0.2496838803709311  0.7504353922155934  0.4999476504121804
  0.7490045331615772  0.0001914734352227 -0.0000689851255548
  0.2513667117386320  0.2487355262361063  0.4996645092997418
  0.1252271751517959  0.3747903797127620  0.3754899893931760
  0.6263365654246502  0.1265803233096660  0.6247678252279684
  0.1260033202668893  0.8745969573169109  0.6257151993225208
  0.3770373333089390  0.6242788453094620  0.6233147747967162
  0.8761295209747606  0.3753073209147129  0.1245601710429948
  0.0003088985455977  0.2497341870283907  0.2499510127199137
 -0.0017128564643080  0.7496306573731718  0.7507563142987905
  0.2491440022581489 -0.0008603027235533  0.2505856907596903
  0.3758603500653988  0.8743494543817475  0.1238126469357738
  0.3747451019426121  0.3738787951037035  0.8733720911851716
  0.3752908354326404  0.6278807082163794  0.8762423709607995
  0.3744167713771497  0.3765925314930779  0.3762450124976691
  0.7496199438804466  0.7472484351171652  0.2508705770830736
  0.6269922308640951  0.1241693264353395  0.8750279153830532
  0.2494381067450341  0.5010601756193996  0.7516126121313184
  0.8723477550963697  0.8745230175045017  0.1261360197088460
  0.4994334907512712 -0.0001591627888183  0.2490782124195150
  0.1246022564038848  0.1272025399833298  0.1257038645509249
  0.8762169058729878  0.8748049056355209  0.6240227478011739
  0.7475242274203607  0.4983627664237780  0.0023077496191937
  0.1251003268730197  0.3745921102593206  0.8748682892349080
  0.3755431923144251  0.3755744892010596  0.1252608291891337
  0.0005800481939073  0.4982733687964004  0.7491707112333297
  0.8752306941837367  0.3756168746150172  0.8750717315201665
  0.7502632140846328  0.7508307143747779  0.5015018450454065
  0.7493784529211153  0.2489957990944040  0.5005749564239074
  0.3753045820088802  0.1261739757256901  0.1244614451033190
  0.5019338099893749  0.7493328107708289  0.7505078577834041
  0.2501407262850184  0.2518239756492973 -0.0001743930438891
  0.2493756363131298  0.4999240836323059  0.5000721058373528
 -0.0003038512083667  0.7489811184397973  0.5014551854341786
  0.2488822082632931  0.2502784683442354  0.7502395680334019
 -0.0000422867971902  0.0011988341536053  0.7508370225220338
  0.3742235665647595  0.1251193177234242  0.6263120167689724
  0.2493985625714312  0.7476223373942873  0.7488337909467516
  0.8727105962549626  0.3751730660891677  0.6251296143173791
  0.6225876856906023  0.8730155550513408  0.6253892357857055
  0.7508637822656145  0.5009470696964627  0.7501167804643988
  0.5002034507427698  0.7503532744052495 -0.0001928199560822
  0.3748378297417940  0.1237006958827771  0.3729516549566128
  0.5012998671142670  0.2495879830840871 -0.0015341342564712
  0.1247522065220666  0.3764056081564526  0.1250175591378937
  0.2498464565241418  0.4997216359749656  0.2492540646567681
  0.1267837994329910  0.8744825850350019  0.1243402057346367
  0.6249836210241677  0.8747873446629048  0.1248043869872716
  0.5002609480233112  0.7503158547799377  0.2497893267749885
  0.6268175499217588  0.6248604787059366  0.8744066568885722
 -0.0019298899096050  0.4993522463218214  0.2511784370382423
  0.8767806764792646  0.6273057982031317  0.3738643997616736
  0.7504621704680133  0.2503484273737300  0.7509902633980721
  0.7502652723132969  0.2530256419269669  0.2486375762165498
  0.5007171067497503  0.0017336928061181  0.7501805910156399
  0.6270603721655286  0.1254420814815227  0.3729275384888978
  0.7489392847510749  0.2511049894709000  0.0002752741823880
  0.3740759434552213  0.6256581626923254  0.3733844647399974
  0.7480412356400969 -0.0010709926196592  0.5006500996823159
  0.8761071605927190  0.6244806683261390  0.1229082199226438
  0.8748465786515492  0.6238775487814280  0.8770960668437009
  0.3754329636661323  0.3755809565874487  0.6257666376625394
  0.1278683458099030  0.8758629795669293  0.8734819967476661
  0.1242323130449405  0.6235473356463939  0.1267072581774549
  0.3745551467985291  0.8739524334210697  0.3764166006454219
  0.4990364046620495  0.2475266805197014  0.5011461697015500
  0.2519533247352864  0.5000583900941589 -0.0007309400747960
  0.3745190759545778  0.6249988969824254  0.1268855618525382
  0.3728673267896374  0.8753206474355506  0.8728747768177331
  0.7506896711801545  0.7503627328519499  0.7496946145356113
  0.8738827868727571  0.1258780876870267  0.1248766684508584
  0.0002566787107813  0.7530779141318303 -0.0004650696760437
  0.6239917741469907  0.3773560887077123  0.6251480959502572
  0.3758008891618679  0.8741393061019761  0.6263690366032619
  0.6251589920944332  0.6218821386599584  0.6246521884937262
  0.4996930245795424  0.0005270771180775  0.0002337940154600
  0.1256226647428882  0.6256636906998154  0.3734652707810774
  0.8745809989109439  0.1241602231500745  0.8766420462285280
  0.5000289970003545  0.2488809888092683  0.7494414989287685
  0.1244112467760176  0.8751325248894887  0.3763697710080578
  0.8763205596634746  0.8757278358646036  0.3752366611830906
  0.1230758589672608  0.1244188580905416  0.3751974913579389
  0.5001999193768942  0.0021044301042218  0.4999692991657329
  0.0004811502396048 -0.0016829937939644  0.0023014915675237
  0.8746859896911761  0.1239377046221440  0.3731402094588713
  0.0005212079817387 -0.0002647994886170  0.2471177589218134
  0.2496885338730450  0.7512422454883142  0.2495831596926769
  0.0002544096870314  0.2505744388363800  0.7495655302295500
  0.2516259608440044  0.0003951650584459  0.5002268696473267
  0.7500004623416611  0.5005783073460260  0.2512344234281965
  0.4982906679730807  0.5000131509299445  0.0001047693916224
 
  0.00000000E+00  0.00000000E+00  0.00000000E+00
  0.00000000E+00  0.00000000E+00  0.00000000E+00
  0.00000000E+00  0.00000000E+00  0.00000000E+00
  0.00000000E+00  0.00000000E+00  0.00000000E+00
  0.00000000E+00  0.00000000E+00  0.00000000E+00
  0.00000000E+00  0.00000000E+00  0.00000000E+00
  0.00000000E+00  0.00000000E+00  0.00000000E+00
  0.00000000E+00  0.00000000E+00  0.00000000E+00
  0.00000000E+00  0.00000000E+00  0.00000000E+00
  0.00000000E+00  0.00000000E+00  0.00000000E+00
  0.00000000E+00  0.00000000E+00  0.00000000E+00
  0.00000000E+00  0.00000000E+00  0.00000000E+00
  0.00000000E+00  0.00000000E+00  0.00000000E+00
  0.00000000E+00  0.00000000E+00  0.00000000E+00
  0.00000000E+00  0.00000000E+00  0.00000000E+00
  0.00000000E+00  0.00000000E+00  0.00000000E+00
  0.00000000E+00  0.00000000E+00  0.00000000E+00
  0.00000000E+00  0.00000000E+00  0.00000000E+00
  0.00000000E+00  0.00000000E+00  0.00000000E+00
  0.00000000E+00  0.00000000E+00  0.00000000E+00
  0.00000000E+00  0.00000000E+00  0.00000000E+00
  0.00000000E+00  0.00000000E+00  0.00000000E+00
  0.00000000E+00  0.00000000E+00  0.00000000E+00
  0.00000000E+00  0.00000000E+00  0.00000000E+00
  0.00000000E+00  0.00000000E+00  0.00000000E+00
  0.00000000E+00  0.00000000E+00  0.00000000E+00
  0.00000000E+00  0.00000000E+00  0.00000000E+00
  0.00000000E+00  0.00000000E+00  0.00000000E+00
  0.00000000E+00  0.00000000E+00  0.00000000E+00
  0.00000000E+00  0.00000000E+00  0.00000000E+00
  0.00000000E+00  0.00000000E+00  0.00000000E+00
  0.00000000E+00  0.00000000E+00  0.00000000E+00
  0.00000000E+00  0.00000000E+00  0.00000000E+00
  0.00000000E+00  0.00000000E+00  0.00000000E+00
  0.00000000E+00  0.00000000E+00  0.00000000E+00
  0.00000000E+00  0.00000000E+00  0.00000000E+00
  0.00000000E+00  0.00000000E+00  0.00000000E+00
  0.00000000E+00  0.00000000E+00  0.00000000E+00
  0.00000000E+00  0.00000000E+00  0.00000000E+00
  0.00000000E+00  0.00000000E+00  0.00000000E+00
  0.00000000E+00  0.00000000E+00  0.00000000E+00
  0.00000000E+00  0.00000000E+00  0.00000000E+00
  0.00000000E+00  0.00000000E+00  0.00000000E+00
  0.00000000E+00  0.00000000E+00  0.00000000E+00
  0.00000000E+00  0.00000000E+00  0.00000000E+00
  0.00000000E+00  0.00000000E+00  0.00000000E+00
  0.00000000E+00  0.00000000E+00  0.00000000E+00
  0.00000000E+00  0.00000000E+00  0.00000000E+00
  0.00000000E+00  0.00000000E+00  0.00000000E+00
  0.00000000E+00  0.00000000E+00  0.00000000E+00
  0.00000000E+00  0.00000000E+00  0.00000000E+00
  0.00000000E+00  0.00000000E+00  0.00000000E+00
  0.00000000E+00  0.00000000E+00  0.00000000E+00
  0.00000000E+00  0.00000000E+00  0.00000000E+00
  0.00000000E+00  0.00000000E+00  0.00000000E+00
  0.00000000E+00  0.00000000E+00  0.00000000E+00
  0.00000000E+00  0.00000000E+00  0.00000000E+00
  0.00000000E+00  0.00000000E+00  0.00000000E+00
  0.00000000E+00  0.00000000E+00  0.00000000E+00
  0.00000000E+00  0.00000000E+00  0.00000000E+00
  0.00000000E+00  0.00000000E+00  0.00000000E+00
  0.00000000E+00  0.00000000E+00  0.00000000E+00
  0.00000000E+00  0.00000000E+00  0.00000000E+00
  0.00000000E+00  0.00000000E+00  0.00000000E+00
  0.00000000E+00  0.00000000E+00  0.00000000E+00
  0.00000000E+00  0.00000000E+00  0.00000000E+00
  0.00000000E+00  0.00000000E+00  0.00000000E+00
  0.00000000E+00  0.00000000E+00  0.00000000E+00
  0.00000000E+00  0.00000000E+00  0.00000000E+00
  0.00000000E+00  0.00000000E+00  0.00000000E+00
  0.00000000E+00  0.00000000E+00  0.00000000E+00
  0.00000000E+00  0.00000000E+00  0.00000000E+00
  0.00000000E+00  0.00000000E+00  0.00000000E+00
  0.00000000E+00  0.00000000E+00  0.00000000E+00
  0.00000000E+00  0.00000000E+00  0.00000000E+00
  0.00000000E+00  0.00000000E+00  0.00000000E+00
  0.00000000E+00  0.00000000E+00  0.00000000E+00
  0.00000000E+00  0.00000000E+00  0.00000000E+00
  0.00000000E+00  0.00000000E+00  0.00000000E+00
  0.00000000E+00  0.00000000E+00  0.00000000E+00
  0.00000000E+00  0.00000000E+00  0.00000000E+00
  0.00000000E+00  0.00000000E+00  0.00000000E+00
  0.00000000E+00  0.00000000E+00  0.00000000E+00
  0.00000000E+00  0.00000000E+00  0.00000000E+00
  0.00000000E+00  0.00000000E+00  0.00000000E+00
  0.00000000E+00  0.00000000E+00  0.00000000E+00
  0.00000000E+00  0.00000000E+00  0.00000000E+00
  0.00000000E+00  0.00000000E+00  0.00000000E+00
  0.00000000E+00  0.00000000E+00  0.00000000E+00
  0.00000000E+00  0.00000000E+00  0.00000000E+00
  0.00000000E+00  0.00000000E+00  0.00000000E+00
  0.00000000E+00  0.00000000E+00  0.00000000E+00
  0.00000000E+00  0.00000000E+00  0.00000000E+00
  0.00000000E+00  0.00000000E+00  0.00000000E+00
  0.00000000E+00  0.00000000E+00  0.00000000E+00
  0.00000000E+00  0.00000000E+00  0.00000000E+00
  0.00000000E+00  0.00000000E+00  0.00000000E+00
  0.00000000E+00  0.00000000E+00  0.00000000E+00
  0.00000000E+00  0.00000000E+00  0.00000000E+00
  0.00000000E+00  0.00000000E+00  0.00000000E+00
  0.00000000E+00  0.00000000E+00  0.00000000E+00
  0.00000000E+00  0.00000000E+00  0.00000000E+00
  0.00000000E+00  0.00000000E+00  0.00000000E+00
  0.00000000E+00  0.00000000E+00  0.00000000E+00
  0.00000000E+00  0.00000000E+00  0.00000000E+00
  0.00000000E+00  0.00000000E+00  0.00000000E+00
  0.00000000E+00  0.00000000E+00  0.00000000E+00
  0.00000000E+00  0.00000000E+00  0.00000000E+00
  0.00000000E+00  0.00000000E+00  0.00000000E+00
  0.00000000E+00  0.00000000E+00  0.00000000E+00
  0.00000000E+00  0.00000000E+00  0.00000000E+00
  0.00000000E+00  0.00000000E+00  0.00000000E+00
  0.00000000E+00  0.00000000E+00  0.00000000E+00
  0.00000000E+00  0.00000000E+00  0.00000000E+00
  0.00000000E+00  0.00000000E+00  0.00000000E+00
  0.00000000E+00  0.00000000E+00  0.00000000E+00
  0.00000000E+00  0.00000000E+00  0.00000000E+00
  0.00000000E+00  0.00000000E+00  0.00000000E+00
  0.00000000E+00  0.00000000E+00  0.00000000E+00
  0.00000000E+00  0.00000000E+00  0.00000000E+00
  0.00000000E+00  0.00000000E+00  0.00000000E+00
  0.00000000E+00  0.00000000E+00  0.00000000E+00
  0.00000000E+00  0.00000000E+00  0.00000000E+00
  0.00000000E+00  0.00000000E+00  0.00000000E+00
  0.00000000E+00  0.00000000E+00  0.00000000E+00
  0.00000000E+00  0.00000000E+00  0.00000000E+00
  0.00000000E+00  0.00000000E+00  0.00000000E+00
  0.00000000E+00  0.00000000E+00  0.00000000E+00
