Hf Nb                                   
    1.000000000000000     
    12.0094013111998983    1.0620807092295816   -0.0799933905394962
    -5.0802691666089723   10.9152914803677312    0.0404217878812567
    -0.1202048406488962    0.0175105769088446   19.4099748841798103
  Hf             Nb           
              80              48
Direct
  0.3105615638938103  0.4335232863942062  0.5643301171463797
  0.4359496602085199  0.8121692963303679  0.9375334395832429
  0.5905390467791770  0.6920832270270610  0.8156178369186479
  0.0423584503270125  0.4386183717491344  0.3211412723428349
  0.8234992970331048  0.9260188351223791  0.8130842719111117
  0.5504599640596225  0.9221536921086420  0.3062829875968198
  0.9315251303028864  0.5775587177024292  0.1916516117903842
  0.6719721998706829  0.8243251756926250  0.6844105487752427
  0.1860466049031547  0.0748683161007813  0.9451228952909745
  0.3252706319269748  0.1995948432433608  0.3187935347427212
  0.0773319077929927  0.1922592457477651  0.0578171446762702
  0.0639079023638545  0.1929296887520838  0.3141332911609596
  0.5789567206535093  0.9489849835243898  0.8081397374396279
  0.4404299084987089  0.0638981657573324  0.1838589842166355
  0.7836429364073650  0.4214039460165884  0.3077706997003098
  0.0549015793164856  0.9316602342438099  0.2958310384350266
  0.4275883438232427  0.5785832926319444  0.1836166353758721
  0.9458637773595197  0.8092437226755668  0.9357163912685443
  0.4283729758160307  0.5579058050517398  0.9233142666357826
  0.1749198018275733  0.5520430950021435  0.6796006317755066
  0.0940801891388866  0.4368147591195812  0.8147083400135424
  0.1827884241851873  0.5773585238674618  0.1932340361783152
  0.8117211154914304  0.9445834132987053  0.3183932343852639
  0.8829288710653211  0.8060568946980959  0.1881559582182176
  0.8336732973169081  0.6823469860532049  0.3203779098590105
  0.5597241974715151  0.9436119819143106  0.0649610743336562
  0.6781289486593471  0.3154379649508941  0.4462788914115642
  0.3036862338587521  0.4428531517009996  0.3131944216987159
  0.6873265233785757  0.3029672042912717  0.9350291687255580
  0.9474075140357764  0.0661848105539373  0.6810028379219719
  0.9135329756782693  0.0531327178125154  0.9470121028411792
  0.9432541835903637  0.5629079424746138  0.4414417072424964
  0.9243737567201329  0.3104779680176534  0.1888536481563269
  0.4346589451827479  0.3152315517886173  0.9378068657938088
  0.9365452517311671  0.8098150583744695  0.6892035937411668
  0.0925654565181942  0.6989245887517709  0.3103733210608045
  0.5603237658865990  0.6899959638377308  0.0578271326463862
  0.0552855417779239  0.1792098757494098  0.8193686081088679
  0.3176998392111814  0.6697917256296780  0.8089655577543932
  0.5603248330463061  0.6750435316274643  0.3177871498392705
  0.1823117027856259  0.5778456262572950  0.9447698946815455
  0.9491417218509564  0.3197243220022991  0.9434506293059246
  0.9451194248381011  0.0645080463130822  0.1841475083605817
  0.8106158928983449  0.6740207972804386  0.0572101318594441
  0.4380554966668150  0.3140005021022945  0.6863214610236203
  0.0643313152275631  0.6823138943509620  0.8102265600662291
  0.5562699432475530  0.9352320732260599  0.5631838170890580
  0.8143996952265503  0.9223274257139246  0.5554602145063199
  0.6706596595764331  0.5722417444405451  0.4338656446694128
  0.2011464828063366  0.0907307261027732  0.1806462505683056
  0.6723014139795656  0.5600715979905795  0.1972213678305489
  0.8234438751909631  0.6689689087957971  0.5601269682892166
  0.9357855612612472  0.8343356985384860  0.4401520108660479
  0.5832599231287335  0.4398077830043386  0.0591296864970507
  0.2977633464959322  0.9292802512164493  0.0570561600347754
  0.5699270197588254  0.4269680897393014  0.5579014383956579
  0.4396712115310251  0.5815277592196919  0.6908694108933083
  0.4421708503834166  0.0671087989421443  0.9344285415243478
  0.4338339987097324  0.3204464824877864  0.1852443724782630
  0.8178709537534669  0.4354846102996869  0.8086831097821908
  0.1820800774883532  0.0594959514850484  0.4379487659295866
  0.0455567806525096  0.9265023779897202  0.0753635020978510
  0.3185706140411697  0.4356889811522792  0.0555218719720819
  0.6974236681776447  0.0793517145602816  0.1924124521446200
  0.3087636347200443  0.1742364827785249  0.8096897207286071
  0.9401219423491091  0.3183970701444950  0.6891760481010519
  0.3053536739329799  0.9366354588124000  0.3182339569392760
  0.5690148441476544  0.6803714868543443  0.5550751005273821
  0.6822656133982752  0.0641247836902153  0.4332485943150854
  0.8323371590489310  0.4235021842074402  0.0641743169330180
  0.7976619175420879  0.1769987183069588  0.8164477838035833
  0.0854755473901619  0.9412900282445795  0.8118247217207668
  0.5718501111846377  0.1840010239068983  0.3148508056622452
  0.0702200187996672  0.6827669568124120  0.0577134151321061
  0.3254520473565037  0.9256773419813985  0.7993792586352179
  0.6889678456942443  0.5568139569023844  0.6923880755069586
  0.3162414397327289  0.6941438796051231  0.5617448271848928
  0.8280300530098842  0.4255003821744072  0.5728544310355693
  0.8140249647275639  0.1756986078764281  0.5644719742015861
  0.1869995450613562  0.8014533319816144  0.4476050034453440
  0.6895574257640587  0.5599491000496548  0.9278182151982354
  0.6904694739187716  0.0762570745938468  0.6868706882807599
  0.1787015494588254  0.3305556222412096  0.1801355410624360
  0.9379957751628216  0.3086986314742849  0.4436774946945441
  0.4375166068963242  0.8144163707012252  0.4350454442888750
  0.6824474647865487  0.2975643745845844  0.6869096098114148
  0.4198950699260776  0.8133721015868713  0.1825450866363404
  0.1954054674260767  0.8345355991520035  0.9238529567298157
  0.0663963743081702  0.4329234457455441  0.5553847934359095
  0.1894225145039016  0.8148863728744312  0.6781953846501749
  0.1940742042463959  0.5534486285996142  0.4394340402350425
  0.4259817341356041  0.3095467561500918  0.4436480004353052
  0.3227465890300236  0.6920330783876016  0.0694274233606514
  0.6984985393919539  0.8219372821005561  0.9434345133833449
  0.5638895421232877  0.4302339917531731  0.8154556696123042
  0.8226866189040611  0.6745701079076604  0.8182050630227955
  0.6746053933443206  0.3118515031713908  0.1786252789133627
  0.9380317396243982  0.5752789465497185  0.6812521011419665
  0.4321951668394486  0.0599572272871043  0.4461491050319703
  0.1869486619149690  0.3129171337929346  0.4403842669376091
  0.1803751293002636  0.2957837909992030  0.6871313213073853
  0.8288895537597354  0.2024834406209417  0.3217196157705985
  0.3425961869689628  0.1899856483124693  0.0608190313192148
  0.1997648077522767  0.3337415829248123  0.9257720028467682
  0.6712302278433162  0.8205589301150721  0.4359156348972124
  0.3251308702276119  0.4187188657737418  0.8008197674546558
  0.4402166970717346  0.0655529338815270  0.6811317939337163
  0.8059584758365469  0.1698948670276847  0.0592876620855399
  0.5391068749947737  0.4143640524818837  0.3215703820991448
  0.3146489467787319  0.1858734248399030  0.5610405834184717
  0.5736631324233583  0.1942133386663576  0.0641212691505160
  0.3268141473483816  0.6962415505840527  0.3173937131074194
  0.1954598540037667  0.0622873770307508  0.6790449516151210
  0.5537311573364969  0.1782180235293366  0.5663927912939098
  0.9152502607570259  0.5578614670272736  0.9386954111775317
  0.4199624771621184  0.5613719366395667  0.4399126001319357
  0.0687716660592638  0.9435697377997654  0.5662348182346233
  0.7967139206772996  0.9267057870109933  0.0692731066657974
  0.4259858514893279  0.8236865770583883  0.6920137327509187
  0.5613928720882317  0.1944170714967431  0.8024347177763176
  0.0762978656902136  0.1922255966059534  0.5603076796546462
  0.1856806062397388  0.8261565273122981  0.1846072540391174
  0.3102512405196492  0.9465661261873672  0.5629079036091404
  0.9407702881008639  0.0853511897859490  0.4455064288256882
  0.0761227395175579  0.4296042352957428  0.0761416284989089
  0.6769693065101299  0.0436763675650092  0.9407152256870059
  0.6543768730756653  0.8183750665561738  0.1895157131027863
  0.0677836518796000  0.6854135732900417  0.5711598812308958
 
  0.00000000E+00  0.00000000E+00  0.00000000E+00
  0.00000000E+00  0.00000000E+00  0.00000000E+00
  0.00000000E+00  0.00000000E+00  0.00000000E+00
  0.00000000E+00  0.00000000E+00  0.00000000E+00
  0.00000000E+00  0.00000000E+00  0.00000000E+00
  0.00000000E+00  0.00000000E+00  0.00000000E+00
  0.00000000E+00  0.00000000E+00  0.00000000E+00
  0.00000000E+00  0.00000000E+00  0.00000000E+00
  0.00000000E+00  0.00000000E+00  0.00000000E+00
  0.00000000E+00  0.00000000E+00  0.00000000E+00
  0.00000000E+00  0.00000000E+00  0.00000000E+00
  0.00000000E+00  0.00000000E+00  0.00000000E+00
  0.00000000E+00  0.00000000E+00  0.00000000E+00
  0.00000000E+00  0.00000000E+00  0.00000000E+00
  0.00000000E+00  0.00000000E+00  0.00000000E+00
  0.00000000E+00  0.00000000E+00  0.00000000E+00
  0.00000000E+00  0.00000000E+00  0.00000000E+00
  0.00000000E+00  0.00000000E+00  0.00000000E+00
  0.00000000E+00  0.00000000E+00  0.00000000E+00
  0.00000000E+00  0.00000000E+00  0.00000000E+00
  0.00000000E+00  0.00000000E+00  0.00000000E+00
  0.00000000E+00  0.00000000E+00  0.00000000E+00
  0.00000000E+00  0.00000000E+00  0.00000000E+00
  0.00000000E+00  0.00000000E+00  0.00000000E+00
  0.00000000E+00  0.00000000E+00  0.00000000E+00
  0.00000000E+00  0.00000000E+00  0.00000000E+00
  0.00000000E+00  0.00000000E+00  0.00000000E+00
  0.00000000E+00  0.00000000E+00  0.00000000E+00
  0.00000000E+00  0.00000000E+00  0.00000000E+00
  0.00000000E+00  0.00000000E+00  0.00000000E+00
  0.00000000E+00  0.00000000E+00  0.00000000E+00
  0.00000000E+00  0.00000000E+00  0.00000000E+00
  0.00000000E+00  0.00000000E+00  0.00000000E+00
  0.00000000E+00  0.00000000E+00  0.00000000E+00
  0.00000000E+00  0.00000000E+00  0.00000000E+00
  0.00000000E+00  0.00000000E+00  0.00000000E+00
  0.00000000E+00  0.00000000E+00  0.00000000E+00
  0.00000000E+00  0.00000000E+00  0.00000000E+00
  0.00000000E+00  0.00000000E+00  0.00000000E+00
  0.00000000E+00  0.00000000E+00  0.00000000E+00
  0.00000000E+00  0.00000000E+00  0.00000000E+00
  0.00000000E+00  0.00000000E+00  0.00000000E+00
  0.00000000E+00  0.00000000E+00  0.00000000E+00
  0.00000000E+00  0.00000000E+00  0.00000000E+00
  0.00000000E+00  0.00000000E+00  0.00000000E+00
  0.00000000E+00  0.00000000E+00  0.00000000E+00
  0.00000000E+00  0.00000000E+00  0.00000000E+00
  0.00000000E+00  0.00000000E+00  0.00000000E+00
  0.00000000E+00  0.00000000E+00  0.00000000E+00
  0.00000000E+00  0.00000000E+00  0.00000000E+00
  0.00000000E+00  0.00000000E+00  0.00000000E+00
  0.00000000E+00  0.00000000E+00  0.00000000E+00
  0.00000000E+00  0.00000000E+00  0.00000000E+00
  0.00000000E+00  0.00000000E+00  0.00000000E+00
  0.00000000E+00  0.00000000E+00  0.00000000E+00
  0.00000000E+00  0.00000000E+00  0.00000000E+00
  0.00000000E+00  0.00000000E+00  0.00000000E+00
  0.00000000E+00  0.00000000E+00  0.00000000E+00
  0.00000000E+00  0.00000000E+00  0.00000000E+00
  0.00000000E+00  0.00000000E+00  0.00000000E+00
  0.00000000E+00  0.00000000E+00  0.00000000E+00
  0.00000000E+00  0.00000000E+00  0.00000000E+00
  0.00000000E+00  0.00000000E+00  0.00000000E+00
  0.00000000E+00  0.00000000E+00  0.00000000E+00
  0.00000000E+00  0.00000000E+00  0.00000000E+00
  0.00000000E+00  0.00000000E+00  0.00000000E+00
  0.00000000E+00  0.00000000E+00  0.00000000E+00
  0.00000000E+00  0.00000000E+00  0.00000000E+00
  0.00000000E+00  0.00000000E+00  0.00000000E+00
  0.00000000E+00  0.00000000E+00  0.00000000E+00
  0.00000000E+00  0.00000000E+00  0.00000000E+00
  0.00000000E+00  0.00000000E+00  0.00000000E+00
  0.00000000E+00  0.00000000E+00  0.00000000E+00
  0.00000000E+00  0.00000000E+00  0.00000000E+00
  0.00000000E+00  0.00000000E+00  0.00000000E+00
  0.00000000E+00  0.00000000E+00  0.00000000E+00
  0.00000000E+00  0.00000000E+00  0.00000000E+00
  0.00000000E+00  0.00000000E+00  0.00000000E+00
  0.00000000E+00  0.00000000E+00  0.00000000E+00
  0.00000000E+00  0.00000000E+00  0.00000000E+00
  0.00000000E+00  0.00000000E+00  0.00000000E+00
  0.00000000E+00  0.00000000E+00  0.00000000E+00
  0.00000000E+00  0.00000000E+00  0.00000000E+00
  0.00000000E+00  0.00000000E+00  0.00000000E+00
  0.00000000E+00  0.00000000E+00  0.00000000E+00
  0.00000000E+00  0.00000000E+00  0.00000000E+00
  0.00000000E+00  0.00000000E+00  0.00000000E+00
  0.00000000E+00  0.00000000E+00  0.00000000E+00
  0.00000000E+00  0.00000000E+00  0.00000000E+00
  0.00000000E+00  0.00000000E+00  0.00000000E+00
  0.00000000E+00  0.00000000E+00  0.00000000E+00
  0.00000000E+00  0.00000000E+00  0.00000000E+00
  0.00000000E+00  0.00000000E+00  0.00000000E+00
  0.00000000E+00  0.00000000E+00  0.00000000E+00
  0.00000000E+00  0.00000000E+00  0.00000000E+00
  0.00000000E+00  0.00000000E+00  0.00000000E+00
  0.00000000E+00  0.00000000E+00  0.00000000E+00
  0.00000000E+00  0.00000000E+00  0.00000000E+00
  0.00000000E+00  0.00000000E+00  0.00000000E+00
  0.00000000E+00  0.00000000E+00  0.00000000E+00
  0.00000000E+00  0.00000000E+00  0.00000000E+00
  0.00000000E+00  0.00000000E+00  0.00000000E+00
  0.00000000E+00  0.00000000E+00  0.00000000E+00
  0.00000000E+00  0.00000000E+00  0.00000000E+00
  0.00000000E+00  0.00000000E+00  0.00000000E+00
  0.00000000E+00  0.00000000E+00  0.00000000E+00
  0.00000000E+00  0.00000000E+00  0.00000000E+00
  0.00000000E+00  0.00000000E+00  0.00000000E+00
  0.00000000E+00  0.00000000E+00  0.00000000E+00
  0.00000000E+00  0.00000000E+00  0.00000000E+00
  0.00000000E+00  0.00000000E+00  0.00000000E+00
  0.00000000E+00  0.00000000E+00  0.00000000E+00
  0.00000000E+00  0.00000000E+00  0.00000000E+00
  0.00000000E+00  0.00000000E+00  0.00000000E+00
  0.00000000E+00  0.00000000E+00  0.00000000E+00
  0.00000000E+00  0.00000000E+00  0.00000000E+00
  0.00000000E+00  0.00000000E+00  0.00000000E+00
  0.00000000E+00  0.00000000E+00  0.00000000E+00
  0.00000000E+00  0.00000000E+00  0.00000000E+00
  0.00000000E+00  0.00000000E+00  0.00000000E+00
  0.00000000E+00  0.00000000E+00  0.00000000E+00
  0.00000000E+00  0.00000000E+00  0.00000000E+00
  0.00000000E+00  0.00000000E+00  0.00000000E+00
  0.00000000E+00  0.00000000E+00  0.00000000E+00
  0.00000000E+00  0.00000000E+00  0.00000000E+00
  0.00000000E+00  0.00000000E+00  0.00000000E+00
  0.00000000E+00  0.00000000E+00  0.00000000E+00
  0.00000000E+00  0.00000000E+00  0.00000000E+00
