Nb  V                                   
    1.000000000000000     
    12.0946260424111607    0.0032412195461055   -0.0053660938609181
     0.0032395753868149   12.0996676254705928   -0.0037895154517058
    -0.0053624083426872   -0.0037884591386059   12.1040713931629131
   Nb   V 
    12   116
Direct
  0.0018074180432783  0.0032098206295284  0.0045398465582131
  0.2475245234325642  0.7462359668458866  0.2509438549812067
  0.6256396529591163  0.8783895865716724  0.3777225458058083
  0.7513879610360854  0.7467976750621773  0.2503227750738897
  0.3754862914488230  0.3746935983680979  0.6250694246306291
  0.1278204863591927  0.1294877091979555  0.6217752151123662
  0.0000723140110708  0.0002538407919538  0.7467498793476963
  0.6244943400481531  0.1269959064558052  0.6248928497578063
  0.3740693396167867  0.8772516612001660  0.3762081111481732
  0.8694827082575398  0.8717309085839663  0.8756594849157044
  0.8736998640582289  0.6189494311360660  0.8747965177255256
  0.2513594113030859  0.7488573995164031 -0.0033355496214980
  0.6235416683260813  0.1260913663185649  0.8785167178476347
  0.3763546465138345  0.1263146718431938  0.8758524792660776
  0.2508281327947748  0.2513965702488006  0.7568892942927119
  0.5017081691216089  0.7490533397777496 -0.0019418855773529
  0.6248520855877888  0.6244168195126306  0.6255104404030790
  0.3751817634247199  0.3747555732568502  0.3712029850741649
  0.1226319551623425  0.8767510879395647  0.1289858491030779
  0.7533291324087997  0.7466007030415175  0.5048755322594779
  0.8750301593318993  0.3742575076199329  0.1259072831996070
  0.8727291727598447  0.1291376112037917  0.6207543506215765
  0.1247761173379737  0.3745419691958737  0.3741716707342770
  0.8750480542729896  0.3763184724918519  0.6245955342414934
  0.3769262063578028  0.6182728395483688  0.3785249232934107
  0.8722455513857494  0.8713404607696860  0.6199703681478947
  0.1250429932152302  0.6237728466967641  0.6249053898323702
  0.2544949476468535  0.0037272408320772 -0.0004192856868074
  0.3748199320828536  0.1294947229390036  0.3728467921724732
  0.3752815957677130  0.3738557656459868  0.1246130807055700
  0.3757265258844401  0.1269224889938103  0.1246047368059340
  0.8779842840310257  0.6208275988444969  0.3786601223120818
  0.0050184695088810  0.7455607565267072  0.7439101584930474
  0.6240686970456127  0.8719357663500809  0.6289987264327134
  0.0027803866074313  0.4967157240850361  0.7464863367759517
  0.6254033760847416  0.3751212673924613  0.3739877191582415
 -0.0002975708265774  0.2508299933862145  0.2496613782786915
  0.7519699649179808  0.2533510871511087  0.7526895595231692
  0.8750992892657131  0.3729849653575310  0.8763572926091883
  0.8740290358560359  0.8755682060969578  0.1290077317300753
 -0.0002157364543734  0.4985785914891408  0.2515402831993376
  0.8793939563504146  0.8781611995577183  0.3773480849113832
  0.5016277288242151  0.2524536433674324  0.4924201881409067
  0.2465929521834220  0.7463718602714853  0.5052806281029073
 -0.0002890167871954  0.7489401259177335  0.2526216183035334
  0.4998537276907861  0.0068232918522634  0.2437876428308340
  0.3786628322877049  0.6207846336247287  0.8712156991781013
  0.4966358915760174  0.0032070549419541  0.5024940901952603
  0.2504533529597883  0.2512235555008512  0.2486808730588911
  0.8754487924296694  0.6240812507838319  0.6229261172720896
 -0.0014986457208976 -0.0014661209512597  0.4950895979908123
  0.1259595785056899  0.6200525704547537  0.8727146918580864
  0.7429874210979672  0.7481312048385157  0.0019499807813378
  0.2495955136070343  0.0004406835579887  0.4989877096063414
  0.5023692433723079  0.5027219334345652  0.7520123198579206
 -0.0033866397697935  0.2547616083854986  0.4953505739646551
  0.2508423112523514  0.4959320976162062  0.0003381026206851
  0.0031121516473845  0.4946566073911459  0.0041161627225751
  0.7508636695573576  0.4997063344044645  0.4994835836445205
  0.6223316326105134  0.6204112890408696  0.1220362066264738
  0.2472535617042184  0.0062702732468743  0.2464993116234552
  0.6248192409959633  0.3748709877683337  0.1244469129968247
  0.7496379192866894  0.4953241933520345  0.2508610859737861
  0.7531049086904944  0.0067927446633545  0.2473368161893939
  0.6252221624373285  0.3746233155095254  0.8756418457480492
  0.6242136079889338  0.1270417861089755  0.1245873501521050
  0.7439494368869862  0.0042043762598304  0.0033616685898610
  0.4997678477106439  0.7441786776507860  0.2436880007085173
  0.4977286522595252 -0.0029167013818642  0.7530828164366481
 -0.0023537077996692  0.2561646632225233  0.7533810043448266
  0.7434963694361990  0.7481965110343018  0.7452440748602323
  0.1257547356212223  0.3751054189704547  0.8758951002477353
  0.2555676137297386 -0.0019169903597585  0.7523892061019880
  0.1277556480037737  0.1294780522933234  0.1282071194786595
  0.1250318861533457  0.1271291252226970  0.3708242797967103
  0.4997682908744009  0.4985827330160214  0.0000764509845128
  0.3748911937034602  0.3742113945801753  0.8782231329403672
  0.6227700499157129  0.6199865853170244  0.3770799633788993
  0.8718906154157183  0.1293065130308564  0.1287492569346465
  0.2498573369522986  0.4951241204632159  0.2494490233454508
  0.5029286638488345  0.5015741547748774  0.4975736031121086
  0.1226004089835136  0.3798857346961620  0.6250088711458976
  0.7533267922486505  0.2547294434811286  0.4964382212155540
  0.3750975627819950  0.8744006924274437  0.6277698538822785
  0.7492658367692288  0.2507615398781357  0.0005178962584570
  0.2501842106170966  0.2518750116881032  0.4930506226432307
  0.5000865731803955  0.2521572394973712  0.2475257333070448
  0.0000179613170749  0.7487686431031799  0.4996914036745221
  0.3787660501944310  0.8776707542066471  0.8720166425900403
  0.8752193400330049  0.1274217458922993  0.3744357968971474
 -0.0004427119496359  0.2534096860232220  0.0018810221849861
  0.1303630302849491  0.8721507934838140  0.8707127345769113
  0.1204815799816142  0.8778950433075657  0.3785707321769341
  0.7472307519930540  0.4964374587261444  0.7469103485372897
  0.1218946270422853  0.6206602135412208  0.3782456626989205
  0.2510694893018794  0.2505322862618140  0.0011694350314325
  0.1280587834073128  0.8692675691152131  0.6214271037432803
  0.1248731755048188  0.3745369264527568  0.1255237219920245
  0.7500507570350916  0.2516163361927015  0.2497508002684577
  0.5001732142962028  0.4983238254226626  0.2491904482339062
  0.6206885246566692  0.8746531976427825  0.8746183002567954
  0.1203845632348945  0.6178388623889167  0.1264269098603055
  0.4989925939566787  0.7493615336121618  0.7506666472166795
  0.3792439185371281  0.6183655381587326  0.1234660674362547
  0.4997863546709354  0.7446042008616164  0.5061868405961674
  0.6256239859380422  0.1303339353199278  0.3704081203090638
 -0.0003046111772507  0.0014831040788740  0.2530607449254623
  0.5000462087077718  0.2505480387415704  0.0009794557696321
  0.3797376633189140  0.8806549779073723  0.1213337320871934
  0.5007741070837667  0.2509469140945614  0.7573450143957989
  0.0014098958583013  0.7454104052449737  0.0069537088859708
  0.8687289987101976  0.1324980898551419  0.8767084223499166
  0.7458806357074779  0.0010107493326910  0.7508989577364961
  0.8765223605909176  0.6200710695710423  0.1268616622297556
  0.2476571193619196  0.5014683847422928  0.4976454789284671
  0.3755188401569460  0.1224819653729186  0.6243699590213463
  0.6228561717929374  0.8775945754534243  0.1200053057747436
 -0.0005769651012121  0.5002547233337185  0.4997219773756726
  0.1314378798636475  0.1313714232439064  0.8782157171455633
  0.4994284387164053  0.0014418741764114 -0.0008943975172256
  0.3751883811138101  0.6267042699867228  0.6250157916400549
  0.6287035176857554  0.3795540965513036  0.6249253380203986
  0.6222286615951066  0.6240642357256697  0.8749871977190025
  0.2488272338273284  0.5017536681049983  0.7526681498023028
  0.2520871084525269  0.7490224758419717  0.7472471783427712
  0.8752836554956777  0.3747824394654529  0.3742009352805959
  0.7462855360765837  0.4947821692187194  0.0035770668373086
  0.7553959846609044  0.0023658609247946  0.5001002502184103
 
  0.00000000E+00  0.00000000E+00  0.00000000E+00
  0.00000000E+00  0.00000000E+00  0.00000000E+00
  0.00000000E+00  0.00000000E+00  0.00000000E+00
  0.00000000E+00  0.00000000E+00  0.00000000E+00
  0.00000000E+00  0.00000000E+00  0.00000000E+00
  0.00000000E+00  0.00000000E+00  0.00000000E+00
  0.00000000E+00  0.00000000E+00  0.00000000E+00
  0.00000000E+00  0.00000000E+00  0.00000000E+00
  0.00000000E+00  0.00000000E+00  0.00000000E+00
  0.00000000E+00  0.00000000E+00  0.00000000E+00
  0.00000000E+00  0.00000000E+00  0.00000000E+00
  0.00000000E+00  0.00000000E+00  0.00000000E+00
  0.00000000E+00  0.00000000E+00  0.00000000E+00
  0.00000000E+00  0.00000000E+00  0.00000000E+00
  0.00000000E+00  0.00000000E+00  0.00000000E+00
  0.00000000E+00  0.00000000E+00  0.00000000E+00
  0.00000000E+00  0.00000000E+00  0.00000000E+00
  0.00000000E+00  0.00000000E+00  0.00000000E+00
  0.00000000E+00  0.00000000E+00  0.00000000E+00
  0.00000000E+00  0.00000000E+00  0.00000000E+00
  0.00000000E+00  0.00000000E+00  0.00000000E+00
  0.00000000E+00  0.00000000E+00  0.00000000E+00
  0.00000000E+00  0.00000000E+00  0.00000000E+00
  0.00000000E+00  0.00000000E+00  0.00000000E+00
  0.00000000E+00  0.00000000E+00  0.00000000E+00
  0.00000000E+00  0.00000000E+00  0.00000000E+00
  0.00000000E+00  0.00000000E+00  0.00000000E+00
  0.00000000E+00  0.00000000E+00  0.00000000E+00
  0.00000000E+00  0.00000000E+00  0.00000000E+00
  0.00000000E+00  0.00000000E+00  0.00000000E+00
  0.00000000E+00  0.00000000E+00  0.00000000E+00
  0.00000000E+00  0.00000000E+00  0.00000000E+00
  0.00000000E+00  0.00000000E+00  0.00000000E+00
  0.00000000E+00  0.00000000E+00  0.00000000E+00
  0.00000000E+00  0.00000000E+00  0.00000000E+00
  0.00000000E+00  0.00000000E+00  0.00000000E+00
  0.00000000E+00  0.00000000E+00  0.00000000E+00
  0.00000000E+00  0.00000000E+00  0.00000000E+00
  0.00000000E+00  0.00000000E+00  0.00000000E+00
  0.00000000E+00  0.00000000E+00  0.00000000E+00
  0.00000000E+00  0.00000000E+00  0.00000000E+00
  0.00000000E+00  0.00000000E+00  0.00000000E+00
  0.00000000E+00  0.00000000E+00  0.00000000E+00
  0.00000000E+00  0.00000000E+00  0.00000000E+00
  0.00000000E+00  0.00000000E+00  0.00000000E+00
  0.00000000E+00  0.00000000E+00  0.00000000E+00
  0.00000000E+00  0.00000000E+00  0.00000000E+00
  0.00000000E+00  0.00000000E+00  0.00000000E+00
  0.00000000E+00  0.00000000E+00  0.00000000E+00
  0.00000000E+00  0.00000000E+00  0.00000000E+00
  0.00000000E+00  0.00000000E+00  0.00000000E+00
  0.00000000E+00  0.00000000E+00  0.00000000E+00
  0.00000000E+00  0.00000000E+00  0.00000000E+00
  0.00000000E+00  0.00000000E+00  0.00000000E+00
  0.00000000E+00  0.00000000E+00  0.00000000E+00
  0.00000000E+00  0.00000000E+00  0.00000000E+00
  0.00000000E+00  0.00000000E+00  0.00000000E+00
  0.00000000E+00  0.00000000E+00  0.00000000E+00
  0.00000000E+00  0.00000000E+00  0.00000000E+00
  0.00000000E+00  0.00000000E+00  0.00000000E+00
  0.00000000E+00  0.00000000E+00  0.00000000E+00
  0.00000000E+00  0.00000000E+00  0.00000000E+00
  0.00000000E+00  0.00000000E+00  0.00000000E+00
  0.00000000E+00  0.00000000E+00  0.00000000E+00
  0.00000000E+00  0.00000000E+00  0.00000000E+00
  0.00000000E+00  0.00000000E+00  0.00000000E+00
  0.00000000E+00  0.00000000E+00  0.00000000E+00
  0.00000000E+00  0.00000000E+00  0.00000000E+00
  0.00000000E+00  0.00000000E+00  0.00000000E+00
  0.00000000E+00  0.00000000E+00  0.00000000E+00
  0.00000000E+00  0.00000000E+00  0.00000000E+00
  0.00000000E+00  0.00000000E+00  0.00000000E+00
  0.00000000E+00  0.00000000E+00  0.00000000E+00
  0.00000000E+00  0.00000000E+00  0.00000000E+00
  0.00000000E+00  0.00000000E+00  0.00000000E+00
  0.00000000E+00  0.00000000E+00  0.00000000E+00
  0.00000000E+00  0.00000000E+00  0.00000000E+00
  0.00000000E+00  0.00000000E+00  0.00000000E+00
  0.00000000E+00  0.00000000E+00  0.00000000E+00
  0.00000000E+00  0.00000000E+00  0.00000000E+00
  0.00000000E+00  0.00000000E+00  0.00000000E+00
  0.00000000E+00  0.00000000E+00  0.00000000E+00
  0.00000000E+00  0.00000000E+00  0.00000000E+00
  0.00000000E+00  0.00000000E+00  0.00000000E+00
  0.00000000E+00  0.00000000E+00  0.00000000E+00
  0.00000000E+00  0.00000000E+00  0.00000000E+00
  0.00000000E+00  0.00000000E+00  0.00000000E+00
  0.00000000E+00  0.00000000E+00  0.00000000E+00
  0.00000000E+00  0.00000000E+00  0.00000000E+00
  0.00000000E+00  0.00000000E+00  0.00000000E+00
  0.00000000E+00  0.00000000E+00  0.00000000E+00
  0.00000000E+00  0.00000000E+00  0.00000000E+00
  0.00000000E+00  0.00000000E+00  0.00000000E+00
  0.00000000E+00  0.00000000E+00  0.00000000E+00
  0.00000000E+00  0.00000000E+00  0.00000000E+00
  0.00000000E+00  0.00000000E+00  0.00000000E+00
  0.00000000E+00  0.00000000E+00  0.00000000E+00
  0.00000000E+00  0.00000000E+00  0.00000000E+00
  0.00000000E+00  0.00000000E+00  0.00000000E+00
  0.00000000E+00  0.00000000E+00  0.00000000E+00
  0.00000000E+00  0.00000000E+00  0.00000000E+00
  0.00000000E+00  0.00000000E+00  0.00000000E+00
  0.00000000E+00  0.00000000E+00  0.00000000E+00
  0.00000000E+00  0.00000000E+00  0.00000000E+00
  0.00000000E+00  0.00000000E+00  0.00000000E+00
  0.00000000E+00  0.00000000E+00  0.00000000E+00
  0.00000000E+00  0.00000000E+00  0.00000000E+00
  0.00000000E+00  0.00000000E+00  0.00000000E+00
  0.00000000E+00  0.00000000E+00  0.00000000E+00
  0.00000000E+00  0.00000000E+00  0.00000000E+00
  0.00000000E+00  0.00000000E+00  0.00000000E+00
  0.00000000E+00  0.00000000E+00  0.00000000E+00
  0.00000000E+00  0.00000000E+00  0.00000000E+00
  0.00000000E+00  0.00000000E+00  0.00000000E+00
  0.00000000E+00  0.00000000E+00  0.00000000E+00
  0.00000000E+00  0.00000000E+00  0.00000000E+00
  0.00000000E+00  0.00000000E+00  0.00000000E+00
  0.00000000E+00  0.00000000E+00  0.00000000E+00
  0.00000000E+00  0.00000000E+00  0.00000000E+00
  0.00000000E+00  0.00000000E+00  0.00000000E+00
  0.00000000E+00  0.00000000E+00  0.00000000E+00
  0.00000000E+00  0.00000000E+00  0.00000000E+00
  0.00000000E+00  0.00000000E+00  0.00000000E+00
  0.00000000E+00  0.00000000E+00  0.00000000E+00
  0.00000000E+00  0.00000000E+00  0.00000000E+00
  0.00000000E+00  0.00000000E+00  0.00000000E+00
  0.00000000E+00  0.00000000E+00  0.00000000E+00
  0.00000000E+00  0.00000000E+00  0.00000000E+00
