Ta                                      
    1.000000000000000     
    12.2379196405309418   -0.7558970895650937   -0.0001151107615744
    -6.7735990629373655   10.2201899772047682   -0.0000364700514854
    -0.0001228992816671   -0.0002475928041141   19.9567002593555429
  Ta           
             128
Direct
  0.9083186186678123  0.0916850019615552  0.9375007628873872
  0.3416590175206171  0.6583369963518589  0.3124997642578237
  0.3416813543021525  0.6583147971859596  0.0624999584577251
  0.3416586815306138  0.4083366272098875  0.8124996015249797
  0.3416814026368080  0.4083146214809439  0.5624993357167565
  0.3416585423140802  0.4083370149004119  0.3124998101269141
  0.3416805461039092  0.4083151075986886  0.0624998839557823
  0.3416592006623643  0.1583366238453646  0.8124997976700402
  0.3416814720638932  0.1583145809031289  0.5624993511016430
  0.3416583937873370  0.1583373485792238  0.3124995957911640
  0.3416809547409373  0.1583155306304860  0.0624998234702754
  0.3416591919593159  0.9083364164257248  0.8124998712563699
  0.3416810391991142  0.9083146754795624  0.5624992886084611
  0.3416589033601538  0.9083373487513130  0.3124995487158050
  0.3416809724498541  0.6583147362647381  0.5624992574570661
  0.3416817601284867  0.9083152097635651  0.0624998935851580
  0.0916809354241546  0.6583151220678559  0.5624993193941313
  0.0916592918752699  0.6583367701218816  0.3124996544826878
  0.0916815483204278  0.6583145565644803  0.0624998716053996
  0.0916585363652712  0.4083368993309074  0.8124996167413950
  0.0916811735597724  0.4083148976975314  0.5624993348933915
  0.0916587344192925  0.4083367029911186  0.3124997480713838
  0.0916808014091083  0.4083147697938156  0.0624998522600372
  0.0916589210279771  0.1583367907400044  0.8124996996453421
  0.0916811920213454  0.1583147550909928  0.5624992963496946
  0.0916585941179657  0.1583369564997094  0.3124996685410351
  0.0916810801183945  0.1583150547520214  0.0624998607267304
  0.0916589609732731  0.9083367452887563  0.8124998212176099
  0.0916809668520507  0.9083149858025383  0.5624992964726008
  0.0916586018944396  0.6583368672667838  0.8124997240185887
  0.0916591282064606  0.9083369922578305  0.3124995744741503
  0.3416586614317051  0.6583364044555314  0.8124996624196404
  0.5916587223660837  0.9083369905269578  0.3124995418781016
  0.8416591817008658  0.6583364842046397  0.3124996237935803
  0.8416813463797876  0.6583143605158223  0.0624999794511653
  0.8416587781606313  0.4083372445197664  0.8124997833482680
  0.8416814160767834  0.4083151550615671  0.5624992987618556
  0.8416587004514731  0.4083365190319012  0.3124995777254929
  0.8416807383229751  0.4083146786090216  0.0624999023143589
  0.8416590723729727  0.1583369555410631  0.8124998191300836
  0.8416812336029941  0.1583149046038682  0.5624991939387148
  0.8416584598340934  0.1583366868903711  0.3124995510669783
  0.8416810480957447  0.1583148812685367  0.0624999755656113
  0.8416589698317196  0.9083368150770633  0.8124998230218218
  0.8416809566888299  0.9083150355238193  0.5624991581910366
  0.8416589769480128  0.9083366751848674  0.3124995976819709
  0.5916815729121324  0.9083149346597642  0.0625000481771279
  0.8416816545027868  0.9083145522864620  0.0625000498398783
  0.5916811700550568  0.6583148855282163  0.5624992001915348
  0.5916589379184652  0.6583367210772141  0.3124997037740957
  0.5916811345815920  0.6583146040830212  0.0625000451269647
  0.5916588901319120  0.4083369628010818  0.8124997879136977
  0.5916816527726629  0.4083148697287728  0.5624993130399202
  0.5916584773385052  0.4083367901707306  0.3124996093732454
  0.5916804681255798  0.4083150349141186  0.0624999127199000
  0.5916593556489215  0.1583368082526861  0.8124999365457281
  0.5916815084368204  0.1583146962532574  0.5624992625236709
  0.5916582876649407  0.1583370898697444  0.3124994482786828
  0.5916809032471436  0.1583153556595928  0.0624999181119273
  0.5916591693386953  0.9083364754573816  0.8124998923082165
  0.5916810388870887  0.9083147191581734  0.5624991630683752
  0.5916587280754466  0.6583366451815024  0.8124997322952235
  0.0916818287395382  0.9083148477897952  0.0624998756970762
  0.6583412629645855  0.8416631716219839  0.6875000218846692
  0.6583188069613023  0.8416851785528890  0.4374999751560730
  0.1583192113572334  0.8416849997390143  0.9375006810493951
  0.1583409072294866  0.5916634376094723  0.6875000292061092
  0.1583188026514245  0.5916850398567959  0.4375002328585800
  0.1583414992711477  0.5916628505805852  0.1875005554621074
  0.1583189355475941  0.5916852318118393  0.9375005697955082
  0.1583412821052150  0.3416633209576369  0.6875000209338067
  0.1583189921396039  0.3416851664354151  0.4375002488491589
  0.1583409134973345  0.3416632152412535  0.1875005592365384
  0.1583183833055774  0.3416853117468110  0.9375005411403442
  0.1583416442055986  0.0916633597000748  0.6875001041480913
  0.1583188469731350  0.0916851948455840  0.4375001171219253
  0.1583406417260252  0.0916630007878979  0.1875004678494890
  0.1583186562917227  0.0916850848346377  0.9375006508158340
  0.1583412426643584  0.8416626608719945  0.1875004598473238
  0.9083411396158472  0.8416636330190437  0.6875000430820353
  0.9083415836000851  0.8416626622827693  0.1875005683126103
  0.9083192357580167  0.8416851491071445  0.9375007565580976
  0.9083406324503471  0.5916634408206048  0.6875000748263727
  0.9083188355372716  0.5916849292521791  0.4375001514237049
  0.9083418264229317  0.5916629057551609  0.1875005013135320
  0.9083189407019313  0.5916853786289572  0.9375006692689321
  0.9083408801917646  0.3416632157297104  0.6875000803818846
  0.9083189123079773  0.3416850190822517  0.4375001196740931
  0.9083411662362751  0.3416631079141727  0.1875004721998512
  0.9083183320591398  0.3416852338160264  0.9375006797207873
  0.9083413908845389  0.0916634043274852  0.6875000299622253
  0.9083188911942711  0.0916851576721025  0.4375000218277303
  0.9083409487775898  0.0916628827884071  0.1875005427387983
  0.9083188007082175  0.8416850705149778  0.4375000606940051
  0.1583186541382385  0.8416850813085586  0.4375001085379381
  0.1583412702554957  0.8416634817897096  0.6875001318414098
  0.4083185769221014  0.0916849734299671  0.9375007840079536
  0.6583414807639015  0.8416631583205301  0.1875006249674845
  0.6583192035931448  0.8416849964353144  0.9375008549791778
  0.6583408705842023  0.5916630922118310  0.6875000295905388
  0.6583189694077795  0.5916850367173554  0.4375001111518861
  0.6583417907184205  0.5916634862059510  0.1875005869852513
  0.6583189894530637  0.5916854527120359  0.9375007372407849
  0.6583409667791433  0.3416627229852334  0.6875001662974090
  0.6583189327879978  0.3416850289744133  0.4375000441090346
  0.6583411055243463  0.3416637535124555  0.1875004019637748
  0.6583183407172426  0.3416853243812011  0.9375007823109298
  0.6583413564626917  0.0916627962396006  0.6875001411791223
  0.6583187747688642  0.0916851569133809  0.4374999029606941
  0.6583407763582670  0.0916633997438577  0.1875004414063463
  0.6583185540845512  0.0916848736872557  0.9375008971654920
  0.4083413887860115  0.8416630165008024  0.6875000859161740
  0.4083186641938122  0.8416851653915729  0.4375000334353391
  0.4083411128006185  0.8416631414659275  0.1875005497452004
  0.4083191717924055  0.8416848696490279  0.9375007794619812
  0.4083411467799792  0.5916630908022268  0.6874999593621184
  0.4083189530411586  0.5916851365912369  0.4375002015021905
  0.4083414801733870  0.5916634608688874  0.1875006765827577
  0.4083189682075728  0.5916853208200328  0.9375006363659879
  0.4083413659547723  0.3416628263196268  0.6875000811029001
  0.4083190178178514  0.3416851536733622  0.4375001829306425
  0.4083408269510275  0.3416638459491566  0.1875005227720432
  0.4083183846664134  0.3416854275191044  0.9375006438103564
  0.4083416118834587  0.0916627522062636  0.6875001902177872
  0.4083187474512635  0.0916851844828613  0.4375000083061009
  0.4083404884719087  0.0916635464827591  0.1875004002691629
  0.8416811368374378  0.6583153021545197  0.5624992486419256
  0.8416586648794334  0.6583370881643219  0.8124997747910582
 
  0.00000000E+00  0.00000000E+00  0.00000000E+00
  0.00000000E+00  0.00000000E+00  0.00000000E+00
  0.00000000E+00  0.00000000E+00  0.00000000E+00
  0.00000000E+00  0.00000000E+00  0.00000000E+00
  0.00000000E+00  0.00000000E+00  0.00000000E+00
  0.00000000E+00  0.00000000E+00  0.00000000E+00
  0.00000000E+00  0.00000000E+00  0.00000000E+00
  0.00000000E+00  0.00000000E+00  0.00000000E+00
  0.00000000E+00  0.00000000E+00  0.00000000E+00
  0.00000000E+00  0.00000000E+00  0.00000000E+00
  0.00000000E+00  0.00000000E+00  0.00000000E+00
  0.00000000E+00  0.00000000E+00  0.00000000E+00
  0.00000000E+00  0.00000000E+00  0.00000000E+00
  0.00000000E+00  0.00000000E+00  0.00000000E+00
  0.00000000E+00  0.00000000E+00  0.00000000E+00
  0.00000000E+00  0.00000000E+00  0.00000000E+00
  0.00000000E+00  0.00000000E+00  0.00000000E+00
  0.00000000E+00  0.00000000E+00  0.00000000E+00
  0.00000000E+00  0.00000000E+00  0.00000000E+00
  0.00000000E+00  0.00000000E+00  0.00000000E+00
  0.00000000E+00  0.00000000E+00  0.00000000E+00
  0.00000000E+00  0.00000000E+00  0.00000000E+00
  0.00000000E+00  0.00000000E+00  0.00000000E+00
  0.00000000E+00  0.00000000E+00  0.00000000E+00
  0.00000000E+00  0.00000000E+00  0.00000000E+00
  0.00000000E+00  0.00000000E+00  0.00000000E+00
  0.00000000E+00  0.00000000E+00  0.00000000E+00
  0.00000000E+00  0.00000000E+00  0.00000000E+00
  0.00000000E+00  0.00000000E+00  0.00000000E+00
  0.00000000E+00  0.00000000E+00  0.00000000E+00
  0.00000000E+00  0.00000000E+00  0.00000000E+00
  0.00000000E+00  0.00000000E+00  0.00000000E+00
  0.00000000E+00  0.00000000E+00  0.00000000E+00
  0.00000000E+00  0.00000000E+00  0.00000000E+00
  0.00000000E+00  0.00000000E+00  0.00000000E+00
  0.00000000E+00  0.00000000E+00  0.00000000E+00
  0.00000000E+00  0.00000000E+00  0.00000000E+00
  0.00000000E+00  0.00000000E+00  0.00000000E+00
  0.00000000E+00  0.00000000E+00  0.00000000E+00
  0.00000000E+00  0.00000000E+00  0.00000000E+00
  0.00000000E+00  0.00000000E+00  0.00000000E+00
  0.00000000E+00  0.00000000E+00  0.00000000E+00
  0.00000000E+00  0.00000000E+00  0.00000000E+00
  0.00000000E+00  0.00000000E+00  0.00000000E+00
  0.00000000E+00  0.00000000E+00  0.00000000E+00
  0.00000000E+00  0.00000000E+00  0.00000000E+00
  0.00000000E+00  0.00000000E+00  0.00000000E+00
  0.00000000E+00  0.00000000E+00  0.00000000E+00
  0.00000000E+00  0.00000000E+00  0.00000000E+00
  0.00000000E+00  0.00000000E+00  0.00000000E+00
  0.00000000E+00  0.00000000E+00  0.00000000E+00
  0.00000000E+00  0.00000000E+00  0.00000000E+00
  0.00000000E+00  0.00000000E+00  0.00000000E+00
  0.00000000E+00  0.00000000E+00  0.00000000E+00
  0.00000000E+00  0.00000000E+00  0.00000000E+00
  0.00000000E+00  0.00000000E+00  0.00000000E+00
  0.00000000E+00  0.00000000E+00  0.00000000E+00
  0.00000000E+00  0.00000000E+00  0.00000000E+00
  0.00000000E+00  0.00000000E+00  0.00000000E+00
  0.00000000E+00  0.00000000E+00  0.00000000E+00
  0.00000000E+00  0.00000000E+00  0.00000000E+00
  0.00000000E+00  0.00000000E+00  0.00000000E+00
  0.00000000E+00  0.00000000E+00  0.00000000E+00
  0.00000000E+00  0.00000000E+00  0.00000000E+00
  0.00000000E+00  0.00000000E+00  0.00000000E+00
  0.00000000E+00  0.00000000E+00  0.00000000E+00
  0.00000000E+00  0.00000000E+00  0.00000000E+00
  0.00000000E+00  0.00000000E+00  0.00000000E+00
  0.00000000E+00  0.00000000E+00  0.00000000E+00
  0.00000000E+00  0.00000000E+00  0.00000000E+00
  0.00000000E+00  0.00000000E+00  0.00000000E+00
  0.00000000E+00  0.00000000E+00  0.00000000E+00
  0.00000000E+00  0.00000000E+00  0.00000000E+00
  0.00000000E+00  0.00000000E+00  0.00000000E+00
  0.00000000E+00  0.00000000E+00  0.00000000E+00
  0.00000000E+00  0.00000000E+00  0.00000000E+00
  0.00000000E+00  0.00000000E+00  0.00000000E+00
  0.00000000E+00  0.00000000E+00  0.00000000E+00
  0.00000000E+00  0.00000000E+00  0.00000000E+00
  0.00000000E+00  0.00000000E+00  0.00000000E+00
  0.00000000E+00  0.00000000E+00  0.00000000E+00
  0.00000000E+00  0.00000000E+00  0.00000000E+00
  0.00000000E+00  0.00000000E+00  0.00000000E+00
  0.00000000E+00  0.00000000E+00  0.00000000E+00
  0.00000000E+00  0.00000000E+00  0.00000000E+00
  0.00000000E+00  0.00000000E+00  0.00000000E+00
  0.00000000E+00  0.00000000E+00  0.00000000E+00
  0.00000000E+00  0.00000000E+00  0.00000000E+00
  0.00000000E+00  0.00000000E+00  0.00000000E+00
  0.00000000E+00  0.00000000E+00  0.00000000E+00
  0.00000000E+00  0.00000000E+00  0.00000000E+00
  0.00000000E+00  0.00000000E+00  0.00000000E+00
  0.00000000E+00  0.00000000E+00  0.00000000E+00
  0.00000000E+00  0.00000000E+00  0.00000000E+00
  0.00000000E+00  0.00000000E+00  0.00000000E+00
  0.00000000E+00  0.00000000E+00  0.00000000E+00
  0.00000000E+00  0.00000000E+00  0.00000000E+00
  0.00000000E+00  0.00000000E+00  0.00000000E+00
  0.00000000E+00  0.00000000E+00  0.00000000E+00
  0.00000000E+00  0.00000000E+00  0.00000000E+00
  0.00000000E+00  0.00000000E+00  0.00000000E+00
  0.00000000E+00  0.00000000E+00  0.00000000E+00
  0.00000000E+00  0.00000000E+00  0.00000000E+00
  0.00000000E+00  0.00000000E+00  0.00000000E+00
  0.00000000E+00  0.00000000E+00  0.00000000E+00
  0.00000000E+00  0.00000000E+00  0.00000000E+00
  0.00000000E+00  0.00000000E+00  0.00000000E+00
  0.00000000E+00  0.00000000E+00  0.00000000E+00
  0.00000000E+00  0.00000000E+00  0.00000000E+00
  0.00000000E+00  0.00000000E+00  0.00000000E+00
  0.00000000E+00  0.00000000E+00  0.00000000E+00
  0.00000000E+00  0.00000000E+00  0.00000000E+00
  0.00000000E+00  0.00000000E+00  0.00000000E+00
  0.00000000E+00  0.00000000E+00  0.00000000E+00
  0.00000000E+00  0.00000000E+00  0.00000000E+00
  0.00000000E+00  0.00000000E+00  0.00000000E+00
  0.00000000E+00  0.00000000E+00  0.00000000E+00
  0.00000000E+00  0.00000000E+00  0.00000000E+00
  0.00000000E+00  0.00000000E+00  0.00000000E+00
  0.00000000E+00  0.00000000E+00  0.00000000E+00
  0.00000000E+00  0.00000000E+00  0.00000000E+00
  0.00000000E+00  0.00000000E+00  0.00000000E+00
  0.00000000E+00  0.00000000E+00  0.00000000E+00
  0.00000000E+00  0.00000000E+00  0.00000000E+00
  0.00000000E+00  0.00000000E+00  0.00000000E+00
  0.00000000E+00  0.00000000E+00  0.00000000E+00
  0.00000000E+00  0.00000000E+00  0.00000000E+00
  0.00000000E+00  0.00000000E+00  0.00000000E+00
