Hf Ta                                   
    1.000000000000000     
    11.8002564436040007    1.0942293084624177   -0.0309702823866920
    -5.0223897489038745   10.7368814261743903    0.0404459908573569
    -0.0524635618003803    0.0604889190724788   19.3773644339328968
  Hf             Ta           
              56              72
Direct
  0.9333050906386172  0.3200209074040177  0.1861981376041549
  0.8078438475694475  0.6861466121724754  0.5596405120674826
  0.5757192383284798  0.6783169914751634  0.0533404474033409
  0.6869318029698230  0.0509497896429371  0.9433950571357217
  0.1831169946226606  0.8096898858249847  0.4392062543491125
  0.0519537861075718  0.4261141866865908  0.3284000388090150
  0.4456591899832584  0.8238935158400482  0.9417904399169834
  0.3289457066234225  0.4287623642252861  0.0540394242543360
  0.5622973188836178  0.4349927880224982  0.5578026414803844
  0.7048976597309278  0.3163016198416574  0.6813262514000168
  0.3154218209461154  0.4438972968169853  0.3138192462591693
  0.4293564918828522  0.0663601810976384  0.1931583236943565
  0.0672062082469130  0.9380036546143036  0.0644807038806681
  0.1859821809046728  0.8164573479967984  0.6863947366731366
  0.5713948222578095  0.1729902065559318  0.0630105458235589
  0.9352184017123830  0.8226413739414896  0.1964457879011394
  0.6901633634014862  0.3075082096495408  0.9279539965729400
  0.6838331624575961  0.5579829827215903  0.6943935177073468
  0.0594783921867848  0.6914156615868188  0.3059070506578258
  0.8114650662654139  0.4510847685880831  0.3016889761919692
  0.1849937457045240  0.5600611029987084  0.6851505581636044
  0.3100904055717396  0.6691000482738763  0.0606361252369007
  0.3221892872970452  0.9258961707903897  0.0598161110913498
  0.1823294718021995  0.3107981266305865  0.4396314281240678
  0.6888932467478794  0.8119628637152267  0.6843864008554379
  0.5554591145600823  0.1743414926113065  0.8020738707708501
  0.4442413507562880  0.5665296511850550  0.1832122543210023
  0.9379138633333317  0.0664490515829181  0.4298232529266988
  0.4220984689051495  0.8086802715855617  0.1994623834468754
  0.6944698540119724  0.5670867057066309  0.1935868689357589
  0.4300086155976351  0.5618628319371782  0.9240652472196103
  0.0545146239885429  0.1821919131421041  0.8023616457155970
  0.1956819048648336  0.3122138326294917  0.6761735478456743
  0.3094498412093953  0.1874342161931943  0.8192682134355652
  0.8374543604938954  0.6911979716642528  0.0657181702270068
  0.1856634445882512  0.3040253943290596  0.9322920956351355
  0.4459950282472906  0.3185236137479938  0.6950296938283870
  0.3332827773785608  0.9382047244572292  0.8102053839699430
  0.3029562872030000  0.1755654405336777  0.0643557615808043
  0.6755316757723161  0.0571910691863267  0.6893078214618470
  0.8156368867600619  0.9436858133097563  0.0620143501599694
  0.8180446832833942  0.1930056833037385  0.3208847946605177
  0.1800200986767404  0.5726242504613338  0.1939951618323961
  0.1903106430051732  0.3109026163729325  0.1816218223000294
  0.6958706788151374  0.5644325555392872  0.9396771068401113
  0.6924082911165007  0.0688660200152590  0.1899171427184875
  0.9368856030847174  0.5671416702609996  0.4383487489890049
  0.3163233908708019  0.1928024451912347  0.5601165484907588
  0.0439004443876884  0.1683521665287441  0.5647222339725727
  0.3183341619713811  0.6826984454582472  0.8119432508863559
  0.0632019917823770  0.9284537110305081  0.8061985938250590
  0.6825290931162294  0.3210514195036879  0.4390887933212461
  0.8139313074702976  0.1987249318586153  0.8145118876121809
  0.6773917806842273  0.0612671220014492  0.4441675019382933
  0.4252244374473035  0.0796650858321993  0.9365627144601141
  0.8139947180479022  0.4318546509938695  0.0606107408064263
  0.1677378604123837  0.0411226779743827  0.9364399472481858
  0.5557381903257679  0.1882144673554199  0.3166811379411249
  0.9448170734329111  0.5645694850788027  0.9338870894066265
  0.4200010621269987  0.0551448398584312  0.6754511320161383
  0.5548305275773960  0.9283060447751823  0.5639499285572189
  0.4322001650991573  0.3133560489275825  0.4290186955325889
  0.7025259097948112  0.8144256686350066  0.9247269880569757
  0.0513496229554170  0.1854719769571379  0.0611449538720143
  0.1886001856135078  0.8321348301095377  0.1874158471009994
  0.3136908036994739  0.1863812995327870  0.3136766251591825
  0.3098618809312909  0.9390819086907226  0.5596597457060177
  0.5659630915329037  0.4262595253233489  0.0765497181224307
  0.9285498225051388  0.3136397332443186  0.4562674081406984
  0.6798021216034263  0.5740790780318524  0.4328565870659242
  0.8178164565222036  0.9391144343155212  0.8115447731384088
  0.8216599228157380  0.6933428076937156  0.8128402353593526
  0.9462272341071298  0.3190568722752206  0.9384971323626348
  0.9436524972041659  0.0730685604014217  0.1896945471684371
  0.9370911390397249  0.5601704166213619  0.6885305923438655
  0.8286174473202533  0.1945176707940821  0.0577207681669515
  0.3129614576368352  0.6969809950767619  0.5604726118241808
  0.9453661038926181  0.8132946373606206  0.9345162472915584
  0.0602089810526135  0.6819883911568136  0.5674736818730626
  0.3111718842451572  0.9403606409511489  0.3163435511118295
  0.0591866385732834  0.6733719420493972  0.8129392121612019
  0.3160723730128870  0.4342900428812275  0.7999913896299566
  0.9480446283443118  0.3142824178236252  0.6863055428499663
  0.0571489417418895  0.9249130304387760  0.5605873378247194
  0.8131102922098528  0.9425089234097317  0.5614437698621200
  0.8198856647086931  0.4522562912724283  0.8108616408499787
  0.5609446880088111  0.4375077397432515  0.3179968382796969
  0.9429250286956650  0.5796118565334550  0.1723776955694411
  0.6723392187041561  0.8129366856698275  0.1881620541092428
  0.3201852434663780  0.4632723489558663  0.5584639746937561
  0.5724905578979195  0.9136900481352681  0.8130154529040996
  0.0699460946447726  0.4388199733840722  0.0597765738944103
  0.5509385479717689  0.6853391013192889  0.5602008509184628
  0.1964715317800864  0.5641586308453973  0.4427436777560500
  0.0773933467923875  0.6885988207725452  0.0584992724807338
  0.1763877658471988  0.0587750358631704  0.6792007349555383
  0.8295379722168905  0.4366221889977693  0.5616862570999623
  0.5620853694664153  0.4356012006689286  0.8215343644068085
  0.4470517332949057  0.3289271394303145  0.9485365635587237
  0.4311281573145002  0.0644898180779518  0.4377017121515221
  0.0605434815864825  0.4356651433704627  0.8124102175780380
  0.4394036440700176  0.5703061145904338  0.6850346264192771
  0.0715395099140615  0.1856861234057086  0.3054313219396015
  0.6865348961178347  0.8134384509618627  0.4389874297286498
  0.1724733374971101  0.5582834754212225  0.9343816339413659
  0.6653443059740856  0.3088962626450766  0.1882018294753874
  0.9313344300784622  0.8176272417451655  0.4368249906048678
  0.5676858549596662  0.9133076863949982  0.0787650200311679
  0.5601846633043803  0.1710253938407928  0.5609230768602889
  0.5570044638097172  0.9412234491489345  0.3180953704590709
  0.1833335883566022  0.8046682661265584  0.9342666230490559
  0.9358691770796382  0.8037282075335161  0.6834324415677737
  0.5581897980877694  0.6946239081316097  0.3174575119630172
  0.4379571242954115  0.3193896902580816  0.1959266660290586
  0.0693869772712699  0.4384566249801413  0.5622674315429288
  0.9408967589100359  0.0645010605496393  0.9366040449022803
  0.9285788556537676  0.0425744060644297  0.6865594707208197
  0.8017202933427519  0.9368018237607546  0.3094163336470857
  0.4385783638538184  0.8163473876863346  0.6844505335545790
  0.4380730938970114  0.5684404329952548  0.4380835290590241
  0.8037413769200356  0.1897141694004117  0.5695397827543713
  0.0606589551539856  0.9433544055027806  0.3202271148380286
  0.1908180071546771  0.0609986080721410  0.4370510932578807
  0.8044326865686914  0.7018896850421694  0.3221927388637435
  0.5744086438613408  0.6782339025424955  0.8077739864755766
  0.1737294000255397  0.0600229428093647  0.1992223179200264
  0.4416064749253107  0.8196728344587640  0.4390591653648790
  0.3148413249171585  0.6986914778800991  0.3266985195410847
 
  0.00000000E+00  0.00000000E+00  0.00000000E+00
  0.00000000E+00  0.00000000E+00  0.00000000E+00
  0.00000000E+00  0.00000000E+00  0.00000000E+00
  0.00000000E+00  0.00000000E+00  0.00000000E+00
  0.00000000E+00  0.00000000E+00  0.00000000E+00
  0.00000000E+00  0.00000000E+00  0.00000000E+00
  0.00000000E+00  0.00000000E+00  0.00000000E+00
  0.00000000E+00  0.00000000E+00  0.00000000E+00
  0.00000000E+00  0.00000000E+00  0.00000000E+00
  0.00000000E+00  0.00000000E+00  0.00000000E+00
  0.00000000E+00  0.00000000E+00  0.00000000E+00
  0.00000000E+00  0.00000000E+00  0.00000000E+00
  0.00000000E+00  0.00000000E+00  0.00000000E+00
  0.00000000E+00  0.00000000E+00  0.00000000E+00
  0.00000000E+00  0.00000000E+00  0.00000000E+00
  0.00000000E+00  0.00000000E+00  0.00000000E+00
  0.00000000E+00  0.00000000E+00  0.00000000E+00
  0.00000000E+00  0.00000000E+00  0.00000000E+00
  0.00000000E+00  0.00000000E+00  0.00000000E+00
  0.00000000E+00  0.00000000E+00  0.00000000E+00
  0.00000000E+00  0.00000000E+00  0.00000000E+00
  0.00000000E+00  0.00000000E+00  0.00000000E+00
  0.00000000E+00  0.00000000E+00  0.00000000E+00
  0.00000000E+00  0.00000000E+00  0.00000000E+00
  0.00000000E+00  0.00000000E+00  0.00000000E+00
  0.00000000E+00  0.00000000E+00  0.00000000E+00
  0.00000000E+00  0.00000000E+00  0.00000000E+00
  0.00000000E+00  0.00000000E+00  0.00000000E+00
  0.00000000E+00  0.00000000E+00  0.00000000E+00
  0.00000000E+00  0.00000000E+00  0.00000000E+00
  0.00000000E+00  0.00000000E+00  0.00000000E+00
  0.00000000E+00  0.00000000E+00  0.00000000E+00
  0.00000000E+00  0.00000000E+00  0.00000000E+00
  0.00000000E+00  0.00000000E+00  0.00000000E+00
  0.00000000E+00  0.00000000E+00  0.00000000E+00
  0.00000000E+00  0.00000000E+00  0.00000000E+00
  0.00000000E+00  0.00000000E+00  0.00000000E+00
  0.00000000E+00  0.00000000E+00  0.00000000E+00
  0.00000000E+00  0.00000000E+00  0.00000000E+00
  0.00000000E+00  0.00000000E+00  0.00000000E+00
  0.00000000E+00  0.00000000E+00  0.00000000E+00
  0.00000000E+00  0.00000000E+00  0.00000000E+00
  0.00000000E+00  0.00000000E+00  0.00000000E+00
  0.00000000E+00  0.00000000E+00  0.00000000E+00
  0.00000000E+00  0.00000000E+00  0.00000000E+00
  0.00000000E+00  0.00000000E+00  0.00000000E+00
  0.00000000E+00  0.00000000E+00  0.00000000E+00
  0.00000000E+00  0.00000000E+00  0.00000000E+00
  0.00000000E+00  0.00000000E+00  0.00000000E+00
  0.00000000E+00  0.00000000E+00  0.00000000E+00
  0.00000000E+00  0.00000000E+00  0.00000000E+00
  0.00000000E+00  0.00000000E+00  0.00000000E+00
  0.00000000E+00  0.00000000E+00  0.00000000E+00
  0.00000000E+00  0.00000000E+00  0.00000000E+00
  0.00000000E+00  0.00000000E+00  0.00000000E+00
  0.00000000E+00  0.00000000E+00  0.00000000E+00
  0.00000000E+00  0.00000000E+00  0.00000000E+00
  0.00000000E+00  0.00000000E+00  0.00000000E+00
  0.00000000E+00  0.00000000E+00  0.00000000E+00
  0.00000000E+00  0.00000000E+00  0.00000000E+00
  0.00000000E+00  0.00000000E+00  0.00000000E+00
  0.00000000E+00  0.00000000E+00  0.00000000E+00
  0.00000000E+00  0.00000000E+00  0.00000000E+00
  0.00000000E+00  0.00000000E+00  0.00000000E+00
  0.00000000E+00  0.00000000E+00  0.00000000E+00
  0.00000000E+00  0.00000000E+00  0.00000000E+00
  0.00000000E+00  0.00000000E+00  0.00000000E+00
  0.00000000E+00  0.00000000E+00  0.00000000E+00
  0.00000000E+00  0.00000000E+00  0.00000000E+00
  0.00000000E+00  0.00000000E+00  0.00000000E+00
  0.00000000E+00  0.00000000E+00  0.00000000E+00
  0.00000000E+00  0.00000000E+00  0.00000000E+00
  0.00000000E+00  0.00000000E+00  0.00000000E+00
  0.00000000E+00  0.00000000E+00  0.00000000E+00
  0.00000000E+00  0.00000000E+00  0.00000000E+00
  0.00000000E+00  0.00000000E+00  0.00000000E+00
  0.00000000E+00  0.00000000E+00  0.00000000E+00
  0.00000000E+00  0.00000000E+00  0.00000000E+00
  0.00000000E+00  0.00000000E+00  0.00000000E+00
  0.00000000E+00  0.00000000E+00  0.00000000E+00
  0.00000000E+00  0.00000000E+00  0.00000000E+00
  0.00000000E+00  0.00000000E+00  0.00000000E+00
  0.00000000E+00  0.00000000E+00  0.00000000E+00
  0.00000000E+00  0.00000000E+00  0.00000000E+00
  0.00000000E+00  0.00000000E+00  0.00000000E+00
  0.00000000E+00  0.00000000E+00  0.00000000E+00
  0.00000000E+00  0.00000000E+00  0.00000000E+00
  0.00000000E+00  0.00000000E+00  0.00000000E+00
  0.00000000E+00  0.00000000E+00  0.00000000E+00
  0.00000000E+00  0.00000000E+00  0.00000000E+00
  0.00000000E+00  0.00000000E+00  0.00000000E+00
  0.00000000E+00  0.00000000E+00  0.00000000E+00
  0.00000000E+00  0.00000000E+00  0.00000000E+00
  0.00000000E+00  0.00000000E+00  0.00000000E+00
  0.00000000E+00  0.00000000E+00  0.00000000E+00
  0.00000000E+00  0.00000000E+00  0.00000000E+00
  0.00000000E+00  0.00000000E+00  0.00000000E+00
  0.00000000E+00  0.00000000E+00  0.00000000E+00
  0.00000000E+00  0.00000000E+00  0.00000000E+00
  0.00000000E+00  0.00000000E+00  0.00000000E+00
  0.00000000E+00  0.00000000E+00  0.00000000E+00
  0.00000000E+00  0.00000000E+00  0.00000000E+00
  0.00000000E+00  0.00000000E+00  0.00000000E+00
  0.00000000E+00  0.00000000E+00  0.00000000E+00
  0.00000000E+00  0.00000000E+00  0.00000000E+00
  0.00000000E+00  0.00000000E+00  0.00000000E+00
  0.00000000E+00  0.00000000E+00  0.00000000E+00
  0.00000000E+00  0.00000000E+00  0.00000000E+00
  0.00000000E+00  0.00000000E+00  0.00000000E+00
  0.00000000E+00  0.00000000E+00  0.00000000E+00
  0.00000000E+00  0.00000000E+00  0.00000000E+00
  0.00000000E+00  0.00000000E+00  0.00000000E+00
  0.00000000E+00  0.00000000E+00  0.00000000E+00
  0.00000000E+00  0.00000000E+00  0.00000000E+00
  0.00000000E+00  0.00000000E+00  0.00000000E+00
  0.00000000E+00  0.00000000E+00  0.00000000E+00
  0.00000000E+00  0.00000000E+00  0.00000000E+00
  0.00000000E+00  0.00000000E+00  0.00000000E+00
  0.00000000E+00  0.00000000E+00  0.00000000E+00
  0.00000000E+00  0.00000000E+00  0.00000000E+00
  0.00000000E+00  0.00000000E+00  0.00000000E+00
  0.00000000E+00  0.00000000E+00  0.00000000E+00
  0.00000000E+00  0.00000000E+00  0.00000000E+00
  0.00000000E+00  0.00000000E+00  0.00000000E+00
  0.00000000E+00  0.00000000E+00  0.00000000E+00
  0.00000000E+00  0.00000000E+00  0.00000000E+00
  0.00000000E+00  0.00000000E+00  0.00000000E+00
  0.00000000E+00  0.00000000E+00  0.00000000E+00
