Nb Ta                                   
    1.000000000000000     
    13.2424183847499926   -0.0000596766105922    0.0023615626148148
    -0.0000603918682057   13.2449658088007070   -0.0009654659140420
     0.0023619220611907   -0.0009659439093644   13.2433511704608460
   Nb   Ta
   100    28
Direct
  0.1244703184399216  0.8737230532799115  0.6260924596988459
  0.7525682986512332  0.2515479829334885  0.2507641597911853
  0.0017339826858009  0.2504117422820025  0.0016734071992992
  0.7504605293900026  0.2514689764806966 -0.0004676837487711
  0.2485387114609889  0.2495186852892304  0.2493866269480536
  0.0005638166177935 -0.0009577454926560  0.0018387179731367
  0.8773375939066830  0.3751391774229711  0.1240940769525058
  0.3768713202478069  0.1266556186690219  0.1267875225659305
  0.1240953762263407  0.6249127024777338  0.6244426828518741
  0.2507620641724911  0.5004417786339648 -0.0007780113080033
  0.6259291705386798  0.6255589907912271  0.8755385967271767
  0.7489244152188232 -0.0012752703375887  0.2509327745470615
  0.0005684833164192  0.2509783064048519  0.7485401149957595
  0.5006027387477500 -0.0000451233377146  0.4991476115200387
  0.2481658141388440 -0.0007435619451069  0.5022936440050157
  0.2483386928728852  0.7490738139159772  0.0006883833906800
  0.4991402978321400  0.2509717599603431 -0.0018741283372415
  0.1255310502960941  0.3757700060892916  0.3736834320074464
  0.7502324169596059  0.5008438074912981  0.4994868904923998
  0.7518285544619753  0.7500843190687690 -0.0003052997688796
  0.7512481445187230 -0.0000647163400649  0.5016673351458230
  0.8726448414386369  0.1233588291287343  0.1228208700898230
  0.2496098715388746  0.7501041599339702  0.2493698041132446
  0.6233404689129979  0.8757032673696560  0.3757366499322838
 -0.0006654420057684  0.7494571153850275  0.7516577408432157
  0.3761396869708282  0.3726956060514641  0.3742733465912165
  0.4986194116977758  0.5004332695657516  0.4988397869868150
  0.6240788333126915  0.3736137341613060  0.1262164061679568
  0.6239209794473468  0.6233914178750785  0.3750806859062250
  0.6264811519761712  0.1249972341414746  0.8770762875050333
  0.8739872093130782  0.6259446068437781  0.1247863178668249
  0.8736553240130872  0.6247918252842120  0.8740941364973004
  0.5012476423067652  0.7494750205927949  0.5002351287381289
  0.3752888663105407  0.1250698098954988  0.6223326220848345
  0.8730291352779316  0.1240269480261417  0.3747314088300661
  0.3756590370388534  0.8745487950913632  0.6244628401741641
  0.1218117131664931  0.1235000618596957  0.8742893107102961
  0.1240976668140353  0.6251424542951303  0.3754762720829561
  0.8740261446297835  0.3760966351431989  0.3752407535508346
  0.1240155708325386  0.8750746489610004  0.1239525520647948
  0.4999858308559922  0.7494465886099281  0.7496943194497735
  0.2496913401973249  0.5004314916798620  0.7495700496483847
  0.5004358909259271  0.4990529507976457  0.7514100213312247
  0.1255204539885903  0.6259652076538613  0.8741777773066614
  0.3744531974328481  0.3756124290200847  0.6263107460240998
  0.1244715070191296  0.1258688828103889  0.1247971669506777
  0.6247661417274780  0.3750359317700016  0.8745503090091399
  0.2503347631682215  0.4998682647872453  0.4998459997802268
  0.6238587704720534  0.1266827966682826  0.3737353262781170
 -0.0010240163365430  0.7511668504429999  0.5001788615197875
  0.1270835281652026  0.8740205465913707  0.3750046757260255
  0.8753619268138755  0.1250698634548675  0.6274206208567747
  0.1243852969339822  0.6226729939584521  0.1259982576047493
  0.1257946784538146  0.3755838187792943  0.8759694074448479
 -0.0005141829470679  0.7509871795136128  0.2486370391987807
  0.2484728818458776  0.2513565314859672  0.5005084151810313
  0.8757012826384976  0.8743270125996900  0.6251387650562859
  0.3755022638916680  0.6246707958769006  0.1250852949303526
  0.8766771852193268  0.8767230985141322  0.8761715112359973
  0.6253051528865140  0.6241421409785863  0.6254191708302360
  0.6254015135830098  0.3765281298394621  0.6234182026578363
  0.8769981270699271  0.6244221066586525  0.3759618249705048
  0.3750910428122967  0.6247610070777339  0.6250101390408552
  0.3748145023452070  0.6275030857225409  0.3755236700206689
  0.7478251091137775  0.2487457456685323  0.7482311590741548
  0.7490453987051722  0.4992860389580114  0.0009595636990604
  0.7496379899816816  0.4999967204043825  0.7501449787968789
  0.6240549956000101  0.8748760730994359  0.6249742210271542
  0.3744234349016541  0.8747105627463373  0.1245788286537934
  0.4994662286951717 -0.0001161095729030  0.0017247936019002
  0.8751508753571258  0.6244982881482213  0.6250030706787706
  0.6269359317651899  0.8744502408220264  0.1243758263190774
  0.2505428498888750  0.0023324446719445 -0.0006062259432259
  0.2522817899046149  0.5009933189172844  0.2515542833369755
  0.1246432424458593  0.1262826245752529  0.6251414954085731
  0.3761388245756236  0.1240673297253049  0.8750351679517824
  0.5008458719947638  0.2501460808174275  0.5023115027691480
  0.2501607275906327  0.7504859200689108  0.7489287914814952
  0.0003558017250012  0.4999635949798326  0.7505629623097259
  0.8749748992391115  0.3757564673577675  0.6257404750355772
  0.3748194722818927  0.6253146165633093  0.8740152010798361
  0.7501147966570301  0.7519215356961945  0.7486916646550537
  0.7492780918060127 -0.0008664421891555 -0.0023716498773693
 -0.0001144836681749  0.5020196247371084 -0.0007270844552322
 -0.0015171830058365  0.4990248501165521  0.2499255099543097
  0.5009517801382616  0.7509453476784994  0.2500494856232791
  0.4996952312724831  0.2499266934834929  0.2499102293101827
  0.6252904912997606  0.1243079723093638  0.6244749892755641
 -0.0000000581533154 -0.0004849541480797  0.7483234322675957
  0.4998377658903764  0.0019061672138427  0.7504198834249757
  0.0007091162106119  0.4980559087381621  0.5003065019862799
  0.8753660023531483  0.3728141614944276  0.8745836974748615
  0.2499192892898504 -0.0004908510535186  0.2486805353704964
  0.1250912078665626  0.3750784576856233  0.6249195620190831
  0.2494789899916811  0.7495357142497483  0.5008051691924306
  0.1284863439252904  0.1251358348550236  0.3754891822152073
  0.4992479895280385  0.7489605371610547 -0.0001164932894308
  0.8754649988405286  0.8749452535705429  0.3738091878419308
  0.2513322605568981  0.2483325668405844  0.7515554522120989
  0.6225888556959247  0.8743966625259060  0.8751791231881557
  0.5004355945678947  0.5003310193005083  0.2485153699503446
 -0.0002447489512017  0.2477564636560647  0.2516099608254930
  0.3740574541470934  0.8763361877969452  0.3757543835790931
  0.5002507475819347 -0.0008305518462670  0.2489645920057852
  0.3745247391477496  0.1234046273629491  0.3757961447456774
  0.8743109600372410  0.8755846866320934  0.1254745856410472
  0.5005095857100712  0.2494965495442655  0.7499215315704317
  0.8757690158610032  0.1256751537529233  0.8748226845936474
  0.7488635962773427  0.5013482000124814  0.2493713592373760
  0.1263082363571859  0.3765694259504748  0.1257416900085699
  0.3736309822162645  0.8745611203257512  0.8749572595493821
 -0.0015699134083101  0.2489185513732005  0.4978051501949104
  0.1266227735211733  0.8752424305371562  0.8747616750607472
  0.7523094830835839  0.2495580524012892  0.5010833436842063
  0.7498389188584434  0.7495094594781087  0.4986155938056168
  0.6246963172529127  0.3743871674213550  0.3757776205386452
  0.7491218547136035 -0.0008086805638629  0.7504929014915152
  0.6264988841681619  0.1259464293143030  0.1249553647044533
  0.5001968138916965  0.4999946095906956  0.0011162316571132
  0.0007877036264424  0.0021198492813332  0.2516122752392772
  0.6254655377233372  0.6263579053118680  0.1241310279355645
  0.7496075657913173  0.7483663805681792  0.2529261643310483
  0.0005481707643155  0.0014605191720179  0.4980458199056917
  0.3728209157281829  0.3744526379348581  0.1241640639391471
  0.3742770196838542  0.3755610181105303  0.8754993529970424
  0.0000216037483344  0.7490432291192682 -0.0002048822956983
  0.2511657876241183  0.0006401216258538  0.7489550445450854
  0.2491804871581459  0.2484229892847178 -0.0010945895497538
 
  0.00000000E+00  0.00000000E+00  0.00000000E+00
  0.00000000E+00  0.00000000E+00  0.00000000E+00
  0.00000000E+00  0.00000000E+00  0.00000000E+00
  0.00000000E+00  0.00000000E+00  0.00000000E+00
  0.00000000E+00  0.00000000E+00  0.00000000E+00
  0.00000000E+00  0.00000000E+00  0.00000000E+00
  0.00000000E+00  0.00000000E+00  0.00000000E+00
  0.00000000E+00  0.00000000E+00  0.00000000E+00
  0.00000000E+00  0.00000000E+00  0.00000000E+00
  0.00000000E+00  0.00000000E+00  0.00000000E+00
  0.00000000E+00  0.00000000E+00  0.00000000E+00
  0.00000000E+00  0.00000000E+00  0.00000000E+00
  0.00000000E+00  0.00000000E+00  0.00000000E+00
  0.00000000E+00  0.00000000E+00  0.00000000E+00
  0.00000000E+00  0.00000000E+00  0.00000000E+00
  0.00000000E+00  0.00000000E+00  0.00000000E+00
  0.00000000E+00  0.00000000E+00  0.00000000E+00
  0.00000000E+00  0.00000000E+00  0.00000000E+00
  0.00000000E+00  0.00000000E+00  0.00000000E+00
  0.00000000E+00  0.00000000E+00  0.00000000E+00
  0.00000000E+00  0.00000000E+00  0.00000000E+00
  0.00000000E+00  0.00000000E+00  0.00000000E+00
  0.00000000E+00  0.00000000E+00  0.00000000E+00
  0.00000000E+00  0.00000000E+00  0.00000000E+00
  0.00000000E+00  0.00000000E+00  0.00000000E+00
  0.00000000E+00  0.00000000E+00  0.00000000E+00
  0.00000000E+00  0.00000000E+00  0.00000000E+00
  0.00000000E+00  0.00000000E+00  0.00000000E+00
  0.00000000E+00  0.00000000E+00  0.00000000E+00
  0.00000000E+00  0.00000000E+00  0.00000000E+00
  0.00000000E+00  0.00000000E+00  0.00000000E+00
  0.00000000E+00  0.00000000E+00  0.00000000E+00
  0.00000000E+00  0.00000000E+00  0.00000000E+00
  0.00000000E+00  0.00000000E+00  0.00000000E+00
  0.00000000E+00  0.00000000E+00  0.00000000E+00
  0.00000000E+00  0.00000000E+00  0.00000000E+00
  0.00000000E+00  0.00000000E+00  0.00000000E+00
  0.00000000E+00  0.00000000E+00  0.00000000E+00
  0.00000000E+00  0.00000000E+00  0.00000000E+00
  0.00000000E+00  0.00000000E+00  0.00000000E+00
  0.00000000E+00  0.00000000E+00  0.00000000E+00
  0.00000000E+00  0.00000000E+00  0.00000000E+00
  0.00000000E+00  0.00000000E+00  0.00000000E+00
  0.00000000E+00  0.00000000E+00  0.00000000E+00
  0.00000000E+00  0.00000000E+00  0.00000000E+00
  0.00000000E+00  0.00000000E+00  0.00000000E+00
  0.00000000E+00  0.00000000E+00  0.00000000E+00
  0.00000000E+00  0.00000000E+00  0.00000000E+00
  0.00000000E+00  0.00000000E+00  0.00000000E+00
  0.00000000E+00  0.00000000E+00  0.00000000E+00
  0.00000000E+00  0.00000000E+00  0.00000000E+00
  0.00000000E+00  0.00000000E+00  0.00000000E+00
  0.00000000E+00  0.00000000E+00  0.00000000E+00
  0.00000000E+00  0.00000000E+00  0.00000000E+00
  0.00000000E+00  0.00000000E+00  0.00000000E+00
  0.00000000E+00  0.00000000E+00  0.00000000E+00
  0.00000000E+00  0.00000000E+00  0.00000000E+00
  0.00000000E+00  0.00000000E+00  0.00000000E+00
  0.00000000E+00  0.00000000E+00  0.00000000E+00
  0.00000000E+00  0.00000000E+00  0.00000000E+00
  0.00000000E+00  0.00000000E+00  0.00000000E+00
  0.00000000E+00  0.00000000E+00  0.00000000E+00
  0.00000000E+00  0.00000000E+00  0.00000000E+00
  0.00000000E+00  0.00000000E+00  0.00000000E+00
  0.00000000E+00  0.00000000E+00  0.00000000E+00
  0.00000000E+00  0.00000000E+00  0.00000000E+00
  0.00000000E+00  0.00000000E+00  0.00000000E+00
  0.00000000E+00  0.00000000E+00  0.00000000E+00
  0.00000000E+00  0.00000000E+00  0.00000000E+00
  0.00000000E+00  0.00000000E+00  0.00000000E+00
  0.00000000E+00  0.00000000E+00  0.00000000E+00
  0.00000000E+00  0.00000000E+00  0.00000000E+00
  0.00000000E+00  0.00000000E+00  0.00000000E+00
  0.00000000E+00  0.00000000E+00  0.00000000E+00
  0.00000000E+00  0.00000000E+00  0.00000000E+00
  0.00000000E+00  0.00000000E+00  0.00000000E+00
  0.00000000E+00  0.00000000E+00  0.00000000E+00
  0.00000000E+00  0.00000000E+00  0.00000000E+00
  0.00000000E+00  0.00000000E+00  0.00000000E+00
  0.00000000E+00  0.00000000E+00  0.00000000E+00
  0.00000000E+00  0.00000000E+00  0.00000000E+00
  0.00000000E+00  0.00000000E+00  0.00000000E+00
  0.00000000E+00  0.00000000E+00  0.00000000E+00
  0.00000000E+00  0.00000000E+00  0.00000000E+00
  0.00000000E+00  0.00000000E+00  0.00000000E+00
  0.00000000E+00  0.00000000E+00  0.00000000E+00
  0.00000000E+00  0.00000000E+00  0.00000000E+00
  0.00000000E+00  0.00000000E+00  0.00000000E+00
  0.00000000E+00  0.00000000E+00  0.00000000E+00
  0.00000000E+00  0.00000000E+00  0.00000000E+00
  0.00000000E+00  0.00000000E+00  0.00000000E+00
  0.00000000E+00  0.00000000E+00  0.00000000E+00
  0.00000000E+00  0.00000000E+00  0.00000000E+00
  0.00000000E+00  0.00000000E+00  0.00000000E+00
  0.00000000E+00  0.00000000E+00  0.00000000E+00
  0.00000000E+00  0.00000000E+00  0.00000000E+00
  0.00000000E+00  0.00000000E+00  0.00000000E+00
  0.00000000E+00  0.00000000E+00  0.00000000E+00
  0.00000000E+00  0.00000000E+00  0.00000000E+00
  0.00000000E+00  0.00000000E+00  0.00000000E+00
  0.00000000E+00  0.00000000E+00  0.00000000E+00
  0.00000000E+00  0.00000000E+00  0.00000000E+00
  0.00000000E+00  0.00000000E+00  0.00000000E+00
  0.00000000E+00  0.00000000E+00  0.00000000E+00
  0.00000000E+00  0.00000000E+00  0.00000000E+00
  0.00000000E+00  0.00000000E+00  0.00000000E+00
  0.00000000E+00  0.00000000E+00  0.00000000E+00
  0.00000000E+00  0.00000000E+00  0.00000000E+00
  0.00000000E+00  0.00000000E+00  0.00000000E+00
  0.00000000E+00  0.00000000E+00  0.00000000E+00
  0.00000000E+00  0.00000000E+00  0.00000000E+00
  0.00000000E+00  0.00000000E+00  0.00000000E+00
  0.00000000E+00  0.00000000E+00  0.00000000E+00
  0.00000000E+00  0.00000000E+00  0.00000000E+00
  0.00000000E+00  0.00000000E+00  0.00000000E+00
  0.00000000E+00  0.00000000E+00  0.00000000E+00
  0.00000000E+00  0.00000000E+00  0.00000000E+00
  0.00000000E+00  0.00000000E+00  0.00000000E+00
  0.00000000E+00  0.00000000E+00  0.00000000E+00
  0.00000000E+00  0.00000000E+00  0.00000000E+00
  0.00000000E+00  0.00000000E+00  0.00000000E+00
  0.00000000E+00  0.00000000E+00  0.00000000E+00
  0.00000000E+00  0.00000000E+00  0.00000000E+00
  0.00000000E+00  0.00000000E+00  0.00000000E+00
  0.00000000E+00  0.00000000E+00  0.00000000E+00
  0.00000000E+00  0.00000000E+00  0.00000000E+00
  0.00000000E+00  0.00000000E+00  0.00000000E+00
  0.00000000E+00  0.00000000E+00  0.00000000E+00
