Hf Nb                                   
    1.000000000000000     
    11.8614946290852288   -0.9980926553857336   -0.0323617372442317
    -6.8430695012679301   11.8191425284374638    0.0240686064514378
    -0.0696522751961605    0.0512446983308743   19.4202062816461662
  Hf             Nb           
              68              60
Direct
  0.8638597208421733  0.5687568128990986  0.4459095043514343
  0.1495071480770878  0.9541537582148094  0.0570177424437905
  0.6261964890324109  0.6828311725164649  0.3186071481486473
  0.6259091200933837  0.6920884768530551  0.5629153770072515
  0.1209034892533161  0.4294219442825934  0.8148495958443691
  0.8821440960604156  0.5591397003781231  0.9268052856788959
  0.6201808701694755  0.6914809166572018  0.0690684427887175
  0.6364860173671834  0.4387954392589835  0.0712526664326373
  0.3822402402546375  0.2085373493421479  0.5713076890453000
  0.6334726680727042  0.8266858856621178  0.1920389163968362
  0.1226932028923352  0.0532147865512460  0.4204972984613047
  0.3690526728487076  0.4340778957810312  0.3107163409101432
  0.1337316008839311  0.1863228649244363  0.0537709047961258
  0.6147273110456952  0.1758326296075282  0.5680476551425786
  0.1187006360551184  0.0633207601932803  0.6897011087567684
  0.8839756299750660  0.0848285004198344  0.1945713707909900
  0.8890939429590633  0.6940535500414231  0.3099579026691239
  0.6255215117046136  0.9380492799253926  0.0546578507381403
  0.8818338411624250  0.9387713200770669  0.0613705249216990
  0.8656242129947892  0.4335242614880326  0.3168655783697155
  0.8777078104798828  0.9417656449728115  0.8117662819444295
  0.1164344713761975  0.0587702493379627  0.1896941371573542
  0.3689902543498576  0.6812481317049107  0.3120573559717708
  0.6305504311363477  0.9446487291014041  0.3190065843041535
  0.6214344060728090  0.3130894539995725  0.4372072123293373
  0.1242439473651515  0.9429340843271119  0.5589177495697180
  0.3538881080357284  0.9061567958050479  0.5673166535556344
  0.1277831258862991  0.8089866594608013  0.4279998081009042
  0.1056328944320523  0.8082827872043326  0.1854060546431412
  0.1371159151116265  0.5727402389066991  0.6916361301527685
  0.3651390225135256  0.8096909858130895  0.1806134601537436
  0.1334248977475757  0.9320231360941749  0.8202923052878859
  0.3816469827448356  0.0564762046843215  0.6890129514919111
  0.6361278933241066  0.4491128382948182  0.8107914486947945
  0.1327305297643737  0.3300485770251994  0.4355797097586113
  0.1440574012377510  0.5695951369340506  0.9424596748089402
  0.6275861692879258  0.9379285653955026  0.5639823104761359
  0.3671206868300996  0.0575418079675570  0.1810742302573850
  0.3571915710505272  0.3075870722213840  0.9342251727022901
  0.1110282138056161  0.1727848128313998  0.5539183612049200
  0.1281730985620586  0.5630779126316123  0.4290770494383510
  0.3917738349124481  0.1883919136655565  0.8153841642311912
  0.1226867144397888  0.6921034878743337  0.8171284333175503
  0.8668298508204014  0.0555312348392308  0.4391929180127278
  0.6237090642348057  0.3035014326417662  0.1997432868692503
  0.3648215760718068  0.6835647503610042  0.5660989863162571
  0.3727765113896060  0.4436199862718407  0.0587354315668845
  0.0877524258649030  0.6594322095771508  0.5585696892827857
  0.3809749951526311  0.1983392984148485  0.3113141622484344
  0.8685764747123325  0.3074580022733112  0.6857599678498860
  0.6249713318407496  0.0649119290033750  0.1857390514555911
  0.6328966793737747  0.5705148701487834  0.9435673057608882
  0.8860399456643407  0.3200794453132895  0.1821297129679446
  0.1164589472756708  0.8029480826056010  0.6847828193685673
  0.0960697930315018  0.1904025482804439  0.3120687705394700
  0.8780698345736380  0.3139346846673877  0.9310529181861985
  0.8571580683570900  0.8043369457873053  0.4471009277183649
  0.1312894307383261  0.1996879441388121  0.8212660994170645
  0.1389111876832336  0.3159487348396535  0.6854284779788428
  0.3735267500093023  0.0604539198557289  0.4423275979978209
  0.8891534620406292  0.9271366903485458  0.3060416934106454
  0.8708780173262358  0.5534294083737575  0.1820473967496097
  0.8873325890196028  0.6956867274174419  0.0553352158954478
  0.6234536810805460  0.6861823493736442  0.8119233362846501
  0.0907883938824925  0.4284730532027090  0.5633216480485782
  0.1566411467918453  0.3295664447506986  0.1816000687881402
  0.6136037187285671  0.3017461400155840  0.9390597926422143
  0.3699061705749472  0.4358092131253387  0.5676546048799903
  0.4028628774688547  0.1973975646877440  0.0555625665088502
  0.3893614139723823  0.5730185358575455  0.6970066546314918
  0.8413093255922288  0.4217040042549768  0.5584724966439698
  0.6254486502140998  0.0550337097613666  0.6956975414843812
  0.3737620027236579  0.9304882488203730  0.3135318081689766
  0.6173583744445846  0.3123754002409506  0.6900366537487395
  0.6198074341507107  0.5610945644191057  0.6861615134873829
  0.3851244355913973  0.5780289933460069  0.1812970391594264
  0.6266380973137854  0.8154505080867209  0.6909396027290220
  0.3847980417803780  0.8202241210184645  0.6997813127089171
  0.8863623985258210  0.4399320922127068  0.0554627320399738
  0.6369715673819408  0.8171845360225335  0.9343194901050332
  0.1234791607267950  0.3221370266437826  0.9441919321533726
  0.6289304151243572  0.0650082721070820  0.9334331357731505
  0.8841727098104138  0.8152980281890196  0.9309312627596035
  0.6125269630536025  0.5529668812984098  0.1933544361209182
  0.8743730077140223  0.9372791469093330  0.5778175718368332
  0.6250792071574501  0.0684590302632835  0.4388157211119749
  0.5970880198863955  0.8006475397029661  0.4389640608417076
  0.8666459326723003  0.0627811128691812  0.6850625226201394
  0.3697886739408426  0.3099680998219664  0.4407648224813799
  0.8661792910400674  0.6827573873286613  0.5766091747852871
  0.8688140692375836  0.3075858369448470  0.4438184495524389
  0.1597924094453964  0.9450325429474501  0.3052304040618356
  0.1343680568291241  0.6902201359475552  0.0634540938330040
  0.8788027102301296  0.4405908369357271  0.7995882207513244
  0.3915678576140544  0.5748917935325415  0.9311187246866193
  0.1316061560845244  0.6856920810883042  0.3007273458192410
  0.3864719638022168  0.9418381006451042  0.0525491121873214
  0.3905469386344950  0.9436470352195871  0.8186148122919233
  0.6016371213090782  0.5436910374806476  0.4407111029326605
  0.6177749838240543  0.1708399298838217  0.3212544226036292
  0.1043367539516495  0.0485089145320811  0.9351624509157600
  0.8629189257424030  0.5539484301096983  0.6893405395497345
  0.6380662981890572  0.1859437325679570  0.0580192711678434
  0.6248978296559403  0.4520832151260984  0.3157950385048641
  0.6272995920808648  0.4444273816324523  0.5661497945700948
  0.3910313277848920  0.3245791268168087  0.6973179346083602
  0.8726872389790689  0.0677556708722437  0.9379950249275171
  0.8609055442308352  0.2016390830417699  0.3204457321805996
  0.3918337111602265  0.5697142697400331  0.4391018281438916
  0.3939536193839442  0.3144564896659746  0.1762622209087860
  0.8456503214755916  0.7868826608787836  0.1811828616467857
  0.3894368952195404  0.8189099020335694  0.9374919835843150
  0.8799076383792322  0.6994130447898973  0.8085234506210917
  0.8601202302709258  0.8040158228283752  0.6880462510143839
  0.1336579904079946  0.5649350355186148  0.1859130073098907
  0.3793263297246265  0.6933440324969758  0.8151417347930868
  0.1299246033224345  0.8071320365009642  0.9440237979965046
  0.1133104117662550  0.4327615823162009  0.0627797654785193
  0.3652107562869197  0.6821634368520552  0.0555350172853527
  0.1128369487575549  0.4316614643867255  0.3038087207805098
  0.3722306000321051  0.0514023958334169  0.9398055906137464
  0.3866207886601912  0.8226451034325006  0.4361808001546974
  0.6372891642361760  0.1871379889183692  0.8092964761613961
  0.6248353369221074  0.9366515936615256  0.8151697262972876
  0.8703688808079697  0.1818743637066729  0.5624550112554448
  0.3781961510686275  0.4411586215440249  0.8083319518988957
  0.8671605376266007  0.1726312106438127  0.8108313048245996
  0.8756233061295445  0.1873915261100418  0.0582739487018222
 
  0.00000000E+00  0.00000000E+00  0.00000000E+00
  0.00000000E+00  0.00000000E+00  0.00000000E+00
  0.00000000E+00  0.00000000E+00  0.00000000E+00
  0.00000000E+00  0.00000000E+00  0.00000000E+00
  0.00000000E+00  0.00000000E+00  0.00000000E+00
  0.00000000E+00  0.00000000E+00  0.00000000E+00
  0.00000000E+00  0.00000000E+00  0.00000000E+00
  0.00000000E+00  0.00000000E+00  0.00000000E+00
  0.00000000E+00  0.00000000E+00  0.00000000E+00
  0.00000000E+00  0.00000000E+00  0.00000000E+00
  0.00000000E+00  0.00000000E+00  0.00000000E+00
  0.00000000E+00  0.00000000E+00  0.00000000E+00
  0.00000000E+00  0.00000000E+00  0.00000000E+00
  0.00000000E+00  0.00000000E+00  0.00000000E+00
  0.00000000E+00  0.00000000E+00  0.00000000E+00
  0.00000000E+00  0.00000000E+00  0.00000000E+00
  0.00000000E+00  0.00000000E+00  0.00000000E+00
  0.00000000E+00  0.00000000E+00  0.00000000E+00
  0.00000000E+00  0.00000000E+00  0.00000000E+00
  0.00000000E+00  0.00000000E+00  0.00000000E+00
  0.00000000E+00  0.00000000E+00  0.00000000E+00
  0.00000000E+00  0.00000000E+00  0.00000000E+00
  0.00000000E+00  0.00000000E+00  0.00000000E+00
  0.00000000E+00  0.00000000E+00  0.00000000E+00
  0.00000000E+00  0.00000000E+00  0.00000000E+00
  0.00000000E+00  0.00000000E+00  0.00000000E+00
  0.00000000E+00  0.00000000E+00  0.00000000E+00
  0.00000000E+00  0.00000000E+00  0.00000000E+00
  0.00000000E+00  0.00000000E+00  0.00000000E+00
  0.00000000E+00  0.00000000E+00  0.00000000E+00
  0.00000000E+00  0.00000000E+00  0.00000000E+00
  0.00000000E+00  0.00000000E+00  0.00000000E+00
  0.00000000E+00  0.00000000E+00  0.00000000E+00
  0.00000000E+00  0.00000000E+00  0.00000000E+00
  0.00000000E+00  0.00000000E+00  0.00000000E+00
  0.00000000E+00  0.00000000E+00  0.00000000E+00
  0.00000000E+00  0.00000000E+00  0.00000000E+00
  0.00000000E+00  0.00000000E+00  0.00000000E+00
  0.00000000E+00  0.00000000E+00  0.00000000E+00
  0.00000000E+00  0.00000000E+00  0.00000000E+00
  0.00000000E+00  0.00000000E+00  0.00000000E+00
  0.00000000E+00  0.00000000E+00  0.00000000E+00
  0.00000000E+00  0.00000000E+00  0.00000000E+00
  0.00000000E+00  0.00000000E+00  0.00000000E+00
  0.00000000E+00  0.00000000E+00  0.00000000E+00
  0.00000000E+00  0.00000000E+00  0.00000000E+00
  0.00000000E+00  0.00000000E+00  0.00000000E+00
  0.00000000E+00  0.00000000E+00  0.00000000E+00
  0.00000000E+00  0.00000000E+00  0.00000000E+00
  0.00000000E+00  0.00000000E+00  0.00000000E+00
  0.00000000E+00  0.00000000E+00  0.00000000E+00
  0.00000000E+00  0.00000000E+00  0.00000000E+00
  0.00000000E+00  0.00000000E+00  0.00000000E+00
  0.00000000E+00  0.00000000E+00  0.00000000E+00
  0.00000000E+00  0.00000000E+00  0.00000000E+00
  0.00000000E+00  0.00000000E+00  0.00000000E+00
  0.00000000E+00  0.00000000E+00  0.00000000E+00
  0.00000000E+00  0.00000000E+00  0.00000000E+00
  0.00000000E+00  0.00000000E+00  0.00000000E+00
  0.00000000E+00  0.00000000E+00  0.00000000E+00
  0.00000000E+00  0.00000000E+00  0.00000000E+00
  0.00000000E+00  0.00000000E+00  0.00000000E+00
  0.00000000E+00  0.00000000E+00  0.00000000E+00
  0.00000000E+00  0.00000000E+00  0.00000000E+00
  0.00000000E+00  0.00000000E+00  0.00000000E+00
  0.00000000E+00  0.00000000E+00  0.00000000E+00
  0.00000000E+00  0.00000000E+00  0.00000000E+00
  0.00000000E+00  0.00000000E+00  0.00000000E+00
  0.00000000E+00  0.00000000E+00  0.00000000E+00
  0.00000000E+00  0.00000000E+00  0.00000000E+00
  0.00000000E+00  0.00000000E+00  0.00000000E+00
  0.00000000E+00  0.00000000E+00  0.00000000E+00
  0.00000000E+00  0.00000000E+00  0.00000000E+00
  0.00000000E+00  0.00000000E+00  0.00000000E+00
  0.00000000E+00  0.00000000E+00  0.00000000E+00
  0.00000000E+00  0.00000000E+00  0.00000000E+00
  0.00000000E+00  0.00000000E+00  0.00000000E+00
  0.00000000E+00  0.00000000E+00  0.00000000E+00
  0.00000000E+00  0.00000000E+00  0.00000000E+00
  0.00000000E+00  0.00000000E+00  0.00000000E+00
  0.00000000E+00  0.00000000E+00  0.00000000E+00
  0.00000000E+00  0.00000000E+00  0.00000000E+00
  0.00000000E+00  0.00000000E+00  0.00000000E+00
  0.00000000E+00  0.00000000E+00  0.00000000E+00
  0.00000000E+00  0.00000000E+00  0.00000000E+00
  0.00000000E+00  0.00000000E+00  0.00000000E+00
  0.00000000E+00  0.00000000E+00  0.00000000E+00
  0.00000000E+00  0.00000000E+00  0.00000000E+00
  0.00000000E+00  0.00000000E+00  0.00000000E+00
  0.00000000E+00  0.00000000E+00  0.00000000E+00
  0.00000000E+00  0.00000000E+00  0.00000000E+00
  0.00000000E+00  0.00000000E+00  0.00000000E+00
  0.00000000E+00  0.00000000E+00  0.00000000E+00
  0.00000000E+00  0.00000000E+00  0.00000000E+00
  0.00000000E+00  0.00000000E+00  0.00000000E+00
  0.00000000E+00  0.00000000E+00  0.00000000E+00
  0.00000000E+00  0.00000000E+00  0.00000000E+00
  0.00000000E+00  0.00000000E+00  0.00000000E+00
  0.00000000E+00  0.00000000E+00  0.00000000E+00
  0.00000000E+00  0.00000000E+00  0.00000000E+00
  0.00000000E+00  0.00000000E+00  0.00000000E+00
  0.00000000E+00  0.00000000E+00  0.00000000E+00
  0.00000000E+00  0.00000000E+00  0.00000000E+00
  0.00000000E+00  0.00000000E+00  0.00000000E+00
  0.00000000E+00  0.00000000E+00  0.00000000E+00
  0.00000000E+00  0.00000000E+00  0.00000000E+00
  0.00000000E+00  0.00000000E+00  0.00000000E+00
  0.00000000E+00  0.00000000E+00  0.00000000E+00
  0.00000000E+00  0.00000000E+00  0.00000000E+00
  0.00000000E+00  0.00000000E+00  0.00000000E+00
  0.00000000E+00  0.00000000E+00  0.00000000E+00
  0.00000000E+00  0.00000000E+00  0.00000000E+00
  0.00000000E+00  0.00000000E+00  0.00000000E+00
  0.00000000E+00  0.00000000E+00  0.00000000E+00
  0.00000000E+00  0.00000000E+00  0.00000000E+00
  0.00000000E+00  0.00000000E+00  0.00000000E+00
  0.00000000E+00  0.00000000E+00  0.00000000E+00
  0.00000000E+00  0.00000000E+00  0.00000000E+00
  0.00000000E+00  0.00000000E+00  0.00000000E+00
  0.00000000E+00  0.00000000E+00  0.00000000E+00
  0.00000000E+00  0.00000000E+00  0.00000000E+00
  0.00000000E+00  0.00000000E+00  0.00000000E+00
  0.00000000E+00  0.00000000E+00  0.00000000E+00
  0.00000000E+00  0.00000000E+00  0.00000000E+00
  0.00000000E+00  0.00000000E+00  0.00000000E+00
  0.00000000E+00  0.00000000E+00  0.00000000E+00
  0.00000000E+00  0.00000000E+00  0.00000000E+00
  0.00000000E+00  0.00000000E+00  0.00000000E+00
