Nb Ti                                   
    1.000000000000000     
    11.5098606530408549    0.7136610883196509    0.0029974852390696
    -5.0901036617716375   10.3284617455437733   -0.0327142501201786
     0.0071037287994244   -0.0354890704350643   18.2093227997302272
  Nb              Ti            
    32    96
Direct
     0.4337697625048579    0.5710425366231262    0.4281418430391053
     0.1758413542028830    0.8173270980507610    0.1908248587266262
     0.5727236025892612    0.4279228550117744    0.3106123152690285
     0.6824319767207897    0.3107165199318195    0.6912959796086604
     0.6779920888138875    0.5591964099569212    0.6882112786111036
     0.5785594966619252    0.9320286276750103    0.3105391390615618
     0.6711083184211536    0.0613304931734962    0.6853992726037821
     0.5711399074154876    0.4334540269698722    0.0648836094421607
     0.5666622764564818    0.4391691162116743    0.5600335748295607
     0.3102004063316245    0.6868762651959576    0.5589557813330595
     0.5621384330036272    0.1794025006091137    0.0624606525136838
     0.0658028815408215    0.4225612341418643    0.8153507980135448
     0.5632155175846547    0.4314149968357263    0.8145317104190742
     0.3229150788122494    0.9377795136891405    0.5580326567814464
     0.0596857265355635    0.6806665080292054    0.5636253568188188
     0.6828705682905860    0.0733778796934435    0.4362226902428551
     0.8215328818357028    0.4350076205226824    0.0589677425452368
     0.0686376887959710    0.1798025943765807    0.5662414648371195
     0.1844234808735583    0.0696593300559134    0.1885875972974854
     0.6834463220780743    0.3159711360615453    0.9374296014465585
     0.9375827286492291    0.5776171799329489    0.4405537152208496
     0.3255392728251119    0.9218510164772811    0.8122752562173348
     0.0651050822053224    0.4315047143924938    0.5616986791392701
     0.8149774763595022    0.4277720544776127    0.8131883774998818
     0.5691612912495650    0.9363891683881058    0.5604187650516134
     0.1860027958815907    0.5670770529854349    0.4359366398970915
     0.4328907160318190    0.0691718754266749    0.4345354490857365
     0.8121044316628767    0.1806350169467742    0.0621344999935025
     0.8309723669309407    0.6873689081927062    0.3090624501480376
     0.4327451980550813    0.3177544163699952    0.9394923199834254
     0.4333306969010138    0.5624889287500148    0.6888035272923042
     0.3087227265557606    0.1716012941361888    0.0616355543352726
     0.9331709047178695    0.3249259227008016    0.9402999016361643
     0.3229297264931872    0.4428335676730432    0.5574750557461414
     0.3305715667267085    0.1708390036272741    0.3138563491448040
     0.5864331849195767    0.1830391844490289    0.3125584555246971
     0.5723364715460371    0.1895676229871784    0.5626465493775075
     0.9193673445027845    0.3279389196834496    0.4400868390738004
     0.6838841421947063    0.0835298090106232    0.1901257069900907
     0.4230410358206956    0.3226634890479793    0.4367866235102331
     0.3188901504291211    0.1807233882426920    0.5640261883453298
     0.0782848756697136    0.9324577415790796    0.5636130051386746
     0.0804333420848496    0.1658929184359270    0.3152831707021870
     0.8410212797355853    0.6850015787516390    0.0601968732246660
     0.6850409305240088    0.8293597239424410    0.4325742545267433
     0.1764633510298647    0.0680917224575441    0.4379018755650307
     0.3176587977442276    0.9185009527116417    0.0669795048849420
     0.5582776743174861    0.1759133080068941    0.8150043116298010
     0.0629964314208522    0.1743577385887010    0.8143470411928454
     0.1704922655428191    0.3147963333870822    0.1871267126182089
     0.9257355047668760    0.5797263715323762    0.1843020781172649
     0.0579555832717484    0.1674695717811336    0.0570760007981218
     0.5919484470921588    0.6787440368380755    0.8169563721755594
     0.9197783354964044    0.0802425222224945    0.6881422921976585
     0.4196212608231305    0.0638179964114878    0.6851842708848267
     0.8394152753961137    0.1863942147908195    0.3133385429239912
     0.1869002940617397    0.5771439508096905    0.9365646427243516
     0.0950632687554259    0.6764413464345838    0.8106832456971905
     0.9318498955029062    0.3314769847785968    0.6879200976198308
     0.4149466078985964    0.8160928426044121    0.9402644340932110
     0.1674541457809269    0.8234059216401884    0.9375983096793512
     0.6816689064692729    0.5782404147940821    0.1859416660089082
     0.4348118957248573    0.8192477997464924    0.4342173111147968
     0.1689093866372746    0.3164098341574363    0.4383921526922149
     0.8166962952932898    0.9274506097275701    0.5638615469475932
     0.9306980407474973    0.0806698504255019    0.4418039883153480
     0.4203290409205217    0.8105493621173525    0.6849523752040330
     0.0734872613542558    0.9174444096074029    0.8100723729894103
     0.4276701209482187    0.5717829106508622    0.1874865199391171
     0.1884852547419882    0.5717733699793334    0.6894642359156086
     0.6892454416657273    0.5741632451759378    0.9378773345099947
     0.1831757819077921    0.8178908440264993    0.4382659899530694
     0.3266085937447817    0.4183603518842875    0.0677665878441114
     0.9168952467805482    0.8290489787235011    0.9348711582489763
     0.5731527023519645    0.9242943544702332    0.8115703893496884
     0.6859789445296458    0.5789357083090546    0.4306404856987895
     0.6675996284211975    0.8240129052463340    0.9384645627652498
     0.1505340859132014    0.0637852330063897    0.9368975152520246
     0.1760857538551504    0.8233274572546520    0.6832177109141733
     0.0728191142144145    0.6660185698860780    0.3109820495264289
     0.8259328430934523    0.9274185447379864    0.8098860056201616
     0.9347002415842222    0.8293447407842328    0.4385536909557161
     0.8217383353562715    0.9288228534749829    0.0632373509784167
     0.6778601964327819    0.8336789522953540    0.1906505971349538
     0.9287640481417530    0.3344751856506725    0.1866155187462636
     0.8980774726298001    0.0703535579407003    0.9350754289446108
     0.4268079974304319    0.3210751241052481    0.1872996698391817
     0.4284003180085350    0.3144256600534664    0.6912661534852634
     0.8118061350300174    0.6764366042689378    0.5640603750358352
     0.8256944350280742    0.4344352500639504    0.3135549117339261
     0.9274101859294616    0.8343790738359970    0.6830946377472331
     0.0689777267310155    0.9175628236493082    0.0630194746958303
     0.3464217107390353    0.6744688529461645    0.8146205415018797
     0.8077134378727023    0.1765606667920279    0.8110035646436556
     0.3285755287282336    0.9230778296281271    0.3108741621259385
     0.0892845038650053    0.6750619807514812    0.0636243962063834
     0.4338524992105909    0.0763907049751831    0.1904667225479065
     0.0711808004417938    0.4148718770817884    0.3142742503933095
     0.5806716896122175    0.6768507181565263    0.3091507600050334
     0.0805480302962120    0.9193345254289373    0.3112778765950502
     0.5905663988601809    0.6834369300337120    0.0660670016098999
     0.9316437324375793    0.5768168222683795    0.6903441253289460
     0.3108856186289933    0.1640822033243668    0.8177095367240264
     0.9222829031942862    0.8290621104720202    0.1866387650155283
     0.8144338985989640    0.4286243264361492    0.5653372286247553
     0.8389806034952009    0.6829915916429106    0.8081624217026981
     0.6777107482134748    0.3274640994822788    0.1854309610673975
     0.1717028983445861    0.5650895012585427    0.1889345701949759
     0.4244154137486047    0.8242644836165480    0.1893894372192849
     0.6710310312030547    0.8125828476252186    0.6882058795762653
     0.1714642999394037    0.0776411853126796    0.6901401152019131
     0.4064601394529300    0.0620646294586063    0.9398419181093389
     0.3144114767289928    0.4159590927933488    0.8120297319756611
     0.3242632929442950    0.6692575704519592    0.3092210542652561
     0.5577739925681998    0.6830920062029852    0.5577845249634783
     0.0818173241127940    0.4264210703465803    0.0625210380905495
     0.9327148199004999    0.0841717188859692    0.1881974463936648
     0.8379137364835019    0.9373122062238809    0.3137434100095617
     0.3198424548681106    0.4164002719695267    0.3119587209435394
     0.5697763456349808    0.9241951583196408    0.0650550744100900
     0.4357244901201008    0.5675180851528887    0.9402228841086023
     0.9391995901624882    0.5815174993005763    0.9345349225195492
     0.1793321494285023    0.3264041355726550    0.6853785933711356
     0.1840180883722025    0.3270532315326933    0.9400752603046473
     0.6527401183770194    0.0668217604400622    0.9371020551922736
     0.3339559436016756    0.6696012537754507    0.0657691249349920
     0.8187469899030182    0.1799207667388457    0.5651387499445629
     0.6707280692501918    0.3304749791328472    0.4377115430232115
 
  0.00000000E+00  0.00000000E+00  0.00000000E+00
  0.00000000E+00  0.00000000E+00  0.00000000E+00
  0.00000000E+00  0.00000000E+00  0.00000000E+00
  0.00000000E+00  0.00000000E+00  0.00000000E+00
  0.00000000E+00  0.00000000E+00  0.00000000E+00
  0.00000000E+00  0.00000000E+00  0.00000000E+00
  0.00000000E+00  0.00000000E+00  0.00000000E+00
  0.00000000E+00  0.00000000E+00  0.00000000E+00
  0.00000000E+00  0.00000000E+00  0.00000000E+00
  0.00000000E+00  0.00000000E+00  0.00000000E+00
  0.00000000E+00  0.00000000E+00  0.00000000E+00
  0.00000000E+00  0.00000000E+00  0.00000000E+00
  0.00000000E+00  0.00000000E+00  0.00000000E+00
  0.00000000E+00  0.00000000E+00  0.00000000E+00
  0.00000000E+00  0.00000000E+00  0.00000000E+00
  0.00000000E+00  0.00000000E+00  0.00000000E+00
  0.00000000E+00  0.00000000E+00  0.00000000E+00
  0.00000000E+00  0.00000000E+00  0.00000000E+00
  0.00000000E+00  0.00000000E+00  0.00000000E+00
  0.00000000E+00  0.00000000E+00  0.00000000E+00
  0.00000000E+00  0.00000000E+00  0.00000000E+00
  0.00000000E+00  0.00000000E+00  0.00000000E+00
  0.00000000E+00  0.00000000E+00  0.00000000E+00
  0.00000000E+00  0.00000000E+00  0.00000000E+00
  0.00000000E+00  0.00000000E+00  0.00000000E+00
  0.00000000E+00  0.00000000E+00  0.00000000E+00
  0.00000000E+00  0.00000000E+00  0.00000000E+00
  0.00000000E+00  0.00000000E+00  0.00000000E+00
  0.00000000E+00  0.00000000E+00  0.00000000E+00
  0.00000000E+00  0.00000000E+00  0.00000000E+00
  0.00000000E+00  0.00000000E+00  0.00000000E+00
  0.00000000E+00  0.00000000E+00  0.00000000E+00
  0.00000000E+00  0.00000000E+00  0.00000000E+00
  0.00000000E+00  0.00000000E+00  0.00000000E+00
  0.00000000E+00  0.00000000E+00  0.00000000E+00
  0.00000000E+00  0.00000000E+00  0.00000000E+00
  0.00000000E+00  0.00000000E+00  0.00000000E+00
  0.00000000E+00  0.00000000E+00  0.00000000E+00
  0.00000000E+00  0.00000000E+00  0.00000000E+00
  0.00000000E+00  0.00000000E+00  0.00000000E+00
  0.00000000E+00  0.00000000E+00  0.00000000E+00
  0.00000000E+00  0.00000000E+00  0.00000000E+00
  0.00000000E+00  0.00000000E+00  0.00000000E+00
  0.00000000E+00  0.00000000E+00  0.00000000E+00
  0.00000000E+00  0.00000000E+00  0.00000000E+00
  0.00000000E+00  0.00000000E+00  0.00000000E+00
  0.00000000E+00  0.00000000E+00  0.00000000E+00
  0.00000000E+00  0.00000000E+00  0.00000000E+00
  0.00000000E+00  0.00000000E+00  0.00000000E+00
  0.00000000E+00  0.00000000E+00  0.00000000E+00
  0.00000000E+00  0.00000000E+00  0.00000000E+00
  0.00000000E+00  0.00000000E+00  0.00000000E+00
  0.00000000E+00  0.00000000E+00  0.00000000E+00
  0.00000000E+00  0.00000000E+00  0.00000000E+00
  0.00000000E+00  0.00000000E+00  0.00000000E+00
  0.00000000E+00  0.00000000E+00  0.00000000E+00
  0.00000000E+00  0.00000000E+00  0.00000000E+00
  0.00000000E+00  0.00000000E+00  0.00000000E+00
  0.00000000E+00  0.00000000E+00  0.00000000E+00
  0.00000000E+00  0.00000000E+00  0.00000000E+00
  0.00000000E+00  0.00000000E+00  0.00000000E+00
  0.00000000E+00  0.00000000E+00  0.00000000E+00
  0.00000000E+00  0.00000000E+00  0.00000000E+00
  0.00000000E+00  0.00000000E+00  0.00000000E+00
  0.00000000E+00  0.00000000E+00  0.00000000E+00
  0.00000000E+00  0.00000000E+00  0.00000000E+00
  0.00000000E+00  0.00000000E+00  0.00000000E+00
  0.00000000E+00  0.00000000E+00  0.00000000E+00
  0.00000000E+00  0.00000000E+00  0.00000000E+00
  0.00000000E+00  0.00000000E+00  0.00000000E+00
  0.00000000E+00  0.00000000E+00  0.00000000E+00
  0.00000000E+00  0.00000000E+00  0.00000000E+00
  0.00000000E+00  0.00000000E+00  0.00000000E+00
  0.00000000E+00  0.00000000E+00  0.00000000E+00
  0.00000000E+00  0.00000000E+00  0.00000000E+00
  0.00000000E+00  0.00000000E+00  0.00000000E+00
  0.00000000E+00  0.00000000E+00  0.00000000E+00
  0.00000000E+00  0.00000000E+00  0.00000000E+00
  0.00000000E+00  0.00000000E+00  0.00000000E+00
  0.00000000E+00  0.00000000E+00  0.00000000E+00
  0.00000000E+00  0.00000000E+00  0.00000000E+00
  0.00000000E+00  0.00000000E+00  0.00000000E+00
  0.00000000E+00  0.00000000E+00  0.00000000E+00
  0.00000000E+00  0.00000000E+00  0.00000000E+00
  0.00000000E+00  0.00000000E+00  0.00000000E+00
  0.00000000E+00  0.00000000E+00  0.00000000E+00
  0.00000000E+00  0.00000000E+00  0.00000000E+00
  0.00000000E+00  0.00000000E+00  0.00000000E+00
  0.00000000E+00  0.00000000E+00  0.00000000E+00
  0.00000000E+00  0.00000000E+00  0.00000000E+00
  0.00000000E+00  0.00000000E+00  0.00000000E+00
  0.00000000E+00  0.00000000E+00  0.00000000E+00
  0.00000000E+00  0.00000000E+00  0.00000000E+00
  0.00000000E+00  0.00000000E+00  0.00000000E+00
  0.00000000E+00  0.00000000E+00  0.00000000E+00
  0.00000000E+00  0.00000000E+00  0.00000000E+00
  0.00000000E+00  0.00000000E+00  0.00000000E+00
  0.00000000E+00  0.00000000E+00  0.00000000E+00
  0.00000000E+00  0.00000000E+00  0.00000000E+00
  0.00000000E+00  0.00000000E+00  0.00000000E+00
  0.00000000E+00  0.00000000E+00  0.00000000E+00
  0.00000000E+00  0.00000000E+00  0.00000000E+00
  0.00000000E+00  0.00000000E+00  0.00000000E+00
  0.00000000E+00  0.00000000E+00  0.00000000E+00
  0.00000000E+00  0.00000000E+00  0.00000000E+00
  0.00000000E+00  0.00000000E+00  0.00000000E+00
  0.00000000E+00  0.00000000E+00  0.00000000E+00
  0.00000000E+00  0.00000000E+00  0.00000000E+00
  0.00000000E+00  0.00000000E+00  0.00000000E+00
  0.00000000E+00  0.00000000E+00  0.00000000E+00
  0.00000000E+00  0.00000000E+00  0.00000000E+00
  0.00000000E+00  0.00000000E+00  0.00000000E+00
  0.00000000E+00  0.00000000E+00  0.00000000E+00
  0.00000000E+00  0.00000000E+00  0.00000000E+00
  0.00000000E+00  0.00000000E+00  0.00000000E+00
  0.00000000E+00  0.00000000E+00  0.00000000E+00
  0.00000000E+00  0.00000000E+00  0.00000000E+00
  0.00000000E+00  0.00000000E+00  0.00000000E+00
  0.00000000E+00  0.00000000E+00  0.00000000E+00
  0.00000000E+00  0.00000000E+00  0.00000000E+00
  0.00000000E+00  0.00000000E+00  0.00000000E+00
  0.00000000E+00  0.00000000E+00  0.00000000E+00
  0.00000000E+00  0.00000000E+00  0.00000000E+00
  0.00000000E+00  0.00000000E+00  0.00000000E+00
  0.00000000E+00  0.00000000E+00  0.00000000E+00
  0.00000000E+00  0.00000000E+00  0.00000000E+00
  0.00000000E+00  0.00000000E+00  0.00000000E+00
  0.00000000E+00  0.00000000E+00  0.00000000E+00
