Nb Ta                                   
    1.000000000000000     
    13.2533916143961346    0.0017937653107612   -0.0003039666163509
     0.0017934890405073   13.2519787658606027   -0.0000098398068844
    -0.0003037661055284   -0.0000100168112152   13.2546803632488750
   Nb   Ta
    76    52
Direct
  0.8753609032717761  0.1229893092749185  0.6246833424192508
  0.0005624323224473  0.2502298026230798  0.2470730068456924
  0.0010689066452856  0.5009685985260152  0.7496358861428888
  0.3738662786431886  0.3747667718803867  0.3724986586307115
  0.4991217194402556 -0.0005730783510893  0.7521342844698211
  0.3755529353866775  0.3742068203409836  0.6267201891627689
  0.2502625028531358  0.4995540678694995  0.2505080486747384
 -0.0000289475307465  0.7506204329693236  0.2515013623183290
  0.8747518681588017  0.8752258968579979  0.3755394831389305
 -0.0000637200186731  0.0008914898149228 -0.0000574873180349
  0.7521829553735635  0.2504752096109979  0.0000434129753289
  0.7491820842398550  0.7507275998966173  0.2490380093386415
  0.3752299536323267  0.8759623063562487  0.6249310972806040
  0.2492647554272862  0.2477243587613260  0.2508272362221208
  0.5010749717966161  0.7505034459176771  0.7495556800773361
  0.0018583467827440  0.4975332141258982  0.0007011395840038
 -0.0011748839495574  0.7500496760461776 -0.0028294020487878
 -0.0009040442647277  0.4991576466499563  0.2508688196243746
  0.1244234107125961  0.8733488629025706  0.6239255581263816
  0.6250614310607989  0.6236096108052884  0.1254040599499872
  0.2518947071584330  0.7506341738140130  0.5001115303505910
  0.8740153386334425  0.3755786148372693  0.1251033549848891
  0.4990490363335240  0.2475327864311790 -0.0002834419200279
  0.7498513040787264  0.5013317564718812  0.0018697580517664
  0.8746714060778629  0.8759304282576026  0.8749713396635139
  0.7507980201533284  0.2489829468603109  0.7488091482946521
  0.0017276022724380  0.0004040185390706  0.4997875468552146
  0.6256099896612380  0.8759356379892133  0.6242987533782217
  0.7496691888965255  0.5004244541723609  0.7498981825779768
  0.4989293315126502  0.5007201943280637  0.7483167460595427
  0.3771782189603176  0.1243795670107379  0.3761387442246887
  0.2520291615496487  0.0010632374622624  0.0000597262693977
  0.1240363064694714  0.3733831130708483  0.8732368184967381
  0.6244398348013566  0.6230202077305282  0.8735509990722855
  0.5001871494859464  0.5021341277393153  0.0010869718602021
  0.1247258648424036  0.6254174482795037  0.8751098771474516
  0.3733935433688852  0.6263566761080412  0.6268338370935268
  0.7505654780890854 -0.0006229265606313  0.4994709405067710
  0.1257903539307569  0.8770316058182737  0.8772316782080811
  0.6262310612892384  0.6233163727003364  0.6244770400028297
 -0.0001721581395313  0.2497729844467097  0.7507446075321950
  0.7507233257450900  0.7502699866875586  0.7507772619043979
  0.3750020012210395  0.1262192384221048  0.8740162435425866
  0.3767021135951458  0.8753891371599805  0.3742911550968988
  0.3743423931433418  0.8729992738360621  0.8755468344212090
  0.7502302065163893  0.5003244975256782  0.4992823642119738
  0.7485868956543265 -0.0021827150771621  0.0008034735317955
  0.4992389252653734 -0.0009949480918089  0.2479300873710586
  0.4994344919303431  0.2493469700102819  0.7489865066228251
  0.0011099895357913 -0.0016847403760481  0.7498119308158393
  0.2510825682567660  0.7510100652961508  0.2516993862717427
  0.1227378710710216  0.1258500332512287  0.3751128325683960
  0.2504272773258745  0.7490127697094872 -0.0013365438144546
  0.6233145133625165  0.1253282870435510  0.6248297833085578
  0.1242452557585865  0.6254812493311080  0.3748838699917413
  0.3746840727442683  0.6253489665041686  0.3737388249821101
  0.7502568168660980  0.2509237295276776  0.2498559875121764
  0.6267314975321627  0.3744580171076013  0.3755892709036171
  0.1250897790831755  0.1261862211846643  0.6259812153922308
  0.0007513467557263  0.0004822637178766  0.2505600021608004
  0.3756128433428292  0.1254532529930027  0.1252100264413796
  0.6246898761816333  0.8767105167412549  0.1269614645168138
  0.8747692672668829  0.3764650094303026  0.6250516392373171
  0.2479074081273924  0.2509387594045709 -0.0006824625855361
 -0.0010167624323668  0.7494823955699775  0.5004050313159647
  0.7485020857702943  0.2495412294445320  0.5011181127084341
  0.1249573580110249  0.8745383719285886  0.3744424792361910
  0.7501044022495322  0.0001794979471440  0.7498571109335920
  0.6251475034677779  0.8765959529014922  0.8729020254325793
  0.4991193661846350 -0.0005694902910666  0.5002697767427318
  0.1243301981644988  0.1229890257145563  0.1236678351082725
  0.1239124982316042  0.3744046771553138  0.3755236687371836
  0.1271368614456019  0.3763750217564045  0.1266662735507786
  0.0008071233168893  0.2506629831863100  0.5006169492841464
  0.2484541408081321  0.7511127676975637  0.7500539100394285
  0.4995356454567890  0.2512435304992070  0.2522307181032258
  0.2500967874127975  0.2499975956569566  0.7494788700817324
  0.8744963604214577  0.1255254396002323  0.8760063530953929
  0.1247039000883431  0.3757615930112680  0.6249793922663767
  0.6258431979085329  0.1233272413847845  0.3741262661624017
  0.6243215633842812  0.3731700239849003  0.8749269014727703
  0.6223431730961825  0.3723502620228435  0.1227201479625954
  0.1247006348102283  0.6247470912400270  0.6246349196089561
  0.8779634334421058  0.8744333453437408  0.1248666504380808
  0.3759619464819454  0.6248448798378826  0.8760089458369814
  0.6240222226455391  0.8756244338918457  0.3755005230251808
 -0.0003497723676330  0.2513237178443862  0.0013706813369244
  0.3760694369019733  0.1240536566780481  0.6248369679432941
  0.8741209062807337  0.1272799599824712  0.3742274625132785
  0.5016560833575939  0.5013303803759663  0.2513599072149942
  0.5009417096459419  0.7482888505738472  0.5002637944716105
  0.8780581029784332  0.6269933327063432  0.1251358677686277
  0.7476029884909505  0.7502093620750108 -0.0007871827307248
  0.1261016742548923  0.8733656322084821  0.1247642840145515
  0.6272764874153209  0.6261651702769854  0.3756237991759627
  0.1236360171531375  0.1244969268676049  0.8750055618596509
  0.2513119616209658  0.2498984245277113  0.5006046026666064
  0.0008309369334393  0.4999600005646368  0.4992033183133953
  0.8729598622916289  0.3757698469179714  0.8742209929035132
  0.2478408011469181  0.4994984348237345 -0.0018332557605903
  0.2509471644420822  0.4985534173109937  0.5005586826913119
  0.2494130960708469  0.0011939934008797  0.2518940795377688
  0.3720576571703339  0.8731996500623642  0.1251054089775293
  0.2495561291607684  0.0004968504322942  0.7484490706116680
  0.8746541036708275  0.6226418631098685  0.8751354333707746
  0.4976475275889563  0.4998803932579496  0.4981823257855353
  0.8752846791705250  0.8740399558209712  0.6251803716162113
  0.8748791132934600  0.3737023313927402  0.3753934072177793
  0.1250716868148525  0.6271770161728170  0.1260592745880892
  0.2500498557559208  0.4987007959359271  0.7509650481206536
  0.4996313923451435 -0.0015896584833900 -0.0003656475030463
  0.3779316506439609  0.3758642974317835  0.8768283298720114
  0.3759526162156994  0.3762632349178499  0.1234827945912554
  0.4991835605728637  0.2522959870403393  0.4991597524948957
  0.7509256853522555 -0.0007848996894377  0.2498408989816429
  0.2489314732773233  0.0014223894514531  0.4995112943459289
  0.8739423184958268  0.1231648295241490  0.1249548239893802
  0.3723110447388190  0.6250284476890910  0.1234529992050627
  0.7488721551796149  0.4990786395872289  0.2484799878081867
  0.6248944606047709  0.3754240918567450  0.6263000274728309
  0.8735136505018881  0.6241559820567151  0.3748665196677624
  0.0002224871219769  0.7506531415838174  0.7517225442722587
  0.7489312377792421  0.7505481625144359  0.5010357002750948
  0.6268172558695719  0.1267261324859477  0.8759487746626062
  0.5003133392046244  0.7479613451731644  0.2487701940034616
  0.6259210837085334  0.1271289558040345  0.1252603245219537
  0.8763262096701031  0.6264051476920548  0.6252578187245085
  0.5033711934179144  0.7516606308345307  0.0011423985317217
 
  0.00000000E+00  0.00000000E+00  0.00000000E+00
  0.00000000E+00  0.00000000E+00  0.00000000E+00
  0.00000000E+00  0.00000000E+00  0.00000000E+00
  0.00000000E+00  0.00000000E+00  0.00000000E+00
  0.00000000E+00  0.00000000E+00  0.00000000E+00
  0.00000000E+00  0.00000000E+00  0.00000000E+00
  0.00000000E+00  0.00000000E+00  0.00000000E+00
  0.00000000E+00  0.00000000E+00  0.00000000E+00
  0.00000000E+00  0.00000000E+00  0.00000000E+00
  0.00000000E+00  0.00000000E+00  0.00000000E+00
  0.00000000E+00  0.00000000E+00  0.00000000E+00
  0.00000000E+00  0.00000000E+00  0.00000000E+00
  0.00000000E+00  0.00000000E+00  0.00000000E+00
  0.00000000E+00  0.00000000E+00  0.00000000E+00
  0.00000000E+00  0.00000000E+00  0.00000000E+00
  0.00000000E+00  0.00000000E+00  0.00000000E+00
  0.00000000E+00  0.00000000E+00  0.00000000E+00
  0.00000000E+00  0.00000000E+00  0.00000000E+00
  0.00000000E+00  0.00000000E+00  0.00000000E+00
  0.00000000E+00  0.00000000E+00  0.00000000E+00
  0.00000000E+00  0.00000000E+00  0.00000000E+00
  0.00000000E+00  0.00000000E+00  0.00000000E+00
  0.00000000E+00  0.00000000E+00  0.00000000E+00
  0.00000000E+00  0.00000000E+00  0.00000000E+00
  0.00000000E+00  0.00000000E+00  0.00000000E+00
  0.00000000E+00  0.00000000E+00  0.00000000E+00
  0.00000000E+00  0.00000000E+00  0.00000000E+00
  0.00000000E+00  0.00000000E+00  0.00000000E+00
  0.00000000E+00  0.00000000E+00  0.00000000E+00
  0.00000000E+00  0.00000000E+00  0.00000000E+00
  0.00000000E+00  0.00000000E+00  0.00000000E+00
  0.00000000E+00  0.00000000E+00  0.00000000E+00
  0.00000000E+00  0.00000000E+00  0.00000000E+00
  0.00000000E+00  0.00000000E+00  0.00000000E+00
  0.00000000E+00  0.00000000E+00  0.00000000E+00
  0.00000000E+00  0.00000000E+00  0.00000000E+00
  0.00000000E+00  0.00000000E+00  0.00000000E+00
  0.00000000E+00  0.00000000E+00  0.00000000E+00
  0.00000000E+00  0.00000000E+00  0.00000000E+00
  0.00000000E+00  0.00000000E+00  0.00000000E+00
  0.00000000E+00  0.00000000E+00  0.00000000E+00
  0.00000000E+00  0.00000000E+00  0.00000000E+00
  0.00000000E+00  0.00000000E+00  0.00000000E+00
  0.00000000E+00  0.00000000E+00  0.00000000E+00
  0.00000000E+00  0.00000000E+00  0.00000000E+00
  0.00000000E+00  0.00000000E+00  0.00000000E+00
  0.00000000E+00  0.00000000E+00  0.00000000E+00
  0.00000000E+00  0.00000000E+00  0.00000000E+00
  0.00000000E+00  0.00000000E+00  0.00000000E+00
  0.00000000E+00  0.00000000E+00  0.00000000E+00
  0.00000000E+00  0.00000000E+00  0.00000000E+00
  0.00000000E+00  0.00000000E+00  0.00000000E+00
  0.00000000E+00  0.00000000E+00  0.00000000E+00
  0.00000000E+00  0.00000000E+00  0.00000000E+00
  0.00000000E+00  0.00000000E+00  0.00000000E+00
  0.00000000E+00  0.00000000E+00  0.00000000E+00
  0.00000000E+00  0.00000000E+00  0.00000000E+00
  0.00000000E+00  0.00000000E+00  0.00000000E+00
  0.00000000E+00  0.00000000E+00  0.00000000E+00
  0.00000000E+00  0.00000000E+00  0.00000000E+00
  0.00000000E+00  0.00000000E+00  0.00000000E+00
  0.00000000E+00  0.00000000E+00  0.00000000E+00
  0.00000000E+00  0.00000000E+00  0.00000000E+00
  0.00000000E+00  0.00000000E+00  0.00000000E+00
  0.00000000E+00  0.00000000E+00  0.00000000E+00
  0.00000000E+00  0.00000000E+00  0.00000000E+00
  0.00000000E+00  0.00000000E+00  0.00000000E+00
  0.00000000E+00  0.00000000E+00  0.00000000E+00
  0.00000000E+00  0.00000000E+00  0.00000000E+00
  0.00000000E+00  0.00000000E+00  0.00000000E+00
  0.00000000E+00  0.00000000E+00  0.00000000E+00
  0.00000000E+00  0.00000000E+00  0.00000000E+00
  0.00000000E+00  0.00000000E+00  0.00000000E+00
  0.00000000E+00  0.00000000E+00  0.00000000E+00
  0.00000000E+00  0.00000000E+00  0.00000000E+00
  0.00000000E+00  0.00000000E+00  0.00000000E+00
  0.00000000E+00  0.00000000E+00  0.00000000E+00
  0.00000000E+00  0.00000000E+00  0.00000000E+00
  0.00000000E+00  0.00000000E+00  0.00000000E+00
  0.00000000E+00  0.00000000E+00  0.00000000E+00
  0.00000000E+00  0.00000000E+00  0.00000000E+00
  0.00000000E+00  0.00000000E+00  0.00000000E+00
  0.00000000E+00  0.00000000E+00  0.00000000E+00
  0.00000000E+00  0.00000000E+00  0.00000000E+00
  0.00000000E+00  0.00000000E+00  0.00000000E+00
  0.00000000E+00  0.00000000E+00  0.00000000E+00
  0.00000000E+00  0.00000000E+00  0.00000000E+00
  0.00000000E+00  0.00000000E+00  0.00000000E+00
  0.00000000E+00  0.00000000E+00  0.00000000E+00
  0.00000000E+00  0.00000000E+00  0.00000000E+00
  0.00000000E+00  0.00000000E+00  0.00000000E+00
  0.00000000E+00  0.00000000E+00  0.00000000E+00
  0.00000000E+00  0.00000000E+00  0.00000000E+00
  0.00000000E+00  0.00000000E+00  0.00000000E+00
  0.00000000E+00  0.00000000E+00  0.00000000E+00
  0.00000000E+00  0.00000000E+00  0.00000000E+00
  0.00000000E+00  0.00000000E+00  0.00000000E+00
  0.00000000E+00  0.00000000E+00  0.00000000E+00
  0.00000000E+00  0.00000000E+00  0.00000000E+00
  0.00000000E+00  0.00000000E+00  0.00000000E+00
  0.00000000E+00  0.00000000E+00  0.00000000E+00
  0.00000000E+00  0.00000000E+00  0.00000000E+00
  0.00000000E+00  0.00000000E+00  0.00000000E+00
  0.00000000E+00  0.00000000E+00  0.00000000E+00
  0.00000000E+00  0.00000000E+00  0.00000000E+00
  0.00000000E+00  0.00000000E+00  0.00000000E+00
  0.00000000E+00  0.00000000E+00  0.00000000E+00
  0.00000000E+00  0.00000000E+00  0.00000000E+00
  0.00000000E+00  0.00000000E+00  0.00000000E+00
  0.00000000E+00  0.00000000E+00  0.00000000E+00
  0.00000000E+00  0.00000000E+00  0.00000000E+00
  0.00000000E+00  0.00000000E+00  0.00000000E+00
  0.00000000E+00  0.00000000E+00  0.00000000E+00
  0.00000000E+00  0.00000000E+00  0.00000000E+00
  0.00000000E+00  0.00000000E+00  0.00000000E+00
  0.00000000E+00  0.00000000E+00  0.00000000E+00
  0.00000000E+00  0.00000000E+00  0.00000000E+00
  0.00000000E+00  0.00000000E+00  0.00000000E+00
  0.00000000E+00  0.00000000E+00  0.00000000E+00
  0.00000000E+00  0.00000000E+00  0.00000000E+00
  0.00000000E+00  0.00000000E+00  0.00000000E+00
  0.00000000E+00  0.00000000E+00  0.00000000E+00
  0.00000000E+00  0.00000000E+00  0.00000000E+00
  0.00000000E+00  0.00000000E+00  0.00000000E+00
  0.00000000E+00  0.00000000E+00  0.00000000E+00
  0.00000000E+00  0.00000000E+00  0.00000000E+00
  0.00000000E+00  0.00000000E+00  0.00000000E+00
  0.00000000E+00  0.00000000E+00  0.00000000E+00
