Hf Ta                                   
    1.000000000000000     
    13.8499732758647180   -0.0302818079605962    0.0039256759040344
    -6.9871161422198718    9.7185370194809053   -0.0277645122567431
     0.0153058368063403   -0.0548754969570874   19.5440966631388982
  Hf             Ta           
              72              56
Direct
  0.1922937360880382  0.1319942060279654  0.4362820730849346
  0.1997422831680607  0.6220316360478613  0.4426814114830827
  0.5678356827788377  0.8772503019344391  0.0604335169305020
  0.0719309106162865  0.1315474651622351  0.3012460293631573
  0.5610701075111607  0.3693827588047086  0.0687077854774553
  0.6942513720597545  0.6221661560139933  0.4357469388016401
  0.5605497721679897  0.3751476309249122  0.5664554910719596
  0.0794446807536744  0.6238923747750994  0.0594720840652390
  0.5545994461354292  0.3758208752934570  0.8152793598733231
  0.1902087112446252  0.1190484282569419  0.6854414229101863
  0.4152547412685062  0.3646827822843995  0.2006812817732166
  0.0636471063406917  0.3863690221937582  0.8092862708022666
  0.9374170962351352  0.1191543355560132  0.4274134762408288
  0.3052534898698708  0.1158296206215738  0.0577034492077576
  0.9423674159071735  0.3877532499587406  0.4449279564517664
  0.6803708207821542  0.8716236766537104  0.6847856790635013
  0.8046609428262547  0.3758631700821300  0.0736883644756578
  0.8339133919292568  0.6181247629997504  0.5563002984788152
  0.0698993601205287  0.1247352258006937  0.8147919968752976
  0.3109857750910255  0.8747393365791376  0.8194375281617584
  0.5427811534455312  0.1112637233801019  0.3166944381940453
  0.4395778045632249  0.6262022169298296  0.1696464566830132
  0.1936458630975265  0.3790826804384861  0.9322580692450900
  0.9535922263316021  0.3744959551121123  0.1897007542333568
  0.4356258594646952  0.8897038923527925  0.6861648914697588
  0.9239578060051664  0.6224772176851737  0.4187373106725942
  0.6837329326458096  0.8857163061876662  0.2015313865591082
  0.0735635990477156  0.6147276404290369  0.3088600039072056
  0.9606203124605323  0.6386722989746831  0.9349334832844575
  0.8204006859262936  0.8926743655091516  0.0655288137250976
  0.8198137601947650  0.8529192332182950  0.5672812087484390
  0.0645287012448197  0.6318653251698942  0.5632161386768914
  0.6891525260943846  0.1434653417635232  0.1853774894506401
  0.5666092163705384  0.6381618480579677  0.8099560525644005
  0.3139575453505326  0.3845482371585491  0.0629309236490652
  0.5730671529002485  0.1374570910575879  0.8073102854569172
  0.5511939197577093  0.6297784896492982  0.3083236649397940
  0.6841616483057623  0.6337558841204085  0.1797121233042929
  0.8003404300296522  0.6219700055826914  0.0448932793546118
  0.4230659382390614  0.6225806377894672  0.4363419663405356
  0.6830736349843959  0.8699843320813740  0.4482803043137736
  0.4145819366329836  0.6058210409740891  0.6921217601365903
  0.6832360619414068  0.1204775451036464  0.4376664500264087
  0.3105406192883811  0.6261421989421919  0.3064149384415750
  0.8094237656356081  0.3649396158563372  0.3154803421091415
  0.1864224498699276  0.8756074755406866  0.4430706478932230
  0.4456974910046430  0.1357397394764076  0.1846083797910711
  0.5475372118656435  0.8727463014178262  0.8206131509536023
  0.1907735199843345  0.8706196056083136  0.6857501000516404
  0.8079813293314543  0.1277223345533945  0.8162408019088215
  0.1823701874124596  0.3705017156291893  0.1916824794630889
  0.4359400837009887  0.8771439271965651  0.1940477071762059
  0.5742553355177132  0.6250398533832712  0.0412778139709564
  0.9279645557160882  0.8667117193014624  0.9291349014969943
  0.9459465209779674  0.6358195479175357  0.1823405617165985
  0.1871203119318630  0.6121704745179785  0.6902459233767827
  0.5563686020820792  0.3746293145747498  0.3224263389717182
  0.9341119428006952  0.1191762270301681  0.9467524602327495
  0.0780856598726142  0.3907373285240356  0.5707689568951855
  0.6974562619264891  0.3692212829946666  0.9371787568928903
  0.0652909040506352  0.8712285556225370  0.3093836435304221
  0.5522786006961831  0.6330056729684200  0.5619594960311863
  0.6942248633470599  0.6218837564962193  0.6803725652873643
  0.8003811959234758  0.3528134928788315  0.5707380644415441
  0.6911466091960821  0.1357861244208995  0.6796136979247229
  0.0602070445939647  0.1304228230142208  0.5632461923896759
  0.4344946740060793  0.1259738773439215  0.9328038768922476
  0.8217125106379353  0.6317729461465206  0.8095047432065123
  0.9313548695046605  0.3667251628876381  0.9400480146910297
  0.8199197016056774  0.8684771969401706  0.3187914338177534
  0.0552951510417413  0.8693926465583022  0.0641808790647730
  0.8151151866623574  0.1063696932247151  0.5637510691351818
  0.3136839838846297  0.1228268326775987  0.5626079633101498
  0.4325903973990313  0.8714508917083901  0.9447105569557120
  0.0703044389793574  0.3658128745605166  0.0618292068585507
  0.1823052080119149  0.1073945672873789  0.1819808015251762
  0.3038500094647520  0.1239321231518385  0.8123286968115175
  0.9359139977803651  0.6166310039795427  0.6896134728343962
  0.1803618541987146  0.3654813227247179  0.4401370002017507
  0.6805887166158309  0.1024658501396231  0.9430340947141872
  0.1961766038191832  0.6329456156245611  0.1807969567194065
  0.5628746577467165  0.8832706726616857  0.3277866417451395
  0.6853350957135604  0.8655725953689786  0.9319124141894339
  0.6708714156876872  0.5965594552598465  0.9217207938388847
  0.0653027612825388  0.8877317987949428  0.5696084127894414
  0.9359658808704409  0.3699990745789152  0.6909742123168809
  0.5458056920512941  0.1214880462647527  0.5607168011438302
  0.4332001277473351  0.3744280735094137  0.6870948891233966
  0.3137372919828421  0.3731162674190129  0.3315644134382091
  0.0727832705612250  0.1305549310298912  0.0648819386420264
  0.3197522273435032  0.8799110228885931  0.0606935076342967
  0.3109543570954050  0.6134800101155080  0.8239203956540305
  0.0720354960513575  0.8763155127157064  0.8122701867034452
  0.6902624845842379  0.3762032723366414  0.6957994007887575
  0.0600364236665707  0.6299897711875294  0.8074955918289569
  0.3116461024355033  0.3738075953193061  0.5662420655249248
  0.8291348437436117  0.3867581920083116  0.8056741159703323
  0.3222320673138779  0.8798419233470088  0.5585475546722076
  0.8223629965077769  0.8895425392408275  0.8004827332335099
  0.5592556670953094  0.1177027699577239  0.0547362419230137
  0.5520626499203686  0.8918458295000788  0.5601792872277322
  0.1957040582920424  0.8886016400669362  0.9415649183222768
  0.9422403331760012  0.8651472408001203  0.6925034181232810
  0.9523670023495099  0.8753033630940648  0.4473623685966991
  0.9313461323990571  0.1111093653024240  0.6954839184528371
  0.4400068118689185  0.1436831937842388  0.6856542435154979
  0.2978382373918588  0.8791535225468314  0.3097694379462286
  0.7993469306502401  0.6080690682916050  0.2968850459695183
  0.4376354067873360  0.6339793944421273  0.9358217945841443
  0.3275646810527473  0.6380278964052776  0.5663039420737251
  0.8061826824234346  0.1112636340333772  0.3054314863779026
  0.4362634746648384  0.1356429870018789  0.4415687103658092
  0.4317233133604952  0.8866910847942469  0.4356535699115456
  0.9325696282293073  0.1179490021814357  0.1800535453629642
  0.4283356547288806  0.3792274279266848  0.9367083655314195
  0.9455146163901030  0.8939672166965186  0.1906727405335330
  0.1979835657460970  0.8747692206287705  0.1820713842306770
  0.3172202121643127  0.3740317384801579  0.8068390812255997
  0.3136565617290022  0.1290824091696175  0.3104805921000446
  0.1758764424506679  0.3476911252560000  0.6900098207160565
  0.6956461302423923  0.4001925853586026  0.1992088101467149
  0.1939769471904636  0.1263451627014949  0.9361975264007371
  0.4367083301707538  0.3802787404182181  0.4465067965013576
  0.0488080338557953  0.3567150935871060  0.3236758453849163
  0.1892925652338436  0.6336693832478241  0.9303409108516757
  0.8220340710236506  0.1452156163349173  0.0622318373536196
  0.2995707822043741  0.6275485054224388  0.0562952852514233
  0.6838068045554606  0.3661058590038625  0.4447066485673917
 
  0.00000000E+00  0.00000000E+00  0.00000000E+00
  0.00000000E+00  0.00000000E+00  0.00000000E+00
  0.00000000E+00  0.00000000E+00  0.00000000E+00
  0.00000000E+00  0.00000000E+00  0.00000000E+00
  0.00000000E+00  0.00000000E+00  0.00000000E+00
  0.00000000E+00  0.00000000E+00  0.00000000E+00
  0.00000000E+00  0.00000000E+00  0.00000000E+00
  0.00000000E+00  0.00000000E+00  0.00000000E+00
  0.00000000E+00  0.00000000E+00  0.00000000E+00
  0.00000000E+00  0.00000000E+00  0.00000000E+00
  0.00000000E+00  0.00000000E+00  0.00000000E+00
  0.00000000E+00  0.00000000E+00  0.00000000E+00
  0.00000000E+00  0.00000000E+00  0.00000000E+00
  0.00000000E+00  0.00000000E+00  0.00000000E+00
  0.00000000E+00  0.00000000E+00  0.00000000E+00
  0.00000000E+00  0.00000000E+00  0.00000000E+00
  0.00000000E+00  0.00000000E+00  0.00000000E+00
  0.00000000E+00  0.00000000E+00  0.00000000E+00
  0.00000000E+00  0.00000000E+00  0.00000000E+00
  0.00000000E+00  0.00000000E+00  0.00000000E+00
  0.00000000E+00  0.00000000E+00  0.00000000E+00
  0.00000000E+00  0.00000000E+00  0.00000000E+00
  0.00000000E+00  0.00000000E+00  0.00000000E+00
  0.00000000E+00  0.00000000E+00  0.00000000E+00
  0.00000000E+00  0.00000000E+00  0.00000000E+00
  0.00000000E+00  0.00000000E+00  0.00000000E+00
  0.00000000E+00  0.00000000E+00  0.00000000E+00
  0.00000000E+00  0.00000000E+00  0.00000000E+00
  0.00000000E+00  0.00000000E+00  0.00000000E+00
  0.00000000E+00  0.00000000E+00  0.00000000E+00
  0.00000000E+00  0.00000000E+00  0.00000000E+00
  0.00000000E+00  0.00000000E+00  0.00000000E+00
  0.00000000E+00  0.00000000E+00  0.00000000E+00
  0.00000000E+00  0.00000000E+00  0.00000000E+00
  0.00000000E+00  0.00000000E+00  0.00000000E+00
  0.00000000E+00  0.00000000E+00  0.00000000E+00
  0.00000000E+00  0.00000000E+00  0.00000000E+00
  0.00000000E+00  0.00000000E+00  0.00000000E+00
  0.00000000E+00  0.00000000E+00  0.00000000E+00
  0.00000000E+00  0.00000000E+00  0.00000000E+00
  0.00000000E+00  0.00000000E+00  0.00000000E+00
  0.00000000E+00  0.00000000E+00  0.00000000E+00
  0.00000000E+00  0.00000000E+00  0.00000000E+00
  0.00000000E+00  0.00000000E+00  0.00000000E+00
  0.00000000E+00  0.00000000E+00  0.00000000E+00
  0.00000000E+00  0.00000000E+00  0.00000000E+00
  0.00000000E+00  0.00000000E+00  0.00000000E+00
  0.00000000E+00  0.00000000E+00  0.00000000E+00
  0.00000000E+00  0.00000000E+00  0.00000000E+00
  0.00000000E+00  0.00000000E+00  0.00000000E+00
  0.00000000E+00  0.00000000E+00  0.00000000E+00
  0.00000000E+00  0.00000000E+00  0.00000000E+00
  0.00000000E+00  0.00000000E+00  0.00000000E+00
  0.00000000E+00  0.00000000E+00  0.00000000E+00
  0.00000000E+00  0.00000000E+00  0.00000000E+00
  0.00000000E+00  0.00000000E+00  0.00000000E+00
  0.00000000E+00  0.00000000E+00  0.00000000E+00
  0.00000000E+00  0.00000000E+00  0.00000000E+00
  0.00000000E+00  0.00000000E+00  0.00000000E+00
  0.00000000E+00  0.00000000E+00  0.00000000E+00
  0.00000000E+00  0.00000000E+00  0.00000000E+00
  0.00000000E+00  0.00000000E+00  0.00000000E+00
  0.00000000E+00  0.00000000E+00  0.00000000E+00
  0.00000000E+00  0.00000000E+00  0.00000000E+00
  0.00000000E+00  0.00000000E+00  0.00000000E+00
  0.00000000E+00  0.00000000E+00  0.00000000E+00
  0.00000000E+00  0.00000000E+00  0.00000000E+00
  0.00000000E+00  0.00000000E+00  0.00000000E+00
  0.00000000E+00  0.00000000E+00  0.00000000E+00
  0.00000000E+00  0.00000000E+00  0.00000000E+00
  0.00000000E+00  0.00000000E+00  0.00000000E+00
  0.00000000E+00  0.00000000E+00  0.00000000E+00
  0.00000000E+00  0.00000000E+00  0.00000000E+00
  0.00000000E+00  0.00000000E+00  0.00000000E+00
  0.00000000E+00  0.00000000E+00  0.00000000E+00
  0.00000000E+00  0.00000000E+00  0.00000000E+00
  0.00000000E+00  0.00000000E+00  0.00000000E+00
  0.00000000E+00  0.00000000E+00  0.00000000E+00
  0.00000000E+00  0.00000000E+00  0.00000000E+00
  0.00000000E+00  0.00000000E+00  0.00000000E+00
  0.00000000E+00  0.00000000E+00  0.00000000E+00
  0.00000000E+00  0.00000000E+00  0.00000000E+00
  0.00000000E+00  0.00000000E+00  0.00000000E+00
  0.00000000E+00  0.00000000E+00  0.00000000E+00
  0.00000000E+00  0.00000000E+00  0.00000000E+00
  0.00000000E+00  0.00000000E+00  0.00000000E+00
  0.00000000E+00  0.00000000E+00  0.00000000E+00
  0.00000000E+00  0.00000000E+00  0.00000000E+00
  0.00000000E+00  0.00000000E+00  0.00000000E+00
  0.00000000E+00  0.00000000E+00  0.00000000E+00
  0.00000000E+00  0.00000000E+00  0.00000000E+00
  0.00000000E+00  0.00000000E+00  0.00000000E+00
  0.00000000E+00  0.00000000E+00  0.00000000E+00
  0.00000000E+00  0.00000000E+00  0.00000000E+00
  0.00000000E+00  0.00000000E+00  0.00000000E+00
  0.00000000E+00  0.00000000E+00  0.00000000E+00
  0.00000000E+00  0.00000000E+00  0.00000000E+00
  0.00000000E+00  0.00000000E+00  0.00000000E+00
  0.00000000E+00  0.00000000E+00  0.00000000E+00
  0.00000000E+00  0.00000000E+00  0.00000000E+00
  0.00000000E+00  0.00000000E+00  0.00000000E+00
  0.00000000E+00  0.00000000E+00  0.00000000E+00
  0.00000000E+00  0.00000000E+00  0.00000000E+00
  0.00000000E+00  0.00000000E+00  0.00000000E+00
  0.00000000E+00  0.00000000E+00  0.00000000E+00
  0.00000000E+00  0.00000000E+00  0.00000000E+00
  0.00000000E+00  0.00000000E+00  0.00000000E+00
  0.00000000E+00  0.00000000E+00  0.00000000E+00
  0.00000000E+00  0.00000000E+00  0.00000000E+00
  0.00000000E+00  0.00000000E+00  0.00000000E+00
  0.00000000E+00  0.00000000E+00  0.00000000E+00
  0.00000000E+00  0.00000000E+00  0.00000000E+00
  0.00000000E+00  0.00000000E+00  0.00000000E+00
  0.00000000E+00  0.00000000E+00  0.00000000E+00
  0.00000000E+00  0.00000000E+00  0.00000000E+00
  0.00000000E+00  0.00000000E+00  0.00000000E+00
  0.00000000E+00  0.00000000E+00  0.00000000E+00
  0.00000000E+00  0.00000000E+00  0.00000000E+00
  0.00000000E+00  0.00000000E+00  0.00000000E+00
  0.00000000E+00  0.00000000E+00  0.00000000E+00
  0.00000000E+00  0.00000000E+00  0.00000000E+00
  0.00000000E+00  0.00000000E+00  0.00000000E+00
  0.00000000E+00  0.00000000E+00  0.00000000E+00
  0.00000000E+00  0.00000000E+00  0.00000000E+00
  0.00000000E+00  0.00000000E+00  0.00000000E+00
  0.00000000E+00  0.00000000E+00  0.00000000E+00
  0.00000000E+00  0.00000000E+00  0.00000000E+00
  0.00000000E+00  0.00000000E+00  0.00000000E+00
