Hf Ti                                   
    1.000000000000000     
    12.6947447226807739   -0.0086673912503299   -0.0021967390782640
    -6.3548812051803401   10.9951631861334302    0.0028533954926030
    -0.0035087360042977    0.0032183335789676   20.0453712828544255
  Hf              Ti            
   112    16
Direct
     0.3324733953296428    0.1678658097378949    0.5615484440533666
     0.8348272530578580    0.4177844603615186    0.5593748652141934
     0.8323578799837102    0.1664637366969848    0.5618999876125802
     0.4173048723642656    0.0831905218203314    0.6875701490613891
     0.8321519313818627    0.1647143618828409    0.8126555878849573
     0.0836091424184357    0.9207546737448897    0.5613617826170938
     0.6673899589181352    0.8367969502925934    0.6855668254543563
     0.6701209607354194    0.8361719237845280    0.9380776759313560
     0.0802461563537469    0.4123443186324630    0.5606113922378391
     0.8337610553014789    0.9179423206977884    0.5621561212712034
     0.0851307964292550    0.9177716987551253    0.3127274335889744
     0.3327835295039513    0.4152006852166353    0.0626026133532801
     0.5868127387848350    0.6687439731080608    0.0619641056450565
     0.3335584931158631    0.6680986550485850    0.8122996344904827
     0.4141245824366223    0.0820658194271498    0.4371439483461281
     0.1648667310542172    0.8336640452395340    0.9384435736344922
     0.4175346943907919    0.5839984629321715    0.9373235887535297
     0.5846401806290636    0.4189205037709051    0.8100091623795133
     0.3299430139271938    0.9119578813635426    0.3114134825431653
     0.6671302567574722    0.0839194609266658    0.4389294469100755
     0.9216047457777637    0.0851738211593817    0.4390395897750651
     0.3339566580271699    0.9184602123431128    0.8138004908773916
     0.1655013968754969    0.0851224864874645    0.6860569644239835
     0.1650141069828863    0.3304842129504934    0.6856742697501752
     0.6673428185223000    0.3343283229877533    0.4386342841104628
     0.8379158620550579    0.1707583877258309    0.3141648941710232
     0.9177329584859164    0.8332033642120695    0.4378468344139236
     0.4156952247496368    0.3328562550756634    0.1888201190620150
     0.4209544671050412    0.8373364850867184    0.6858753546695215
     0.1663289529836994    0.0813460611716138    0.9373891393375943
     0.0808948662361138    0.1658672826375685    0.8134952999985150
     0.8329948674379756    0.6655955350531110    0.8129049205030671
     0.0815805226202641    0.6659804436144304    0.8132939728680828
     0.0832899028093274    0.1659237954019490    0.3131997444653553
     0.4211700184027705    0.3368389157064025    0.6855758530547884
     0.3351971328943755    0.1663328690518788    0.8127299477992938
     0.6687070765009585    0.0850573918586913    0.1874530899081186
     0.9122335982565984    0.8301778999140268    0.6867794296083974
     0.4180826363519344    0.8363076456509871    0.9381375004716983
     0.1649747994471608    0.3322323169324022    0.9378993013312206
     0.4165097659226573    0.5852655338386155    0.1882120017221717
     0.5875210202807246    0.9187450967772764    0.0631081964212163
     0.4136233534036288    0.8306047388041933    0.1885309982964675
     0.6666944129949509    0.5803920027634837    0.4392605379775038
     0.0811329396026399    0.6659375511234813    0.5605712072166749
     0.0831589316357350    0.9165115237383700    0.0641154604988472
     0.8332301876420500    0.6666538604608290    0.0613490021153371
     0.5834365042360496    0.4167396380070121    0.0628632806788395
     0.5829342651305452    0.6638752815231872    0.5635956095510830
     0.4151732174586965    0.0821139342585981    0.1876440791225299
     0.5859684813596958    0.6671242281032005    0.8106535812864335
     0.5825940148625145    0.1651446300438424    0.5635802133328055
     0.8347397748994402    0.6655255376064512    0.3142787737294655
     0.0772859685266481    0.1631670852915491    0.0611551034543363
     0.1628768246831708    0.3289911118770558    0.4376363341391177
     0.8327522412931995    0.9166871865067140    0.3125646016660254
     0.8344641899122902    0.4180631153613917    0.8145214334275046
     0.1665155500395616    0.8330577576749864    0.6866262627129069
     0.1654036434484704    0.8340901279119475    0.4372842704470791
     0.9181427415364632    0.5853004781691334    0.1874942232863562
     0.8332638404587670    0.4158457826397027    0.0614708255549152
     0.5831441301749967    0.4167201435479634    0.3139638244982783
     0.9178173906176830    0.8368436462180510    0.9390962368664276
     0.5838421523897320    0.1656132076230256    0.8119208183188387
     0.8397346230846187    0.4189744984665278    0.3152828336659362
     0.1634109872144491    0.5822818319407909    0.9380300849357402
     0.6669032152715281    0.5836731498871055    0.1884661592407118
     0.1628769370911556    0.5791999833890918    0.4352169738879325
     0.8349240971112752    0.9190971701797296    0.8137405731908182
     0.5843205915036609    0.9183097483571894    0.8108802767496700
     0.6663472749714178    0.8349353970417301    0.4396433735079270
     0.0828644333699852    0.6673212606848906    0.0633857306403957
     0.9119783147631727    0.3314469203860505    0.6865722420013367
     0.1663091408555339    0.5835100381265811    0.6859516314310087
     0.9166996157555621    0.3295545997455201    0.9390117827919144
     0.6683162323667239    0.5826263185890990    0.9365384373914594
     0.6678358540571881    0.3338954968400696    0.1885389229534797
     0.6687023788505797    0.0836876626048421    0.9378572520619045
     0.5842374314088611    0.1665001518047974    0.0612852781777752
     0.6654000728870966    0.3335782519542118    0.9369310316521158
     0.0833724823786417    0.4165119814409472    0.8115613229931972
     0.5828023315633188    0.9152064671956268    0.3131862986895730
     0.9141789888310365    0.0817567129573386    0.1852663268627350
     0.9144515732483866    0.5819232900973685    0.6873151463788868
     0.5822656642653377    0.6679143672878042    0.3137323474137921
     0.0827310264196075    0.9161338108666203    0.8114884019059478
     0.0836976378683787    0.6677337587348062    0.3128080714463864
     0.1675425499378982    0.0826191706322496    0.1877119021012741
     0.6688555887416218    0.8338575788186852    0.1866787927149796
     0.3302711941776158    0.1660184944873321    0.3141641787440966
     0.1680870009177685    0.5837089247892844    0.1908391753984235
     0.4167226821780756    0.3338911664680888    0.4381956470578510
     0.3345696021299059    0.1663524032543773    0.0613749491957472
     0.4160654931692280    0.8319954960192432    0.4370581170266660
     0.3353528344481822    0.6676758374891004    0.5617360951801892
     0.3300551782579085    0.4199771816238363    0.3129938748427247
     0.0823214616834658    0.4148829140067809    0.0637968616924369
     0.9178174228399977    0.3330415247883297    0.1882460387220557
     0.3333292758340722    0.6667725739239734    0.0627819813453493
     0.1649009346439433    0.3334578036351548    0.1888255664909787
     0.9172323866320754    0.0841455448549978    0.6864722699655316
     0.4170795075667953    0.5827304112930057    0.6874698357222376
     0.3334761505585539    0.4159783937281361    0.5620215496490238
     0.9165846787694260    0.8335408137022637    0.1867336958415448
     0.4174422067783896    0.3318912090392140    0.9369953546989201
     0.6681808485633822    0.3361200946346897    0.6854651459195669
     0.8307488706392334    0.6620813069024796    0.5620454957604749
     0.4141961016855932    0.5834753874315998    0.4369468982110185
     0.5838816133138724    0.1664310531445863    0.3132500833524345
     0.3349052639037901    0.9172443842011155    0.5620915928869276
     0.3323849714150162    0.4153639687431381    0.8122470913942003
     0.3330063277700326    0.9180265673985525    0.0627202269171781
     0.8334634601149209    0.1628451867362987    0.0614422227733861
     0.9198672808413019    0.3359564891654244    0.4366587654294828
     0.0821570985893506    0.4149558476341235    0.3141808278589473
     0.9132506393969932    0.0818954996096647    0.9398612465723875
     0.4171005566891504    0.0831922749619582    0.9375743949846183
     0.1663106964888226    0.8330217404317979    0.1877114194725668
     0.3325251534482010    0.6646723697490315    0.3131882670147904
     0.9178369983968138    0.5843028879596120    0.9383975629543260
     0.5835153520681140    0.4176760049506286    0.5629685278363520
     0.9185453288738412    0.5833825531244780    0.4371298366589835
     0.0853699596851196    0.1657535995645505    0.5614095946800364
     0.5845609044753566    0.9194247589699801    0.5629308940589659
     0.6663228091040725    0.0811674002190003    0.6853613152335727
     0.1650724426692838    0.0850328160288738    0.4388641402302265
     0.6666315446631523    0.5817521327144506    0.6855727569117498
     0.8339337928956908    0.9211490442594374    0.0612476086232381
 
  0.00000000E+00  0.00000000E+00  0.00000000E+00
  0.00000000E+00  0.00000000E+00  0.00000000E+00
  0.00000000E+00  0.00000000E+00  0.00000000E+00
  0.00000000E+00  0.00000000E+00  0.00000000E+00
  0.00000000E+00  0.00000000E+00  0.00000000E+00
  0.00000000E+00  0.00000000E+00  0.00000000E+00
  0.00000000E+00  0.00000000E+00  0.00000000E+00
  0.00000000E+00  0.00000000E+00  0.00000000E+00
  0.00000000E+00  0.00000000E+00  0.00000000E+00
  0.00000000E+00  0.00000000E+00  0.00000000E+00
  0.00000000E+00  0.00000000E+00  0.00000000E+00
  0.00000000E+00  0.00000000E+00  0.00000000E+00
  0.00000000E+00  0.00000000E+00  0.00000000E+00
  0.00000000E+00  0.00000000E+00  0.00000000E+00
  0.00000000E+00  0.00000000E+00  0.00000000E+00
  0.00000000E+00  0.00000000E+00  0.00000000E+00
  0.00000000E+00  0.00000000E+00  0.00000000E+00
  0.00000000E+00  0.00000000E+00  0.00000000E+00
  0.00000000E+00  0.00000000E+00  0.00000000E+00
  0.00000000E+00  0.00000000E+00  0.00000000E+00
  0.00000000E+00  0.00000000E+00  0.00000000E+00
  0.00000000E+00  0.00000000E+00  0.00000000E+00
  0.00000000E+00  0.00000000E+00  0.00000000E+00
  0.00000000E+00  0.00000000E+00  0.00000000E+00
  0.00000000E+00  0.00000000E+00  0.00000000E+00
  0.00000000E+00  0.00000000E+00  0.00000000E+00
  0.00000000E+00  0.00000000E+00  0.00000000E+00
  0.00000000E+00  0.00000000E+00  0.00000000E+00
  0.00000000E+00  0.00000000E+00  0.00000000E+00
  0.00000000E+00  0.00000000E+00  0.00000000E+00
  0.00000000E+00  0.00000000E+00  0.00000000E+00
  0.00000000E+00  0.00000000E+00  0.00000000E+00
  0.00000000E+00  0.00000000E+00  0.00000000E+00
  0.00000000E+00  0.00000000E+00  0.00000000E+00
  0.00000000E+00  0.00000000E+00  0.00000000E+00
  0.00000000E+00  0.00000000E+00  0.00000000E+00
  0.00000000E+00  0.00000000E+00  0.00000000E+00
  0.00000000E+00  0.00000000E+00  0.00000000E+00
  0.00000000E+00  0.00000000E+00  0.00000000E+00
  0.00000000E+00  0.00000000E+00  0.00000000E+00
  0.00000000E+00  0.00000000E+00  0.00000000E+00
  0.00000000E+00  0.00000000E+00  0.00000000E+00
  0.00000000E+00  0.00000000E+00  0.00000000E+00
  0.00000000E+00  0.00000000E+00  0.00000000E+00
  0.00000000E+00  0.00000000E+00  0.00000000E+00
  0.00000000E+00  0.00000000E+00  0.00000000E+00
  0.00000000E+00  0.00000000E+00  0.00000000E+00
  0.00000000E+00  0.00000000E+00  0.00000000E+00
  0.00000000E+00  0.00000000E+00  0.00000000E+00
  0.00000000E+00  0.00000000E+00  0.00000000E+00
  0.00000000E+00  0.00000000E+00  0.00000000E+00
  0.00000000E+00  0.00000000E+00  0.00000000E+00
  0.00000000E+00  0.00000000E+00  0.00000000E+00
  0.00000000E+00  0.00000000E+00  0.00000000E+00
  0.00000000E+00  0.00000000E+00  0.00000000E+00
  0.00000000E+00  0.00000000E+00  0.00000000E+00
  0.00000000E+00  0.00000000E+00  0.00000000E+00
  0.00000000E+00  0.00000000E+00  0.00000000E+00
  0.00000000E+00  0.00000000E+00  0.00000000E+00
  0.00000000E+00  0.00000000E+00  0.00000000E+00
  0.00000000E+00  0.00000000E+00  0.00000000E+00
  0.00000000E+00  0.00000000E+00  0.00000000E+00
  0.00000000E+00  0.00000000E+00  0.00000000E+00
  0.00000000E+00  0.00000000E+00  0.00000000E+00
  0.00000000E+00  0.00000000E+00  0.00000000E+00
  0.00000000E+00  0.00000000E+00  0.00000000E+00
  0.00000000E+00  0.00000000E+00  0.00000000E+00
  0.00000000E+00  0.00000000E+00  0.00000000E+00
  0.00000000E+00  0.00000000E+00  0.00000000E+00
  0.00000000E+00  0.00000000E+00  0.00000000E+00
  0.00000000E+00  0.00000000E+00  0.00000000E+00
  0.00000000E+00  0.00000000E+00  0.00000000E+00
  0.00000000E+00  0.00000000E+00  0.00000000E+00
  0.00000000E+00  0.00000000E+00  0.00000000E+00
  0.00000000E+00  0.00000000E+00  0.00000000E+00
  0.00000000E+00  0.00000000E+00  0.00000000E+00
  0.00000000E+00  0.00000000E+00  0.00000000E+00
  0.00000000E+00  0.00000000E+00  0.00000000E+00
  0.00000000E+00  0.00000000E+00  0.00000000E+00
  0.00000000E+00  0.00000000E+00  0.00000000E+00
  0.00000000E+00  0.00000000E+00  0.00000000E+00
  0.00000000E+00  0.00000000E+00  0.00000000E+00
  0.00000000E+00  0.00000000E+00  0.00000000E+00
  0.00000000E+00  0.00000000E+00  0.00000000E+00
  0.00000000E+00  0.00000000E+00  0.00000000E+00
  0.00000000E+00  0.00000000E+00  0.00000000E+00
  0.00000000E+00  0.00000000E+00  0.00000000E+00
  0.00000000E+00  0.00000000E+00  0.00000000E+00
  0.00000000E+00  0.00000000E+00  0.00000000E+00
  0.00000000E+00  0.00000000E+00  0.00000000E+00
  0.00000000E+00  0.00000000E+00  0.00000000E+00
  0.00000000E+00  0.00000000E+00  0.00000000E+00
  0.00000000E+00  0.00000000E+00  0.00000000E+00
  0.00000000E+00  0.00000000E+00  0.00000000E+00
  0.00000000E+00  0.00000000E+00  0.00000000E+00
  0.00000000E+00  0.00000000E+00  0.00000000E+00
  0.00000000E+00  0.00000000E+00  0.00000000E+00
  0.00000000E+00  0.00000000E+00  0.00000000E+00
  0.00000000E+00  0.00000000E+00  0.00000000E+00
  0.00000000E+00  0.00000000E+00  0.00000000E+00
  0.00000000E+00  0.00000000E+00  0.00000000E+00
  0.00000000E+00  0.00000000E+00  0.00000000E+00
  0.00000000E+00  0.00000000E+00  0.00000000E+00
  0.00000000E+00  0.00000000E+00  0.00000000E+00
  0.00000000E+00  0.00000000E+00  0.00000000E+00
  0.00000000E+00  0.00000000E+00  0.00000000E+00
  0.00000000E+00  0.00000000E+00  0.00000000E+00
  0.00000000E+00  0.00000000E+00  0.00000000E+00
  0.00000000E+00  0.00000000E+00  0.00000000E+00
  0.00000000E+00  0.00000000E+00  0.00000000E+00
  0.00000000E+00  0.00000000E+00  0.00000000E+00
  0.00000000E+00  0.00000000E+00  0.00000000E+00
  0.00000000E+00  0.00000000E+00  0.00000000E+00
  0.00000000E+00  0.00000000E+00  0.00000000E+00
  0.00000000E+00  0.00000000E+00  0.00000000E+00
  0.00000000E+00  0.00000000E+00  0.00000000E+00
  0.00000000E+00  0.00000000E+00  0.00000000E+00
  0.00000000E+00  0.00000000E+00  0.00000000E+00
  0.00000000E+00  0.00000000E+00  0.00000000E+00
  0.00000000E+00  0.00000000E+00  0.00000000E+00
  0.00000000E+00  0.00000000E+00  0.00000000E+00
  0.00000000E+00  0.00000000E+00  0.00000000E+00
  0.00000000E+00  0.00000000E+00  0.00000000E+00
  0.00000000E+00  0.00000000E+00  0.00000000E+00
  0.00000000E+00  0.00000000E+00  0.00000000E+00
  0.00000000E+00  0.00000000E+00  0.00000000E+00
  0.00000000E+00  0.00000000E+00  0.00000000E+00
  0.00000000E+00  0.00000000E+00  0.00000000E+00
