Nb Ta                                   
    1.000000000000000     
    13.2675493168798120   -0.0004044012380788   -0.0003905596022000
    -0.0004040653834000   13.2657523785516158    0.0006208021258793
    -0.0003904516860651    0.0006207997416995   13.2659154443266960
   Nb   Ta
    36    92
Direct
  0.4982308557199259 -0.0013516129389331  0.2492760644651021
  0.2511818750608869  0.0001660458451904  0.0000430038025541
  0.5000018870896374  0.7501590812590537  0.0003798561769820
  0.7505602193204826  0.7493390177042978  0.7496835320304059
  0.7481775153609149  0.2496936487344264  0.5004785280791237
  0.2501068853237213  0.7499302214609177  0.2494892724756702
  0.4997753452892657  0.5014123221707821  0.2492432114809831
  0.0004797384781624  0.4998831568998592  0.2494757314393839
  0.3753328343834189  0.1236915379701728  0.1253828565754157
  0.4998420828629738  0.5000715666369808  0.7515581955476979
 -0.0008058524363591 -0.0011131408837717  0.4988182169516711
  0.3758804295638677  0.8747702846107945  0.8759285392459625
  0.3758730690132854  0.3757511850270043  0.1271964313172372
  0.6233439654388968  0.1255835229156267  0.8763632684165547
  0.0003546211538606  0.5009514654859635  0.5013940752935261
  0.7509238407715461 -0.0012249912588659  0.2505192781443358
  0.6244878335685252  0.1252816054729819  0.6236539884294336
  0.6245154650685191  0.8774180021736184  0.3746199592328159
  0.8769681032203842  0.1247551953212399  0.8741889733083336
  0.4980747276281779  0.7513127308215956  0.7503826676403601
  0.2500422651176462  0.0016258533986270  0.5001322098384741
  0.0014939041994774  0.2499335985443398  0.4986133532990694
  0.6242025677226619  0.6257850224014007  0.8747727945798209
  0.5016979344342197  0.2481063161476428  0.7495780412461842
  0.8736301739467106  0.8755486198502278  0.1253409060089135
 -0.0012955571241357  0.2503218135820503  0.7512643522391493
  0.5019950031031202  0.0014143110328554  0.5013319640807413
  0.3755909766292801  0.3746008961177882  0.8725129130922900
  0.2501524683993062  0.2505090831421415  0.7494831675021636
  0.2490694491895843  0.7486442332500381  0.5011890574191775
  0.6240048860147556  0.6233189218208502  0.3753700267779094
  0.5019495317493085  0.7499765265933021  0.4975623522204783
  0.2495634551828331  0.2497817785749390  0.2498728158640018
 -0.0000598817186857 -0.0005292294811060  0.7509576060728620
  0.5000359815224511  0.2497644034167225  0.2493039557384925
  0.5000423139917224  0.4993120127244557  0.4996489935728656
  0.2493658033742795  0.0006424477062535  0.2500786068767709
  0.4991167699612082  0.2498656803399625  0.0005661919482316
  0.6245817340814664  0.8724049998097889  0.6270606588946128
  0.2502378466047724  0.4983088153622330  0.5001647900582250
  0.8744036784395001  0.8754321213547608  0.6261428855032525
  0.1252411943880247  0.6253122507178156  0.3744396698335836
 -0.0001553066909245  0.2493330312721870  0.0007688527682454
  0.8771986883575448  0.1253822173478040  0.6231974577036451
  0.3747568835442762  0.6251164835049839  0.8750635118281974
 -0.0010656952574985  0.2483296363875278  0.2493433594847509
  0.6241372947987496  0.6250323356931418  0.1243657002882262
  0.7490090340310112  0.7490725193471506  0.2511227647773038
  0.0017887073157785  0.7488722351618673  0.7489513640396022
  0.2511260430696549  0.4987496683996730  0.0002227655804168
  0.6236208550882197  0.8755912306341616  0.1234707202921042
  0.7498325231973427  0.2490973747796145 -0.0007484177663039
  0.1273848486128631  0.8751601582959927  0.1242551058610902
  0.5000487536309324  0.0000520431436395  0.7510835199998680
  0.7511823352301017  0.7499282595624659  0.0016809733883550
  0.3759529431152744  0.8744705172006628  0.6222746291818839
  0.6242260740024714  0.3734582952010798  0.3750054252860874
  0.3730278944785290  0.1256013294606012  0.8735473280100050
  0.3737040198113797  0.1247415836131087  0.6255762201469006
 -0.0003774213248954  0.7506786373404494  0.0010035713228679
  0.1243994912367896  0.1248823445683542  0.6255867065797570
  0.0005471662958269  0.4999191298790914 -0.0012923522276425
  0.1255928038581875  0.6249280785197944  0.6243345848446574
  0.2515687246199523  0.2522823338519533  0.0007092402774001
  0.7503137697692376  0.0005290455750584 -0.0020457599901235
  0.1252495323415129  0.1252032192203251  0.3754302183273503
  0.0000380478651317  0.5011129724431284  0.7504669483648337
  0.8754752695699863  0.8760615625814587  0.3758615944191791
  0.6258135753007571  0.3749441208903497  0.1251156304862914
  0.1241363083512501  0.3739443407164294  0.6256363215846996
  0.1253892869615556  0.6251010036005168  0.1254923760531583
  0.3736608077919739  0.6254248559882090  0.3753093727846996
  0.0014658180139075 -0.0002832573480073  0.2487623393741681
 -0.0019818216737278  0.0001813605160590  0.0012750152617469
  0.2493090588800035  0.7492361217007507 -0.0016355546686334
  0.7478289131140756  0.0029181759815190  0.7493514637934231
  0.3753997202063202  0.8734667781124147  0.1256458547939928
  0.8749235561754627  0.6233227381387604  0.1256469283897270
  0.6257816914279668  0.3746809703033934  0.8746720383719457
  0.1238154217106852  0.3749135406453862  0.1254755204123051
  0.3754192337956568  0.1246166539672915  0.3755408928119815
  0.1261510318539127  0.8748934505427169  0.3755218733346819
  0.3761745124090107  0.3749768604305164  0.3749745667351017
  0.8742765949100182  0.1246346485403938  0.3759077318515089
  0.8754235068945088  0.3750309190929279  0.3763129405131452
  0.8741502716804344  0.6252663208907686  0.6250455425397554
  0.3756395413767541  0.6269855424704949  0.1248891175653214
  0.8748482657524622  0.3757546989391900  0.1245450806171227
  0.1253539113362804  0.6248202585425271  0.8755905109566106
  0.1243087637265958  0.3748137833207705  0.3744799123629680
  0.4992477391158910  0.4980054689317790 -0.0001964829667484
 -0.0011275310648478  0.7523918391088688  0.2496732671836583
  0.7496403076398724  0.2483317706254795  0.7506296150861083
  0.5006614849378386  0.0017595210713184 -0.0016919963206386
  0.6263269133838903  0.1241925291177077  0.1271787871506535
  0.3761753654814122  0.3753690069662692  0.6253726120857318
  0.1250891916009628  0.1252319833348101  0.1239892324406577
  0.7503986643911494  0.7499877960575416  0.4978352777083143
  0.7508643128892046  0.4992197223600670  0.7494590352899282
  0.8742792606952439  0.8738043055764269  0.8724975923336545
  0.8736858391305565  0.1254863663447537  0.1262154403510199
  0.2491347941913980  0.5008295228506521  0.7494184552946459
  0.1249576881747251  0.8761563839380290  0.6243795729485411
  0.1241116738488998  0.3739084026415721  0.8744218134578452
  0.5018215503441708  0.7503458262340684  0.2517939809949633
  0.6263439699512136  0.8737540458254893  0.8749605025548630
  0.8752589178157510  0.6257295569516771  0.8749217937344905
  0.2518028057925570 -0.0023446477782210  0.7495336367622502
  0.6246250657882518  0.3763311685105133  0.6254800917484894
  0.1270582148688610  0.1248471048676778  0.8750326490406877
 -0.0011099942098464  0.7502500957146601  0.5002345001075702
  0.3762557934317357  0.6253903894040889  0.6248482619303121
  0.2491940798362721  0.7510705097385877  0.7509019876542978
  0.6241029183243177  0.6256557711670380  0.6259365178695132
  0.8769729212767039  0.6242219729913940  0.3744804406983239
  0.3735047247809208  0.8750628441737723  0.3760829098309412
  0.7489798986529129  0.5005669575623537 -0.0006037820300786
  0.7491113631635087  0.5001353494668463  0.2513696793080370
  0.1234513808737255  0.8764244251644856  0.8755759607579255
  0.6248741337585859  0.1259036382013477  0.3725718960777589
  0.4989224693185272  0.2493724084371875  0.5005809928805051
  0.2506667256894145  0.4998043586619278  0.2500743583546273
  0.2513643587053154  0.2515281996390104  0.4999603367739483
  0.8748947044934238  0.3738329402702587  0.6242209896595147
  0.7493446623676218  0.5013633448097745  0.4999237143567251
  0.7516699979442645  0.2518246347086575  0.2498220752326146
  0.8746158420756436  0.3756485598552133  0.8750472814134256
  0.7485885988870481 -0.0011855243077634  0.5018125308097251
 
  0.00000000E+00  0.00000000E+00  0.00000000E+00
  0.00000000E+00  0.00000000E+00  0.00000000E+00
  0.00000000E+00  0.00000000E+00  0.00000000E+00
  0.00000000E+00  0.00000000E+00  0.00000000E+00
  0.00000000E+00  0.00000000E+00  0.00000000E+00
  0.00000000E+00  0.00000000E+00  0.00000000E+00
  0.00000000E+00  0.00000000E+00  0.00000000E+00
  0.00000000E+00  0.00000000E+00  0.00000000E+00
  0.00000000E+00  0.00000000E+00  0.00000000E+00
  0.00000000E+00  0.00000000E+00  0.00000000E+00
  0.00000000E+00  0.00000000E+00  0.00000000E+00
  0.00000000E+00  0.00000000E+00  0.00000000E+00
  0.00000000E+00  0.00000000E+00  0.00000000E+00
  0.00000000E+00  0.00000000E+00  0.00000000E+00
  0.00000000E+00  0.00000000E+00  0.00000000E+00
  0.00000000E+00  0.00000000E+00  0.00000000E+00
  0.00000000E+00  0.00000000E+00  0.00000000E+00
  0.00000000E+00  0.00000000E+00  0.00000000E+00
  0.00000000E+00  0.00000000E+00  0.00000000E+00
  0.00000000E+00  0.00000000E+00  0.00000000E+00
  0.00000000E+00  0.00000000E+00  0.00000000E+00
  0.00000000E+00  0.00000000E+00  0.00000000E+00
  0.00000000E+00  0.00000000E+00  0.00000000E+00
  0.00000000E+00  0.00000000E+00  0.00000000E+00
  0.00000000E+00  0.00000000E+00  0.00000000E+00
  0.00000000E+00  0.00000000E+00  0.00000000E+00
  0.00000000E+00  0.00000000E+00  0.00000000E+00
  0.00000000E+00  0.00000000E+00  0.00000000E+00
  0.00000000E+00  0.00000000E+00  0.00000000E+00
  0.00000000E+00  0.00000000E+00  0.00000000E+00
  0.00000000E+00  0.00000000E+00  0.00000000E+00
  0.00000000E+00  0.00000000E+00  0.00000000E+00
  0.00000000E+00  0.00000000E+00  0.00000000E+00
  0.00000000E+00  0.00000000E+00  0.00000000E+00
  0.00000000E+00  0.00000000E+00  0.00000000E+00
  0.00000000E+00  0.00000000E+00  0.00000000E+00
  0.00000000E+00  0.00000000E+00  0.00000000E+00
  0.00000000E+00  0.00000000E+00  0.00000000E+00
  0.00000000E+00  0.00000000E+00  0.00000000E+00
  0.00000000E+00  0.00000000E+00  0.00000000E+00
  0.00000000E+00  0.00000000E+00  0.00000000E+00
  0.00000000E+00  0.00000000E+00  0.00000000E+00
  0.00000000E+00  0.00000000E+00  0.00000000E+00
  0.00000000E+00  0.00000000E+00  0.00000000E+00
  0.00000000E+00  0.00000000E+00  0.00000000E+00
  0.00000000E+00  0.00000000E+00  0.00000000E+00
  0.00000000E+00  0.00000000E+00  0.00000000E+00
  0.00000000E+00  0.00000000E+00  0.00000000E+00
  0.00000000E+00  0.00000000E+00  0.00000000E+00
  0.00000000E+00  0.00000000E+00  0.00000000E+00
  0.00000000E+00  0.00000000E+00  0.00000000E+00
  0.00000000E+00  0.00000000E+00  0.00000000E+00
  0.00000000E+00  0.00000000E+00  0.00000000E+00
  0.00000000E+00  0.00000000E+00  0.00000000E+00
  0.00000000E+00  0.00000000E+00  0.00000000E+00
  0.00000000E+00  0.00000000E+00  0.00000000E+00
  0.00000000E+00  0.00000000E+00  0.00000000E+00
  0.00000000E+00  0.00000000E+00  0.00000000E+00
  0.00000000E+00  0.00000000E+00  0.00000000E+00
  0.00000000E+00  0.00000000E+00  0.00000000E+00
  0.00000000E+00  0.00000000E+00  0.00000000E+00
  0.00000000E+00  0.00000000E+00  0.00000000E+00
  0.00000000E+00  0.00000000E+00  0.00000000E+00
  0.00000000E+00  0.00000000E+00  0.00000000E+00
  0.00000000E+00  0.00000000E+00  0.00000000E+00
  0.00000000E+00  0.00000000E+00  0.00000000E+00
  0.00000000E+00  0.00000000E+00  0.00000000E+00
  0.00000000E+00  0.00000000E+00  0.00000000E+00
  0.00000000E+00  0.00000000E+00  0.00000000E+00
  0.00000000E+00  0.00000000E+00  0.00000000E+00
  0.00000000E+00  0.00000000E+00  0.00000000E+00
  0.00000000E+00  0.00000000E+00  0.00000000E+00
  0.00000000E+00  0.00000000E+00  0.00000000E+00
  0.00000000E+00  0.00000000E+00  0.00000000E+00
  0.00000000E+00  0.00000000E+00  0.00000000E+00
  0.00000000E+00  0.00000000E+00  0.00000000E+00
  0.00000000E+00  0.00000000E+00  0.00000000E+00
  0.00000000E+00  0.00000000E+00  0.00000000E+00
  0.00000000E+00  0.00000000E+00  0.00000000E+00
  0.00000000E+00  0.00000000E+00  0.00000000E+00
  0.00000000E+00  0.00000000E+00  0.00000000E+00
  0.00000000E+00  0.00000000E+00  0.00000000E+00
  0.00000000E+00  0.00000000E+00  0.00000000E+00
  0.00000000E+00  0.00000000E+00  0.00000000E+00
  0.00000000E+00  0.00000000E+00  0.00000000E+00
  0.00000000E+00  0.00000000E+00  0.00000000E+00
  0.00000000E+00  0.00000000E+00  0.00000000E+00
  0.00000000E+00  0.00000000E+00  0.00000000E+00
  0.00000000E+00  0.00000000E+00  0.00000000E+00
  0.00000000E+00  0.00000000E+00  0.00000000E+00
  0.00000000E+00  0.00000000E+00  0.00000000E+00
  0.00000000E+00  0.00000000E+00  0.00000000E+00
  0.00000000E+00  0.00000000E+00  0.00000000E+00
  0.00000000E+00  0.00000000E+00  0.00000000E+00
  0.00000000E+00  0.00000000E+00  0.00000000E+00
  0.00000000E+00  0.00000000E+00  0.00000000E+00
  0.00000000E+00  0.00000000E+00  0.00000000E+00
  0.00000000E+00  0.00000000E+00  0.00000000E+00
  0.00000000E+00  0.00000000E+00  0.00000000E+00
  0.00000000E+00  0.00000000E+00  0.00000000E+00
  0.00000000E+00  0.00000000E+00  0.00000000E+00
  0.00000000E+00  0.00000000E+00  0.00000000E+00
  0.00000000E+00  0.00000000E+00  0.00000000E+00
  0.00000000E+00  0.00000000E+00  0.00000000E+00
  0.00000000E+00  0.00000000E+00  0.00000000E+00
  0.00000000E+00  0.00000000E+00  0.00000000E+00
  0.00000000E+00  0.00000000E+00  0.00000000E+00
  0.00000000E+00  0.00000000E+00  0.00000000E+00
  0.00000000E+00  0.00000000E+00  0.00000000E+00
  0.00000000E+00  0.00000000E+00  0.00000000E+00
  0.00000000E+00  0.00000000E+00  0.00000000E+00
  0.00000000E+00  0.00000000E+00  0.00000000E+00
  0.00000000E+00  0.00000000E+00  0.00000000E+00
  0.00000000E+00  0.00000000E+00  0.00000000E+00
  0.00000000E+00  0.00000000E+00  0.00000000E+00
  0.00000000E+00  0.00000000E+00  0.00000000E+00
  0.00000000E+00  0.00000000E+00  0.00000000E+00
  0.00000000E+00  0.00000000E+00  0.00000000E+00
  0.00000000E+00  0.00000000E+00  0.00000000E+00
  0.00000000E+00  0.00000000E+00  0.00000000E+00
  0.00000000E+00  0.00000000E+00  0.00000000E+00
  0.00000000E+00  0.00000000E+00  0.00000000E+00
  0.00000000E+00  0.00000000E+00  0.00000000E+00
  0.00000000E+00  0.00000000E+00  0.00000000E+00
  0.00000000E+00  0.00000000E+00  0.00000000E+00
  0.00000000E+00  0.00000000E+00  0.00000000E+00
  0.00000000E+00  0.00000000E+00  0.00000000E+00
  0.00000000E+00  0.00000000E+00  0.00000000E+00
