Hf Ta                                   
    1.000000000000000     
    12.2836224349592058    0.8528998332346093   -0.0336960570353804
    -5.4107851042848019   11.0412163403119123    0.0189699806476420
    -0.0516396449235912    0.0019018402852056   19.3677138336708019
  Hf             Ta           
              92              36
Direct
  0.0732866800362273  0.1771985308290915  0.8156163001799642
  0.1675711129654061  0.8312359986568405  0.1869034998245412
  0.5819762159090327  0.4120361297746998  0.8125206570110203
  0.1695655242846974  0.3409152059060742  0.6895757763649131
  0.3204466044572964  0.1669507507464289  0.0623686181124914
  0.4264794482059538  0.0683471476072979  0.1872274844854119
  0.6676412552709797  0.0591095267524901  0.4341040129299406
  0.5744104470694308  0.6805809413984748  0.0601021624384182
  0.8198741289812322  0.1939937876242214  0.3099492322508140
  0.3440354600066594  0.4216964732413864  0.0644690072006653
  0.4353390819156926  0.8159012137963002  0.9406324847256772
  0.3295866381301122  0.1712290087917195  0.8183439017557501
  0.4257582396561090  0.0703371179629715  0.9400043300831045
  0.8133099831851508  0.9352612198984398  0.3116548921851495
  0.0862409756729231  0.4315956666494671  0.0588420277837726
  0.5702347583968989  0.1525490755283669  0.5623011597796155
  0.6746992997475352  0.5762862482903690  0.1917711825230775
  0.0778632092472841  0.9251647176489792  0.5632002910637810
  0.1720664797103976  0.3315635898007370  0.4334590822207350
  0.1773938849035393  0.5832403676314837  0.4370484854384304
  0.1608170974833904  0.0737628504704338  0.1863325463590338
  0.9202584143057039  0.3034823657119680  0.9367520717162058
  0.3320972048749659  0.4178004522134188  0.3106463893303640
  0.1788299781319945  0.3296956707358396  0.1851801201453840
  0.5789839053854107  0.1706783818017296  0.0624078377814514
  0.9160626496067902  0.8327129729405665  0.1921857235882885
  0.6775149875046841  0.0626715984579183  0.6863680200818777
  0.9275904645006372  0.5935447395603158  0.4398259229157174
  0.6794221936947904  0.3226435524472062  0.1909868388227426
  0.6723972672974234  0.5676295866937683  0.6865066986174813
  0.9224856408817536  0.5766954626936351  0.1905707211651100
  0.3292483206179821  0.1690949867866683  0.5592293938575839
  0.8282517432654699  0.1872700463854709  0.5614482693957111
  0.1710754611776892  0.0838298802191220  0.6907794187723169
  0.3250611576061959  0.6702582092762941  0.5626002614915744
  0.0737422769467403  0.1841744316702016  0.5658029704394885
  0.6734935136417497  0.8147249325939910  0.6857070839737306
  0.4364560828977685  0.3305488450344681  0.9419627123481223
  0.1723345704150341  0.5846104323064329  0.1885370924154806
  0.5651664059314501  0.6638946372967379  0.8164894565851244
  0.9246390321876616  0.0951902305435661  0.4358152748371562
  0.3287268341504108  0.6673018624047148  0.0654770112030377
  0.4241209072595646  0.0751359706206941  0.4312159897575933
  0.8292105204157950  0.9392436713255219  0.5644017990292529
  0.5641353125663615  0.4162998261159565  0.5587600242768896
  0.4284314025750001  0.8265362215832869  0.6899294459951187
  0.4161098309037649  0.3235052283947367  0.6883106689855991
  0.1722064488709029  0.8301700957574023  0.4414931863179951
  0.5821561858189052  0.9157817177119804  0.8176928160276198
  0.8297019388754162  0.4364446308506116  0.5665156964412429
  0.9324292770884509  0.8323797362449720  0.6913662917127483
  0.0657507374403532  0.1747996354566600  0.0606796346411963
  0.1681098119976142  0.0806144791227407  0.4359373426076396
  0.0684063870040852  0.4351038078572909  0.8129817826435256
  0.9287475475883982  0.3502227149480867  0.4369055990749171
  0.8321826391181548  0.9331087753687086  0.8102928866946232
  0.8232984801541902  0.6680607768650333  0.8126469506961732
  0.8287491704232586  0.6864690351262179  0.5628375238771957
  0.1727610586244880  0.5895078387216951  0.6889887840429154
  0.0641631632624539  0.9226771910857792  0.0565725316940814
  0.4237809235409013  0.0757433333927934  0.6919277679811826
  0.0746059266233587  0.6820112966353655  0.3137215931848127
  0.5767412658758911  0.6864920320565733  0.3148054758530457
  0.6773836879758144  0.0711245392226255  0.1850056103998416
  0.6644680520693430  0.5701820782155617  0.9409395942579991
  0.6844578161683635  0.3264042123362441  0.9381855243523346
  0.3223052285329190  0.9079527489830602  0.3113685426343082
  0.4247254354574274  0.5673804915858398  0.4390016230165432
  0.3252650992533160  0.1690619763344209  0.3072210446715480
  0.0645100477511330  0.4253768981744432  0.3069511290645718
  0.4244718502444142  0.5770694823165677  0.6852795400056803
  0.3395758264250964  0.9229505678398606  0.5609586219942665
  0.9219822703992513  0.8382031593139365  0.4312504118659990
  0.0698746723600227  0.1694988258927054  0.3090043208440877
  0.4243447795196049  0.5733927082595407  0.1905791071289696
  0.9224558763825258  0.5664270228994474  0.9314530081415752
  0.8284425794081304  0.6812708452241442  0.0603533013023640
  0.1826146557383976  0.3293503977498814  0.9387492362392665
  0.5893666111547422  0.1619751917068139  0.8189317331505641
  0.3144771431377044  0.4112367984052773  0.5613721790663992
  0.4325229532275743  0.8162953012385169  0.4333061544894342
  0.6752732645878280  0.5741930779907515  0.4341254609326504
  0.1807338157090105  0.5942315099603661  0.9344930570251729
  0.3202123060549310  0.9106184008639686  0.0600185463437598
  0.1787969624161223  0.8357013611410993  0.6875812322373304
  0.3225842701096229  0.9132787675359083  0.8175485113646620
  0.3302170560476479  0.4275254915511583  0.8144319665950330
  0.6727278020450155  0.3124809455181142  0.6868031390582419
  0.6686654381025220  0.3159896136215785  0.4362662126046072
  0.8322734032063158  0.4236155494106563  0.0648938693243085
  0.0776993922653014  0.6786905905625126  0.0582862608356822
  0.8124943470666791  0.9310328967327439  0.0633421820217041
  0.8260230341202799  0.4174497250258585  0.8060223087312288
  0.3226601633163985  0.6690199315154646  0.8121738518180899
  0.5679792352972521  0.9215615566062957  0.0687675352918706
  0.6974249321115051  0.0597763168453481  0.9416813272655952
  0.5719101622003820  0.1742846969168869  0.3114927664476850
  0.5739279932858902  0.4190404229156128  0.3124903028603502
  0.8232007464091209  0.1731600422550242  0.0647447287571976
  0.4130016885101813  0.5711813195273830  0.9389963201818458
  0.9308448102367008  0.5739286600642943  0.6917210142318468
  0.1707689616939891  0.0697841552218080  0.9352923451720668
  0.9278829843080946  0.3311541630413845  0.6855585676389292
  0.5796339872605666  0.9038702384122822  0.5614132715093765
  0.0799791684046872  0.9276851555171924  0.3121358025236056
  0.9263298539421840  0.0925845496884949  0.6900269758357431
  0.9264455597768902  0.8193582173919215  0.9315838009598461
  0.8239800689266923  0.6753549756943715  0.3127235519127064
  0.5833551459330458  0.4235777892082920  0.0686143242569529
  0.0720358017253523  0.6855494307546093  0.8119593388746436
  0.8144127974074630  0.4411093000615634  0.3187559869324769
  0.5688728575141165  0.9307932210932514  0.3053353137301486
  0.4374866809390066  0.3244293642148252  0.1873328974423671
  0.9230356905747009  0.0927258182033952  0.1860290917597695
  0.1655151671566802  0.8324218598299450  0.9348905247999894
  0.3239213169501366  0.6651102779954368  0.3098970350347425
  0.6895028314129041  0.8250309959365932  0.9329431082336115
  0.5753998077868162  0.6734678848867787  0.5617634672672273
  0.6742116864210230  0.8172796775029088  0.4457189613110942
  0.0694985638173581  0.4346716593285238  0.5668564716047372
  0.8316527000502403  0.1817636945763559  0.8058169994903139
  0.4288265777461025  0.8180963620348642  0.1913728876296163
  0.0741550073170340  0.9268050193817652  0.8180919786250287
  0.6586674389636101  0.8253183950034516  0.1881311816154494
  0.9292243250011895  0.0561874664573070  0.9368314800856619
  0.4250966934191399  0.3223681193704084  0.4296209184623706
  0.0676725261966346  0.6714185965537347  0.5691205173712189
  0.9323076727644266  0.3224534763562861  0.1767017076300329
 
  0.00000000E+00  0.00000000E+00  0.00000000E+00
  0.00000000E+00  0.00000000E+00  0.00000000E+00
  0.00000000E+00  0.00000000E+00  0.00000000E+00
  0.00000000E+00  0.00000000E+00  0.00000000E+00
  0.00000000E+00  0.00000000E+00  0.00000000E+00
  0.00000000E+00  0.00000000E+00  0.00000000E+00
  0.00000000E+00  0.00000000E+00  0.00000000E+00
  0.00000000E+00  0.00000000E+00  0.00000000E+00
  0.00000000E+00  0.00000000E+00  0.00000000E+00
  0.00000000E+00  0.00000000E+00  0.00000000E+00
  0.00000000E+00  0.00000000E+00  0.00000000E+00
  0.00000000E+00  0.00000000E+00  0.00000000E+00
  0.00000000E+00  0.00000000E+00  0.00000000E+00
  0.00000000E+00  0.00000000E+00  0.00000000E+00
  0.00000000E+00  0.00000000E+00  0.00000000E+00
  0.00000000E+00  0.00000000E+00  0.00000000E+00
  0.00000000E+00  0.00000000E+00  0.00000000E+00
  0.00000000E+00  0.00000000E+00  0.00000000E+00
  0.00000000E+00  0.00000000E+00  0.00000000E+00
  0.00000000E+00  0.00000000E+00  0.00000000E+00
  0.00000000E+00  0.00000000E+00  0.00000000E+00
  0.00000000E+00  0.00000000E+00  0.00000000E+00
  0.00000000E+00  0.00000000E+00  0.00000000E+00
  0.00000000E+00  0.00000000E+00  0.00000000E+00
  0.00000000E+00  0.00000000E+00  0.00000000E+00
  0.00000000E+00  0.00000000E+00  0.00000000E+00
  0.00000000E+00  0.00000000E+00  0.00000000E+00
  0.00000000E+00  0.00000000E+00  0.00000000E+00
  0.00000000E+00  0.00000000E+00  0.00000000E+00
  0.00000000E+00  0.00000000E+00  0.00000000E+00
  0.00000000E+00  0.00000000E+00  0.00000000E+00
  0.00000000E+00  0.00000000E+00  0.00000000E+00
  0.00000000E+00  0.00000000E+00  0.00000000E+00
  0.00000000E+00  0.00000000E+00  0.00000000E+00
  0.00000000E+00  0.00000000E+00  0.00000000E+00
  0.00000000E+00  0.00000000E+00  0.00000000E+00
  0.00000000E+00  0.00000000E+00  0.00000000E+00
  0.00000000E+00  0.00000000E+00  0.00000000E+00
  0.00000000E+00  0.00000000E+00  0.00000000E+00
  0.00000000E+00  0.00000000E+00  0.00000000E+00
  0.00000000E+00  0.00000000E+00  0.00000000E+00
  0.00000000E+00  0.00000000E+00  0.00000000E+00
  0.00000000E+00  0.00000000E+00  0.00000000E+00
  0.00000000E+00  0.00000000E+00  0.00000000E+00
  0.00000000E+00  0.00000000E+00  0.00000000E+00
  0.00000000E+00  0.00000000E+00  0.00000000E+00
  0.00000000E+00  0.00000000E+00  0.00000000E+00
  0.00000000E+00  0.00000000E+00  0.00000000E+00
  0.00000000E+00  0.00000000E+00  0.00000000E+00
  0.00000000E+00  0.00000000E+00  0.00000000E+00
  0.00000000E+00  0.00000000E+00  0.00000000E+00
  0.00000000E+00  0.00000000E+00  0.00000000E+00
  0.00000000E+00  0.00000000E+00  0.00000000E+00
  0.00000000E+00  0.00000000E+00  0.00000000E+00
  0.00000000E+00  0.00000000E+00  0.00000000E+00
  0.00000000E+00  0.00000000E+00  0.00000000E+00
  0.00000000E+00  0.00000000E+00  0.00000000E+00
  0.00000000E+00  0.00000000E+00  0.00000000E+00
  0.00000000E+00  0.00000000E+00  0.00000000E+00
  0.00000000E+00  0.00000000E+00  0.00000000E+00
  0.00000000E+00  0.00000000E+00  0.00000000E+00
  0.00000000E+00  0.00000000E+00  0.00000000E+00
  0.00000000E+00  0.00000000E+00  0.00000000E+00
  0.00000000E+00  0.00000000E+00  0.00000000E+00
  0.00000000E+00  0.00000000E+00  0.00000000E+00
  0.00000000E+00  0.00000000E+00  0.00000000E+00
  0.00000000E+00  0.00000000E+00  0.00000000E+00
  0.00000000E+00  0.00000000E+00  0.00000000E+00
  0.00000000E+00  0.00000000E+00  0.00000000E+00
  0.00000000E+00  0.00000000E+00  0.00000000E+00
  0.00000000E+00  0.00000000E+00  0.00000000E+00
  0.00000000E+00  0.00000000E+00  0.00000000E+00
  0.00000000E+00  0.00000000E+00  0.00000000E+00
  0.00000000E+00  0.00000000E+00  0.00000000E+00
  0.00000000E+00  0.00000000E+00  0.00000000E+00
  0.00000000E+00  0.00000000E+00  0.00000000E+00
  0.00000000E+00  0.00000000E+00  0.00000000E+00
  0.00000000E+00  0.00000000E+00  0.00000000E+00
  0.00000000E+00  0.00000000E+00  0.00000000E+00
  0.00000000E+00  0.00000000E+00  0.00000000E+00
  0.00000000E+00  0.00000000E+00  0.00000000E+00
  0.00000000E+00  0.00000000E+00  0.00000000E+00
  0.00000000E+00  0.00000000E+00  0.00000000E+00
  0.00000000E+00  0.00000000E+00  0.00000000E+00
  0.00000000E+00  0.00000000E+00  0.00000000E+00
  0.00000000E+00  0.00000000E+00  0.00000000E+00
  0.00000000E+00  0.00000000E+00  0.00000000E+00
  0.00000000E+00  0.00000000E+00  0.00000000E+00
  0.00000000E+00  0.00000000E+00  0.00000000E+00
  0.00000000E+00  0.00000000E+00  0.00000000E+00
  0.00000000E+00  0.00000000E+00  0.00000000E+00
  0.00000000E+00  0.00000000E+00  0.00000000E+00
  0.00000000E+00  0.00000000E+00  0.00000000E+00
  0.00000000E+00  0.00000000E+00  0.00000000E+00
  0.00000000E+00  0.00000000E+00  0.00000000E+00
  0.00000000E+00  0.00000000E+00  0.00000000E+00
  0.00000000E+00  0.00000000E+00  0.00000000E+00
  0.00000000E+00  0.00000000E+00  0.00000000E+00
  0.00000000E+00  0.00000000E+00  0.00000000E+00
  0.00000000E+00  0.00000000E+00  0.00000000E+00
  0.00000000E+00  0.00000000E+00  0.00000000E+00
  0.00000000E+00  0.00000000E+00  0.00000000E+00
  0.00000000E+00  0.00000000E+00  0.00000000E+00
  0.00000000E+00  0.00000000E+00  0.00000000E+00
  0.00000000E+00  0.00000000E+00  0.00000000E+00
  0.00000000E+00  0.00000000E+00  0.00000000E+00
  0.00000000E+00  0.00000000E+00  0.00000000E+00
  0.00000000E+00  0.00000000E+00  0.00000000E+00
  0.00000000E+00  0.00000000E+00  0.00000000E+00
  0.00000000E+00  0.00000000E+00  0.00000000E+00
  0.00000000E+00  0.00000000E+00  0.00000000E+00
  0.00000000E+00  0.00000000E+00  0.00000000E+00
  0.00000000E+00  0.00000000E+00  0.00000000E+00
  0.00000000E+00  0.00000000E+00  0.00000000E+00
  0.00000000E+00  0.00000000E+00  0.00000000E+00
  0.00000000E+00  0.00000000E+00  0.00000000E+00
  0.00000000E+00  0.00000000E+00  0.00000000E+00
  0.00000000E+00  0.00000000E+00  0.00000000E+00
  0.00000000E+00  0.00000000E+00  0.00000000E+00
  0.00000000E+00  0.00000000E+00  0.00000000E+00
  0.00000000E+00  0.00000000E+00  0.00000000E+00
  0.00000000E+00  0.00000000E+00  0.00000000E+00
  0.00000000E+00  0.00000000E+00  0.00000000E+00
  0.00000000E+00  0.00000000E+00  0.00000000E+00
  0.00000000E+00  0.00000000E+00  0.00000000E+00
  0.00000000E+00  0.00000000E+00  0.00000000E+00
  0.00000000E+00  0.00000000E+00  0.00000000E+00
  0.00000000E+00  0.00000000E+00  0.00000000E+00
