Nb Ta                                   
    1.000000000000000     
    13.2344510266458411    0.0007912367397164   -0.0000285234079899
     0.0007910112723697   13.2332681546662112   -0.0036097033578034
    -0.0000283366707822   -0.0036101465539875   13.2363377984047741
   Nb   Ta
   116    12
Direct
  0.6243450661288884  0.1246313856022083  0.8743678780942904
  0.6256673738664382  0.1246818566885101  0.3740827462565319
  0.3743910513091367  0.1245780504524878  0.6256932854381068
  0.5000280314273261  0.2496591481165162  0.7486638774993197
  0.7504606431931600  0.0000263217614813  0.4998001761563295
  0.2496331640682397  0.0000836107807577  0.7500075016666128
  0.2500390401388111  0.7513318228593340  0.2485347775840366
 -0.0012719727712451  0.2480784750752513 -0.0005340992461226
  0.8756596493731001  0.3752934488838567  0.1246652394593029
  0.1230623733485252  0.6254904116505692  0.6258209604373106
  0.4999876426904112  0.7503459529872273  0.5018813896844134
  0.3745894809067742  0.8752048393963092  0.6243936072857073
  0.4999721965016640  0.5000474364948424 -0.0000275387320122
  0.0002502416819502  0.7506231991796649  0.7502635445589561
  0.3751052842579141  0.6244020120236810  0.1258984340492786
  0.5003797470034179  0.0017132754913239  0.5001352272903288
  0.3753344410514870  0.3757662931636392  0.1242921628280032
  0.6255340961094201  0.1247135907178910  0.6258469146095715
  0.4986631415924603  0.2497223352049218  0.2516073805418657
  0.5003790541415922  0.7502352507749118  0.2498497058574041
  0.2496853182808954  0.5001739666301622  0.7484958710705700
  0.7477814352550396  0.7488268277589082  0.7502269584237301
  0.4987656211867723 -0.0001557841543258  0.2505213888818875
  0.7500339484890172  0.4996429612291780  0.4993130445506462
  0.5014355652649973  0.5017371359163323  0.7497077427193294
  0.6247199164281650  0.6255926295183685  0.1243799605471953
  0.2496877060367419  0.7481170117970116  0.4999568937931649
  0.3749018207595389  0.1251822312388745  0.8752183194452762
  0.8749671908692243  0.3745287572546547  0.3755394940312363
  0.2499043046793374  0.2500928930553675  0.0013587358865653
  0.6245855378692602  0.8752577919141314  0.3746383956805960
  0.0009362054655205 -0.0006051540990503  0.2486470387278269
  0.3754513035584042  0.8741851663158464  0.3755389633599643
  0.6251291516946995  0.8749361331310074  0.1248785854688532
  0.1250032333661208  0.6241638339757387  0.1257135217467514
  0.6241919830549220  0.3749189680403508  0.1252257000572052
  0.4983380931016236  0.4985909301786345  0.5002636365629748
  0.0004391321623614  0.7507354181480281  0.4996059123013307
  0.1244086780912392  0.1255947176578325  0.1255939620559830
  0.5018004376835220  0.5002143284945155  0.2501179518238041
  0.6251016500035214  0.3747897405566253  0.3748131081308677
  0.6246593618591447  0.1246085404929862  0.1257432014801928
  0.8746939517753531  0.1249196633027310  0.1262766984224084
  0.8747962028627223  0.1249975725851420  0.6250897652341671
  0.4980546765661262  0.7502424207235480 -0.0017477097710354
  0.1244456878394484  0.3732334008279222  0.3746632314082164
  0.1250245289738140  0.3757081927709505  0.1242391348269115
  0.1247684146562073  0.6243323178258035  0.8745035181558796
  0.3749692712304397  0.8761064813346100  0.8751550332561958
  0.1255978849569152  0.3747463720170024  0.8755885367373564
  0.1252913871287132  0.8749588610229904  0.6250872455722903
  0.8749067267075813  0.8753256158797610  0.3746029106031913
  0.8740380837361427  0.8744168102150117  0.1252340601377476
 -0.0018386217199327  0.5003915112670579  0.2504582703927413
  0.7499929887149319  0.7480620169859534  0.2501868160248323
  0.3749661105832742  0.6249768032642700  0.6249810010085868
  0.1246344006860688  0.8744807243223119  0.1254788531678599
  0.3754046994555498  0.3756810243326018  0.3742656184221077
  0.5015137243037998  0.2499414792933498 -0.0004063330623800
  0.3748013930463638  0.6238740261711705  0.8747938123105404
  0.6243097863860161  0.6253448478391196  0.3754987731801440
  0.1250179118624739  0.8764957247787627  0.3753629998583580
 -0.0001265839202383  0.0001660405642608  0.7509069241321052
  0.5003276529683404 -0.0002196173909590 -0.0003290595656338
  0.0017539459047296  0.7516352893876519 -0.0002513681552449
  0.8759868238607664  0.3750290054900184  0.8753627086649099
  0.7485427149145517  0.2495287762286824  0.4999948484867441
 -0.0000343363504921  0.2496102857371618  0.7498405857453674
  0.6252037769600609  0.8756378327910805  0.6245305080989939
  0.5001148980689030 -0.0016557708074542  0.7496624282244436
  0.6236599110665347  0.3745817865199813  0.8751293970050746
  0.8752479719048415  0.6251005708960254  0.3771732352301943
  0.1247915155808036  0.3744332483608953  0.6256153819175495
  0.2496901006685217  0.4985698910541243  0.2514934492731375
  0.8748108611363801  0.8732064562184146  0.6255363549727043
  0.3761686605000554  0.1251586432308334  0.1232893970613594
  0.8755710273674963  0.6255948063852658  0.8742989508924834
  0.8753236227679272  0.6254412463297221  0.1241198924197663
  0.7503832490256390 -0.0001076387925449  0.7497199774254832
  0.1250336550677237  0.6253871464703057  0.3739329151642991
  0.8765764659208400  0.1251006661019471  0.3747950423653605
  0.3739338359333357  0.1244567006074994  0.3758408044510324
  0.7517397745115623  0.0018554505842067  0.0001635628486638
  0.8742888022468706  0.8744633934151167  0.8746699084219833
  0.2499115741416937  0.2500662079370539  0.7500104644149137
  0.3751262927378294  0.3751440129846436  0.6264162608879253
 -0.0004798109358016  0.2502047887649982  0.5010716292399476
  0.6250710752934675  0.6250368247825794  0.8765405773795254
  0.7497420691362522  0.2516152403928397  0.2485778038544618
  0.7500396368599674  0.2517260423582997  0.7514430193068755
  0.2519443225530741  0.2520406343736761  0.4989377164163084
  0.7501146621771630  0.7499283974986585  0.0003313844912609
  0.0021464329986535  0.4998543400247822  0.4997597906093522
  0.1257784203265413  0.1255760932851110  0.8749004604650247
  0.6264009410468502  0.6247772204089925  0.6236874081007767
 -0.0001185526186955  0.5002809125937390 -0.0002323267741951
  0.3752396444647908  0.6256186591569640  0.3741605692861975
  0.3748164390226669  0.3748575711881786  0.8750393864074547
 -0.0003280841021106  0.7500148272005976  0.2503335429460365
  0.2518909332504132  0.7495874001105808  0.7513924604004161
  0.0009977517109028  0.2504282481192492  0.2495000235370131
 -0.0010849137644218  0.4995004259938510  0.7501557983313395
  0.1253545089641757  0.8752327234208979  0.8741052043732784
  0.1251644545010870  0.1249658917053977  0.6228992781104569
  0.2479821877152602 -0.0013905746750652  0.0016057543481561
  0.8750110654700960  0.3763783557714160  0.6244995221714036
 -0.0009761485335842 -0.0007494264932539  0.5009256227907390
  0.7496117389598411  0.7507520123348567  0.4992797995352994
  0.3761867722191632  0.8746098190755623  0.1247221305954151
  0.8748965677745990  0.1250017919742989  0.8739051929311794
  0.6254039650370978  0.8758660577214979  0.8759634182847478
  0.7504249796280910  0.4982628047181376  0.0004192277077369
  0.2501825997336879 -0.0003686800214501  0.4988494278920216
  0.2498950370510141  0.5014596160841533  0.0000946144625584
  0.7501152328683937 -0.0002001586886380  0.2503273965084320
  0.6249134426438742  0.3749151644292731  0.6249574782965241
  0.7504401160845231  0.5006318904555942  0.2498900318979951
  0.2491796319191117  0.4999952917705656  0.4999180910108654
  0.7498768368729753  0.2499454062034246  0.0000020336375658
  0.1242869425623291  0.1251103855649595  0.3762114161613783
  0.5001756232692292  0.7502774107243079  0.7498779931354727
  0.4997878702710254  0.2492528733697021  0.5002082719162189
 -0.0001540407490052  0.0000266248532115 -0.0003378144925241
  0.2504283240881352  0.0011156835788995  0.2494316739247849
  0.2508013366512954  0.2488911233654995  0.2495824568812894
  0.8752312918272963  0.6253545268752085  0.6245170141902021
  0.7499184597964008  0.4997004192820815  0.7506046570782322
  0.2501374720379481  0.7497372809257985 -0.0000355016821465
 
  0.00000000E+00  0.00000000E+00  0.00000000E+00
  0.00000000E+00  0.00000000E+00  0.00000000E+00
  0.00000000E+00  0.00000000E+00  0.00000000E+00
  0.00000000E+00  0.00000000E+00  0.00000000E+00
  0.00000000E+00  0.00000000E+00  0.00000000E+00
  0.00000000E+00  0.00000000E+00  0.00000000E+00
  0.00000000E+00  0.00000000E+00  0.00000000E+00
  0.00000000E+00  0.00000000E+00  0.00000000E+00
  0.00000000E+00  0.00000000E+00  0.00000000E+00
  0.00000000E+00  0.00000000E+00  0.00000000E+00
  0.00000000E+00  0.00000000E+00  0.00000000E+00
  0.00000000E+00  0.00000000E+00  0.00000000E+00
  0.00000000E+00  0.00000000E+00  0.00000000E+00
  0.00000000E+00  0.00000000E+00  0.00000000E+00
  0.00000000E+00  0.00000000E+00  0.00000000E+00
  0.00000000E+00  0.00000000E+00  0.00000000E+00
  0.00000000E+00  0.00000000E+00  0.00000000E+00
  0.00000000E+00  0.00000000E+00  0.00000000E+00
  0.00000000E+00  0.00000000E+00  0.00000000E+00
  0.00000000E+00  0.00000000E+00  0.00000000E+00
  0.00000000E+00  0.00000000E+00  0.00000000E+00
  0.00000000E+00  0.00000000E+00  0.00000000E+00
  0.00000000E+00  0.00000000E+00  0.00000000E+00
  0.00000000E+00  0.00000000E+00  0.00000000E+00
  0.00000000E+00  0.00000000E+00  0.00000000E+00
  0.00000000E+00  0.00000000E+00  0.00000000E+00
  0.00000000E+00  0.00000000E+00  0.00000000E+00
  0.00000000E+00  0.00000000E+00  0.00000000E+00
  0.00000000E+00  0.00000000E+00  0.00000000E+00
  0.00000000E+00  0.00000000E+00  0.00000000E+00
  0.00000000E+00  0.00000000E+00  0.00000000E+00
  0.00000000E+00  0.00000000E+00  0.00000000E+00
  0.00000000E+00  0.00000000E+00  0.00000000E+00
  0.00000000E+00  0.00000000E+00  0.00000000E+00
  0.00000000E+00  0.00000000E+00  0.00000000E+00
  0.00000000E+00  0.00000000E+00  0.00000000E+00
  0.00000000E+00  0.00000000E+00  0.00000000E+00
  0.00000000E+00  0.00000000E+00  0.00000000E+00
  0.00000000E+00  0.00000000E+00  0.00000000E+00
  0.00000000E+00  0.00000000E+00  0.00000000E+00
  0.00000000E+00  0.00000000E+00  0.00000000E+00
  0.00000000E+00  0.00000000E+00  0.00000000E+00
  0.00000000E+00  0.00000000E+00  0.00000000E+00
  0.00000000E+00  0.00000000E+00  0.00000000E+00
  0.00000000E+00  0.00000000E+00  0.00000000E+00
  0.00000000E+00  0.00000000E+00  0.00000000E+00
  0.00000000E+00  0.00000000E+00  0.00000000E+00
  0.00000000E+00  0.00000000E+00  0.00000000E+00
  0.00000000E+00  0.00000000E+00  0.00000000E+00
  0.00000000E+00  0.00000000E+00  0.00000000E+00
  0.00000000E+00  0.00000000E+00  0.00000000E+00
  0.00000000E+00  0.00000000E+00  0.00000000E+00
  0.00000000E+00  0.00000000E+00  0.00000000E+00
  0.00000000E+00  0.00000000E+00  0.00000000E+00
  0.00000000E+00  0.00000000E+00  0.00000000E+00
  0.00000000E+00  0.00000000E+00  0.00000000E+00
  0.00000000E+00  0.00000000E+00  0.00000000E+00
  0.00000000E+00  0.00000000E+00  0.00000000E+00
  0.00000000E+00  0.00000000E+00  0.00000000E+00
  0.00000000E+00  0.00000000E+00  0.00000000E+00
  0.00000000E+00  0.00000000E+00  0.00000000E+00
  0.00000000E+00  0.00000000E+00  0.00000000E+00
  0.00000000E+00  0.00000000E+00  0.00000000E+00
  0.00000000E+00  0.00000000E+00  0.00000000E+00
  0.00000000E+00  0.00000000E+00  0.00000000E+00
  0.00000000E+00  0.00000000E+00  0.00000000E+00
  0.00000000E+00  0.00000000E+00  0.00000000E+00
  0.00000000E+00  0.00000000E+00  0.00000000E+00
  0.00000000E+00  0.00000000E+00  0.00000000E+00
  0.00000000E+00  0.00000000E+00  0.00000000E+00
  0.00000000E+00  0.00000000E+00  0.00000000E+00
  0.00000000E+00  0.00000000E+00  0.00000000E+00
  0.00000000E+00  0.00000000E+00  0.00000000E+00
  0.00000000E+00  0.00000000E+00  0.00000000E+00
  0.00000000E+00  0.00000000E+00  0.00000000E+00
  0.00000000E+00  0.00000000E+00  0.00000000E+00
  0.00000000E+00  0.00000000E+00  0.00000000E+00
  0.00000000E+00  0.00000000E+00  0.00000000E+00
  0.00000000E+00  0.00000000E+00  0.00000000E+00
  0.00000000E+00  0.00000000E+00  0.00000000E+00
  0.00000000E+00  0.00000000E+00  0.00000000E+00
  0.00000000E+00  0.00000000E+00  0.00000000E+00
  0.00000000E+00  0.00000000E+00  0.00000000E+00
  0.00000000E+00  0.00000000E+00  0.00000000E+00
  0.00000000E+00  0.00000000E+00  0.00000000E+00
  0.00000000E+00  0.00000000E+00  0.00000000E+00
  0.00000000E+00  0.00000000E+00  0.00000000E+00
  0.00000000E+00  0.00000000E+00  0.00000000E+00
  0.00000000E+00  0.00000000E+00  0.00000000E+00
  0.00000000E+00  0.00000000E+00  0.00000000E+00
  0.00000000E+00  0.00000000E+00  0.00000000E+00
  0.00000000E+00  0.00000000E+00  0.00000000E+00
  0.00000000E+00  0.00000000E+00  0.00000000E+00
  0.00000000E+00  0.00000000E+00  0.00000000E+00
  0.00000000E+00  0.00000000E+00  0.00000000E+00
  0.00000000E+00  0.00000000E+00  0.00000000E+00
  0.00000000E+00  0.00000000E+00  0.00000000E+00
  0.00000000E+00  0.00000000E+00  0.00000000E+00
  0.00000000E+00  0.00000000E+00  0.00000000E+00
  0.00000000E+00  0.00000000E+00  0.00000000E+00
  0.00000000E+00  0.00000000E+00  0.00000000E+00
  0.00000000E+00  0.00000000E+00  0.00000000E+00
  0.00000000E+00  0.00000000E+00  0.00000000E+00
  0.00000000E+00  0.00000000E+00  0.00000000E+00
  0.00000000E+00  0.00000000E+00  0.00000000E+00
  0.00000000E+00  0.00000000E+00  0.00000000E+00
  0.00000000E+00  0.00000000E+00  0.00000000E+00
  0.00000000E+00  0.00000000E+00  0.00000000E+00
  0.00000000E+00  0.00000000E+00  0.00000000E+00
  0.00000000E+00  0.00000000E+00  0.00000000E+00
  0.00000000E+00  0.00000000E+00  0.00000000E+00
  0.00000000E+00  0.00000000E+00  0.00000000E+00
  0.00000000E+00  0.00000000E+00  0.00000000E+00
  0.00000000E+00  0.00000000E+00  0.00000000E+00
  0.00000000E+00  0.00000000E+00  0.00000000E+00
  0.00000000E+00  0.00000000E+00  0.00000000E+00
  0.00000000E+00  0.00000000E+00  0.00000000E+00
  0.00000000E+00  0.00000000E+00  0.00000000E+00
  0.00000000E+00  0.00000000E+00  0.00000000E+00
  0.00000000E+00  0.00000000E+00  0.00000000E+00
  0.00000000E+00  0.00000000E+00  0.00000000E+00
  0.00000000E+00  0.00000000E+00  0.00000000E+00
  0.00000000E+00  0.00000000E+00  0.00000000E+00
  0.00000000E+00  0.00000000E+00  0.00000000E+00
  0.00000000E+00  0.00000000E+00  0.00000000E+00
  0.00000000E+00  0.00000000E+00  0.00000000E+00
  0.00000000E+00  0.00000000E+00  0.00000000E+00
  0.00000000E+00  0.00000000E+00  0.00000000E+00
