16x16x16      Comment
 0            0 = automatic generation of k-points
Monkhorst     M use Monkhorst Pack
 3 3 3        grid 16x16x16
 0 0 0        shift (usually 0 0 0)

