#POSCAR file
   1.00000000000000     
       12.66065343985      0.00000000000      0.00000000000
        0.00000000000     12.66065343985      0.00000000000
        0.00000000000      0.00000000000     12.66065343985
    V     Nb 
   64   64
Direct
0.00000000000 0.75000000000 0.50000000000
0.12500000000 0.12500000000 0.62500000000
0.62500000000 0.37500000000 0.87500000000
0.12500000000 0.87500000000 0.62500000000
0.37500000000 0.62500000000 0.87500000000
0.25000000000 0.00000000000 0.50000000000
0.12500000000 0.87500000000 0.87500000000
0.75000000000 0.25000000000 0.75000000000
0.00000000000 0.00000000000 0.75000000000
0.87500000000 0.87500000000 0.62500000000
0.75000000000 0.00000000000 0.75000000000
0.87500000000 0.37500000000 0.62500000000
0.00000000000 0.75000000000 0.75000000000
0.37500000000 0.12500000000 0.62500000000
0.75000000000 0.75000000000 0.75000000000
0.25000000000 0.75000000000 0.75000000000
0.62500000000 0.62500000000 0.87500000000
0.87500000000 0.37500000000 0.87500000000
0.87500000000 0.12500000000 0.87500000000
0.12500000000 0.12500000000 0.87500000000
0.62500000000 0.87500000000 0.62500000000
0.37500000000 0.87500000000 0.62500000000
0.87500000000 0.62500000000 0.62500000000
0.50000000000 0.00000000000 0.75000000000
0.50000000000 0.25000000000 0.00000000000
0.25000000000 0.25000000000 0.75000000000
0.50000000000 0.25000000000 0.50000000000
0.87500000000 0.62500000000 0.87500000000
0.75000000000 0.00000000000 0.50000000000
0.62500000000 0.87500000000 0.87500000000
0.00000000000 0.00000000000 0.00000000000
0.87500000000 0.87500000000 0.87500000000
0.50000000000 0.75000000000 0.75000000000
0.37500000000 0.87500000000 0.87500000000
0.00000000000 0.25000000000 0.00000000000
0.75000000000 0.50000000000 0.75000000000
0.25000000000 0.50000000000 0.00000000000
0.00000000000 0.50000000000 0.75000000000
0.12500000000 0.37500000000 0.87500000000
0.00000000000 0.25000000000 0.75000000000
0.37500000000 0.12500000000 0.87500000000
0.25000000000 0.00000000000 0.75000000000
0.62500000000 0.62500000000 0.12500000000
0.75000000000 0.50000000000 0.00000000000
0.62500000000 0.37500000000 0.37500000000
0.50000000000 0.75000000000 0.50000000000
0.37500000000 0.37500000000 0.12500000000
0.25000000000 0.00000000000 0.00000000000
0.75000000000 0.50000000000 0.50000000000
0.62500000000 0.62500000000 0.62500000000
0.37500000000 0.62500000000 0.37500000000
0.50000000000 0.50000000000 0.25000000000
0.25000000000 0.50000000000 0.50000000000
0.12500000000 0.62500000000 0.62500000000
0.75000000000 0.00000000000 0.00000000000
0.50000000000 0.50000000000 0.75000000000
0.50000000000 0.75000000000 0.00000000000
0.37500000000 0.37500000000 0.62500000000
0.00000000000 0.25000000000 0.50000000000
0.87500000000 0.12500000000 0.62500000000
0.75000000000 0.75000000000 0.00000000000
0.62500000000 0.12500000000 0.62500000000
0.87500000000 0.87500000000 0.12500000000
0.12500000000 0.12500000000 0.12500000000
0.75000000000 0.75000000000 0.25000000000
0.62500000000 0.87500000000 0.37500000000
0.50000000000 0.75000000000 0.25000000000
0.37500000000 0.87500000000 0.37500000000
0.62500000000 0.87500000000 0.12500000000
0.75000000000 0.25000000000 0.00000000000
0.25000000000 0.75000000000 0.25000000000
0.12500000000 0.87500000000 0.37500000000
0.00000000000 0.75000000000 0.25000000000
0.87500000000 0.62500000000 0.37500000000
0.37500000000 0.87500000000 0.12500000000
0.62500000000 0.37500000000 0.12500000000
0.75000000000 0.50000000000 0.25000000000
0.62500000000 0.62500000000 0.37500000000
0.25000000000 0.75000000000 0.00000000000
0.12500000000 0.87500000000 0.12500000000
0.25000000000 0.50000000000 0.25000000000
0.12500000000 0.62500000000 0.37500000000
0.00000000000 0.75000000000 0.00000000000
0.00000000000 0.50000000000 0.25000000000
0.87500000000 0.37500000000 0.37500000000
0.87500000000 0.62500000000 0.12500000000
0.62500000000 0.12500000000 0.12500000000
0.75000000000 0.75000000000 0.50000000000
0.75000000000 0.25000000000 0.25000000000
0.25000000000 0.75000000000 0.50000000000
0.50000000000 0.25000000000 0.25000000000
0.37500000000 0.37500000000 0.37500000000
0.25000000000 0.25000000000 0.00000000000
0.25000000000 0.25000000000 0.25000000000
0.50000000000 0.50000000000 0.50000000000
0.37500000000 0.62500000000 0.62500000000
0.12500000000 0.37500000000 0.37500000000
0.50000000000 0.50000000000 0.00000000000
0.00000000000 0.25000000000 0.25000000000
0.00000000000 0.50000000000 0.50000000000
0.62500000000 0.12500000000 0.87500000000
0.87500000000 0.12500000000 0.37500000000
0.37500000000 0.62500000000 0.12500000000
0.12500000000 0.37500000000 0.12500000000
0.50000000000 0.00000000000 0.00000000000
0.75000000000 0.25000000000 0.50000000000
0.37500000000 0.37500000000 0.87500000000
0.50000000000 0.25000000000 0.75000000000
0.62500000000 0.37500000000 0.62500000000
0.75000000000 0.00000000000 0.25000000000
0.62500000000 0.12500000000 0.37500000000
0.25000000000 0.25000000000 0.50000000000
0.12500000000 0.62500000000 0.87500000000
0.25000000000 0.50000000000 0.75000000000
0.12500000000 0.37500000000 0.62500000000
0.50000000000 0.00000000000 0.25000000000
0.37500000000 0.12500000000 0.37500000000
0.12500000000 0.62500000000 0.12500000000
0.25000000000 0.00000000000 0.25000000000
0.50000000000 0.00000000000 0.50000000000
0.12500000000 0.12500000000 0.37500000000
0.00000000000 0.50000000000 0.00000000000
0.00000000000 0.00000000000 0.25000000000
0.00000000000 0.00000000000 0.50000000000
0.87500000000 0.87500000000 0.37500000000
0.87500000000 0.37500000000 0.12500000000
0.87500000000 0.12500000000 0.12500000000
0.37500000000 0.12500000000 0.12500000000
