Hf Ti                                   
    1.000000000000000     
    12.1768973877772613    0.0011358669090369    0.0014767692210849
    -6.0874557425693814   10.5533759134203393    0.0042068871477139
     0.0023634434212282    0.0090992893161046   19.2307331680611497
  Hf              Ti            
    48    80
Direct
     0.6661353614260800    0.0826043445642701    0.1866191468666782
     0.3334914972994957    0.4146166223845165    0.0616790247860200
     0.5886880680757089    0.6710960396053051    0.8101671920191728
     0.8370127620592928    0.6688357573636939    0.0580269434360780
     0.9120889529760609    0.8331951716071421    0.1885971512561432
     0.1678708143025407    0.0797593771645120    0.4401474456010181
     0.1646331878120925    0.3245459625568460    0.9358598385045054
     0.8304553749858985    0.1640929544586094    0.3181504205048655
     0.4196493842619770    0.0846050372523054    0.1817858354071273
     0.3384809569102394    0.4155986351987079    0.8092075762069547
     0.4214967567434082    0.8358707681563053    0.9327884845120241
     0.3344596080781962    0.1660744770266936    0.3120347545271185
     0.0790704446992076    0.4104791089345956    0.8071776332591089
     0.9150278442142679    0.3333183056276979    0.1907326651753888
     0.5826196236763355    0.4190761659830065    0.5655307008111806
     0.1668072620250181    0.8326849418094235    0.1845708927609066
     0.0863102845319586    0.9216639685957674    0.8110729470310767
     0.4173125838039743    0.0846647353322837    0.6901760783002510
     0.3316373571588843    0.9106387318761585    0.3149249063576092
     0.3301130268676430    0.6710096679931916    0.0631551387805644
     0.1641749860594892    0.5834719093786390    0.9360163105369522
     0.0888583537019024    0.4214650921116701    0.5623212241702586
     0.0815880345065027    0.6710448174628588    0.8088446492399683
     0.0795083747462678    0.4149314843733326    0.0652988387467923
     0.0860333299267459    0.1661969891572689    0.5675664271202945
     0.5899923988346772    0.6713284655241438    0.0585254134690204
     0.6715732194098610    0.3318860709585443    0.4406641571495900
     0.5853975060325087    0.4132423011260206    0.0616896696274626
     0.9152189649818550    0.0816452613549462    0.1835810996068831
     0.0869057891990225    0.6725550988922335    0.5653030619389310
     0.9086619676882526    0.3267144704991113    0.9355728559480699
     0.4143957789354045    0.5821890956345278    0.4443014644764475
     0.4159974553992388    0.5855551447130494    0.1886469160157258
     0.6679869179663335    0.8340186833037044    0.4437501881853542
     0.0808535954868874    0.1646812372595433    0.3119539690355183
     0.9176889306111814    0.5840667371550570    0.4394452658574317
     0.5892686847835532    0.6693879948526658    0.3138256599554501
     0.8255425878527693    0.1629796862999386    0.5656442616478311
     0.4157990356195508    0.0835388418551360    0.9332765924645861
     0.3378673325112289    0.6681935142251332    0.8061727827135505
     0.3320391082534161    0.4174072343090612    0.3149660764773567
     0.5851762444143477    0.1682001300775220    0.3128471577149913
     0.9141765258571488    0.5797217611428241    0.1881786099049552
     0.8264572443441731    0.4169315790988913    0.8094892556434330
     0.9168058784355464    0.0802239307114602    0.4418873768935858
     0.3254808038011417    0.1640209596035085    0.0585386718493256
     0.4181746427558597    0.0823947832381624    0.4439570005845362
     0.5867007284943316    0.9216371473630003    0.0604352412149218
     0.3342328074311232    0.1672360094454634    0.5669364017292168
     0.5896997196499003    0.4221252135975065    0.3140310674636295
     0.0824009251391163    0.6643766422960130    0.3136302648664016
     0.8353894683609253    0.4211356641317329    0.3145331260636249
     0.9107606581771852    0.5846363927957019    0.6855801257232514
     0.1657615257212642    0.0848393198204013    0.1852626323945278
     0.1707319042821283    0.8371097520524475    0.6868642593479266
     0.9210028975250564    0.3403136393967136    0.4385982019460658
     0.8327630339698284    0.6659410313537437    0.3158468630050761
     0.4138392033226736    0.3320492252375837    0.6861223177003775
     0.9115889289946721    0.8332244388015971    0.9333401891498510
     0.3323047682007617    0.6688147118830752    0.3161364323459752
     0.6666515443109445    0.3293458917967065    0.6865776125692187
     0.8324026979808683    0.9140533058626824    0.3150332055122886
     0.5888350304129176    0.1678253412139538    0.8125103703863105
     0.4184403859202023    0.5816135413214775    0.6825980740268941
     0.6664629664724736    0.8382835973492163    0.6860456753401406
     0.3317527749626273    0.4122350900138524    0.5655006998731607
     0.9164620652785216    0.0815320865129422    0.6905496963503330
     0.0795225565087771    0.1619151546011352    0.8095482199107400
     0.5795613304633298    0.4073960644597439    0.8089248558732330
     0.6573916660909869    0.0762234671217326    0.4417440379964827
     0.1658262473002328    0.3340880161000319    0.4385347892162386
     0.6723676267176518    0.0827552725206280    0.9326306733538070
     0.8294116672298278    0.4128659853504423    0.0598081990121353
     0.8329970871220530    0.1643834441753854    0.0574849152387888
     0.6753781030942516    0.8395486655760311    0.9330921559974539
     0.1620421802228136    0.8340374437868385    0.9398059342633717
     0.8359244996539965    0.9138173834426343    0.5686007198517103
     0.3313648415164917    0.9155134695021633    0.5652728017504171
     0.9162780297759461    0.8305988753676745    0.4408759586563830
     0.4177657755377919    0.8354917886519838    0.6853280968440270
     0.0793634583707217    0.6640572391491469    0.0604642135709648
     0.9143789061029276    0.8304955864055961    0.6872929780469118
     0.4170720787133851    0.8307135590657001    0.1906348018848465
     0.5945735272548398    0.1725516308562807    0.0555529151381242
     0.5758595014649099    0.9165463302220693    0.5655984257195766
     0.8334113494611224    0.4171746637554156    0.5669840362723073
     0.1716283291252243    0.5900900392124629    0.4365533669673438
     0.5872692582079034    0.6686068556865254    0.5683743741245955
     0.6681273472333547    0.8342305456805347    0.1879514348167927
     0.0771491269476496    0.1593408393158174    0.0594646771580310
     0.5888351567689816    0.9253292200631145    0.8082583894344597
     0.4248512914589911    0.3384677579109775    0.9337817945979143
     0.5828434819191533    0.1630940769187304    0.5676761823725947
     0.1684668308807747    0.5837133426806067    0.6850479940411028
     0.0804524875892580    0.9209182893137595    0.0591415097018864
     0.0841013265956903    0.9151410238259621    0.5661706783954852
     0.8306252703719089    0.6710742802524001    0.5654859320004101
     0.1679945378397533    0.3304534893523557    0.1880118776799241
     0.6655089771522227    0.5793684013696634    0.1895035744959459
     0.0774628207427883    0.9085660019164291    0.3148563449929583
     0.6661145310830490    0.0830420937868470    0.6893632761652816
     0.0868620152940999    0.4236473927129056    0.3160179897708978
     0.3314001715810411    0.1719860210680929    0.8117618749979023
     0.8318512751062120    0.6668774925855521    0.8105508188663638
     0.1684328236537525    0.3327058296533938    0.6870968824561013
     0.3377997849482418    0.6738250787212992    0.5659708051676490
     0.1592385403718699    0.0804524255624078    0.9354917460823799
     0.8357671410659927    0.9205968518847180    0.0566533181688533
     0.8327919905173869    0.9195640848252657    0.8092135171277322
     0.6713298937065293    0.5856518033095277    0.6880163649208769
     0.5807375715354394    0.9111742375469953    0.3155552375815350
     0.1637884197623674    0.8302696596201036    0.4385093421817224
     0.1680217038547621    0.0855815190330718    0.6887417730243098
     0.6679255653796485    0.5851346295825716    0.4406003191911319
     0.3332593134774344    0.9159322291361071    0.0587101862676866
     0.9147255915453968    0.3328588734257968    0.6858166449680456
     0.4153306080220740    0.3332609916683937    0.4408375172321595
     0.6661522724038710    0.3357146053482369    0.1879620486717764
     0.9159552258588788    0.5872092960162884    0.9357319435911957
     0.4131120713908991    0.8296703014424491    0.4420590273525196
     0.6655499122003342    0.3375109531927223    0.9347867092991011
     0.4202000136300154    0.5841095194476792    0.9349036961536711
     0.6676759868136908    0.5781248557719080    0.9318827965919789
     0.8303092657686021    0.1605139554108437    0.8086516870466289
     0.3325817116159117    0.9166107057946641    0.8101419607314044
     0.1694744327646455    0.5857010573832966    0.1925702317091330
     0.9148185193554348    0.0772380623579759    0.9331702830633712
     0.4198189412261861    0.3357160280452430    0.1899729521543468
 
  0.00000000E+00  0.00000000E+00  0.00000000E+00
  0.00000000E+00  0.00000000E+00  0.00000000E+00
  0.00000000E+00  0.00000000E+00  0.00000000E+00
  0.00000000E+00  0.00000000E+00  0.00000000E+00
  0.00000000E+00  0.00000000E+00  0.00000000E+00
  0.00000000E+00  0.00000000E+00  0.00000000E+00
  0.00000000E+00  0.00000000E+00  0.00000000E+00
  0.00000000E+00  0.00000000E+00  0.00000000E+00
  0.00000000E+00  0.00000000E+00  0.00000000E+00
  0.00000000E+00  0.00000000E+00  0.00000000E+00
  0.00000000E+00  0.00000000E+00  0.00000000E+00
  0.00000000E+00  0.00000000E+00  0.00000000E+00
  0.00000000E+00  0.00000000E+00  0.00000000E+00
  0.00000000E+00  0.00000000E+00  0.00000000E+00
  0.00000000E+00  0.00000000E+00  0.00000000E+00
  0.00000000E+00  0.00000000E+00  0.00000000E+00
  0.00000000E+00  0.00000000E+00  0.00000000E+00
  0.00000000E+00  0.00000000E+00  0.00000000E+00
  0.00000000E+00  0.00000000E+00  0.00000000E+00
  0.00000000E+00  0.00000000E+00  0.00000000E+00
  0.00000000E+00  0.00000000E+00  0.00000000E+00
  0.00000000E+00  0.00000000E+00  0.00000000E+00
  0.00000000E+00  0.00000000E+00  0.00000000E+00
  0.00000000E+00  0.00000000E+00  0.00000000E+00
  0.00000000E+00  0.00000000E+00  0.00000000E+00
  0.00000000E+00  0.00000000E+00  0.00000000E+00
  0.00000000E+00  0.00000000E+00  0.00000000E+00
  0.00000000E+00  0.00000000E+00  0.00000000E+00
  0.00000000E+00  0.00000000E+00  0.00000000E+00
  0.00000000E+00  0.00000000E+00  0.00000000E+00
  0.00000000E+00  0.00000000E+00  0.00000000E+00
  0.00000000E+00  0.00000000E+00  0.00000000E+00
  0.00000000E+00  0.00000000E+00  0.00000000E+00
  0.00000000E+00  0.00000000E+00  0.00000000E+00
  0.00000000E+00  0.00000000E+00  0.00000000E+00
  0.00000000E+00  0.00000000E+00  0.00000000E+00
  0.00000000E+00  0.00000000E+00  0.00000000E+00
  0.00000000E+00  0.00000000E+00  0.00000000E+00
  0.00000000E+00  0.00000000E+00  0.00000000E+00
  0.00000000E+00  0.00000000E+00  0.00000000E+00
  0.00000000E+00  0.00000000E+00  0.00000000E+00
  0.00000000E+00  0.00000000E+00  0.00000000E+00
  0.00000000E+00  0.00000000E+00  0.00000000E+00
  0.00000000E+00  0.00000000E+00  0.00000000E+00
  0.00000000E+00  0.00000000E+00  0.00000000E+00
  0.00000000E+00  0.00000000E+00  0.00000000E+00
  0.00000000E+00  0.00000000E+00  0.00000000E+00
  0.00000000E+00  0.00000000E+00  0.00000000E+00
  0.00000000E+00  0.00000000E+00  0.00000000E+00
  0.00000000E+00  0.00000000E+00  0.00000000E+00
  0.00000000E+00  0.00000000E+00  0.00000000E+00
  0.00000000E+00  0.00000000E+00  0.00000000E+00
  0.00000000E+00  0.00000000E+00  0.00000000E+00
  0.00000000E+00  0.00000000E+00  0.00000000E+00
  0.00000000E+00  0.00000000E+00  0.00000000E+00
  0.00000000E+00  0.00000000E+00  0.00000000E+00
  0.00000000E+00  0.00000000E+00  0.00000000E+00
  0.00000000E+00  0.00000000E+00  0.00000000E+00
  0.00000000E+00  0.00000000E+00  0.00000000E+00
  0.00000000E+00  0.00000000E+00  0.00000000E+00
  0.00000000E+00  0.00000000E+00  0.00000000E+00
  0.00000000E+00  0.00000000E+00  0.00000000E+00
  0.00000000E+00  0.00000000E+00  0.00000000E+00
  0.00000000E+00  0.00000000E+00  0.00000000E+00
  0.00000000E+00  0.00000000E+00  0.00000000E+00
  0.00000000E+00  0.00000000E+00  0.00000000E+00
  0.00000000E+00  0.00000000E+00  0.00000000E+00
  0.00000000E+00  0.00000000E+00  0.00000000E+00
  0.00000000E+00  0.00000000E+00  0.00000000E+00
  0.00000000E+00  0.00000000E+00  0.00000000E+00
  0.00000000E+00  0.00000000E+00  0.00000000E+00
  0.00000000E+00  0.00000000E+00  0.00000000E+00
  0.00000000E+00  0.00000000E+00  0.00000000E+00
  0.00000000E+00  0.00000000E+00  0.00000000E+00
  0.00000000E+00  0.00000000E+00  0.00000000E+00
  0.00000000E+00  0.00000000E+00  0.00000000E+00
  0.00000000E+00  0.00000000E+00  0.00000000E+00
  0.00000000E+00  0.00000000E+00  0.00000000E+00
  0.00000000E+00  0.00000000E+00  0.00000000E+00
  0.00000000E+00  0.00000000E+00  0.00000000E+00
  0.00000000E+00  0.00000000E+00  0.00000000E+00
  0.00000000E+00  0.00000000E+00  0.00000000E+00
  0.00000000E+00  0.00000000E+00  0.00000000E+00
  0.00000000E+00  0.00000000E+00  0.00000000E+00
  0.00000000E+00  0.00000000E+00  0.00000000E+00
  0.00000000E+00  0.00000000E+00  0.00000000E+00
  0.00000000E+00  0.00000000E+00  0.00000000E+00
  0.00000000E+00  0.00000000E+00  0.00000000E+00
  0.00000000E+00  0.00000000E+00  0.00000000E+00
  0.00000000E+00  0.00000000E+00  0.00000000E+00
  0.00000000E+00  0.00000000E+00  0.00000000E+00
  0.00000000E+00  0.00000000E+00  0.00000000E+00
  0.00000000E+00  0.00000000E+00  0.00000000E+00
  0.00000000E+00  0.00000000E+00  0.00000000E+00
  0.00000000E+00  0.00000000E+00  0.00000000E+00
  0.00000000E+00  0.00000000E+00  0.00000000E+00
  0.00000000E+00  0.00000000E+00  0.00000000E+00
  0.00000000E+00  0.00000000E+00  0.00000000E+00
  0.00000000E+00  0.00000000E+00  0.00000000E+00
  0.00000000E+00  0.00000000E+00  0.00000000E+00
  0.00000000E+00  0.00000000E+00  0.00000000E+00
  0.00000000E+00  0.00000000E+00  0.00000000E+00
  0.00000000E+00  0.00000000E+00  0.00000000E+00
  0.00000000E+00  0.00000000E+00  0.00000000E+00
  0.00000000E+00  0.00000000E+00  0.00000000E+00
  0.00000000E+00  0.00000000E+00  0.00000000E+00
  0.00000000E+00  0.00000000E+00  0.00000000E+00
  0.00000000E+00  0.00000000E+00  0.00000000E+00
  0.00000000E+00  0.00000000E+00  0.00000000E+00
  0.00000000E+00  0.00000000E+00  0.00000000E+00
  0.00000000E+00  0.00000000E+00  0.00000000E+00
  0.00000000E+00  0.00000000E+00  0.00000000E+00
  0.00000000E+00  0.00000000E+00  0.00000000E+00
  0.00000000E+00  0.00000000E+00  0.00000000E+00
  0.00000000E+00  0.00000000E+00  0.00000000E+00
  0.00000000E+00  0.00000000E+00  0.00000000E+00
  0.00000000E+00  0.00000000E+00  0.00000000E+00
  0.00000000E+00  0.00000000E+00  0.00000000E+00
  0.00000000E+00  0.00000000E+00  0.00000000E+00
  0.00000000E+00  0.00000000E+00  0.00000000E+00
  0.00000000E+00  0.00000000E+00  0.00000000E+00
  0.00000000E+00  0.00000000E+00  0.00000000E+00
  0.00000000E+00  0.00000000E+00  0.00000000E+00
  0.00000000E+00  0.00000000E+00  0.00000000E+00
  0.00000000E+00  0.00000000E+00  0.00000000E+00
  0.00000000E+00  0.00000000E+00  0.00000000E+00
  0.00000000E+00  0.00000000E+00  0.00000000E+00
  0.00000000E+00  0.00000000E+00  0.00000000E+00
