Hf Nb                                   
    1.000000000000000     
    13.4900500989880001    0.0454133536755188    0.0772505394945398
    -6.8111230520909478    9.5034389035736222   -0.0276160534905048
    -0.1762201545009318    0.0229653855616606   19.1780648714233095
  Hf             Nb           
              40              88
Direct
  0.3129917727717638  0.3827213697538439  0.8085631615510683
  0.0543178360086946  0.8686600588060152  0.0595291133212285
  0.8156061322676518  0.6244980296585406  0.8137695952932485
  0.9437278934805549  0.3758566112275668  0.6898660716179641
  0.8105537054527219  0.6319811891630157  0.5643093421518942
  0.5719479506140797  0.1366882306376099  0.8118048401424441
  0.9396182723587214  0.8759434233761957  0.6871526664539402
  0.3094998507986553  0.6164187434230221  0.3125811844123847
  0.5673428559169624  0.1263955370561973  0.0577328009203550
  0.4384269594883501  0.0868605877240981  0.1901677553035678
  0.3132422872241415  0.6252432334683388  0.0569293457283334
  0.5690052013950145  0.8769440818520818  0.3145320095885198
  0.3238765547143568  0.1223217347291411  0.0593974489775848
  0.5791620004862640  0.1449026345032726  0.3188869069438141
  0.1886544130315227  0.3755550277293343  0.1916755082486015
  0.3162803773592776  0.3681650823348408  0.0658443529357118
  0.1812025251430899  0.8845894248262872  0.1933111933884196
  0.6943279472563574  0.6363026311400772  0.1861078438894841
  0.3109036754025503  0.8698310151644123  0.8105285625763128
  0.9392118709691585  0.3730216642109950  0.4308671048425615
  0.6700136072804586  0.6203542148467527  0.6919267155970260
  0.4395361333320397  0.1390603493286414  0.4443128346285154
  0.4228269528217746  0.1156440184548502  0.6864220367283395
  0.1851822860866989  0.3761598200505222  0.9399032694967223
  0.4372896020486639  0.3658271158796069  0.1961616115244063
  0.1868486863182228  0.8702670344382794  0.4326215009174423
  0.1837998990802475  0.1300938284439310  0.4385407209550013
  0.9367929598964932  0.6210625703360892  0.1861517492571822
  0.3107620663304347  0.1271691568446189  0.8191118945971354
  0.0563914310206901  0.1267545516270778  0.5684689246940081
  0.6797808753318311  0.3645811326233478  0.1875071839420562
  0.5657370257750349  0.1203860465659381  0.5666899581084452
  0.8109933804012616  0.8767304704009719  0.3148967894997186
  0.3114572886124859  0.1214113866104422  0.3101295680934348
  0.1785246116012356  0.3735682127252511  0.6829675322861414
  0.6947317104469871  0.3738481557056483  0.6894027111181641
  0.4403431212245510  0.3668932916253252  0.9349562916568189
  0.8245932694882694  0.3831154509670940  0.5572223956603287
  0.8161146029431487  0.8729611494432079  0.0625853162037370
  0.1770862041589507  0.6252972725002323  0.1841814855581899
  0.9522058841324911  0.6319276628503649  0.6863885943985115
  0.5519149036818926  0.3705097376599151  0.5617400933130194
  0.8137077654924874  0.6234841997501062  0.3159495287848721
  0.5588310876388879  0.6264082741302129  0.5618491266774108
  0.9311860366839387  0.6232012257887209  0.4379181148110962
  0.4402310604077744  0.8516689144016274  0.1803077819054566
  0.6863225497123836  0.8750693640552392  0.4424982053454887
  0.6872973113975001  0.6339509922782325  0.4368925304134282
  0.3134368395734033  0.3808071595351030  0.5597743488989998
  0.1942726362833032  0.6274989778734046  0.4415164133829123
  0.8121889852076475  0.1235766410665416  0.8145149399504066
  0.6909935265181517  0.3830682652917037  0.4376517265781708
  0.6914524468870109  0.8859727589562744  0.1849942995154902
  0.5718383309593824  0.3914000991135302  0.0607794615368451
  0.4515530879110594  0.6320025745842920  0.1855939669516291
  0.0456041387206145  0.8717317926119780  0.3155840881794301
  0.5600058284029577  0.3876667663283189  0.8041591358918941
  0.4400483183664096  0.8717771649904877  0.6834465489887408
  0.4380297118941984  0.1050842955776570  0.9342341036601085
  0.4402319864652326  0.6293675404169369  0.4396826348366771
  0.6951641687569323  0.1251927116410227  0.9349977680294285
  0.9324964726348390  0.8680866698624172  0.9314883495853479
  0.6893876544587874  0.3745605854691943  0.9348871378084934
  0.0675677327528484  0.6294254830770630  0.3173026111769371
  0.4434182612755276  0.6310279212681309  0.9321802575328817
  0.1697780174474172  0.1100122254903244  0.9390646099736534
  0.1787563904535575  0.1280396953293007  0.1817738759987946
  0.0571743525710160  0.3696067360601668  0.3103278591765664
  0.3243804530398112  0.8729257910767234  0.3095698107501077
  0.8166619927122269  0.1366884797893898  0.3139586995855929
  0.0620221035949178  0.1332418060730777  0.3104936251101484
  0.4426756739557492  0.8757767368250587  0.9381404774499941
  0.6849889506554524  0.8779623427838936  0.6892677859715506
  0.8010310048814154  0.8747741167304882  0.5620403756972336
  0.1880968939052757  0.6318978115433450  0.9302878074761755
  0.4379451016189865  0.6288515670293040  0.6883010159588886
  0.9408024521531624  0.3731669908963215  0.9367956053345670
  0.0606855656171256  0.1339905956474091  0.0605786160355141
  0.9238605101203414  0.1161943951175855  0.6951744331428669
  0.5719310432917527  0.8750848400535409  0.0580859056603251
  0.0577081009901238  0.6194251426221120  0.8119309234570051
  0.0706850718281797  0.6362661591091786  0.5601579298910035
  0.4263429561308213  0.3730900719434104  0.6818343254853029
  0.9521232732676529  0.8903680881436841  0.1920930251753185
  0.8177489322599873  0.3783160486893526  0.0581276326006486
  0.1945868803195468  0.1289507338838550  0.6889587538914194
  0.4401868627172711  0.3879264159016708  0.4420420959551793
  0.5652747344786113  0.6317370957716628  0.8182775740254341
  0.3122623887496500  0.6252165963409940  0.5625840193093609
  0.8108908281004890  0.8785444978884203  0.8147847503938536
  0.5613962638261500  0.6276792645689303  0.0579790370106364
  0.9394889642621831  0.6218946528555245  0.9386018418181254
  0.0617926097518513  0.3851570463995763  0.5574210084835670
  0.3106606736908891  0.6241931279421192  0.8106763900579125
  0.6919443701743693  0.6316374318174660  0.9401728349994475
  0.5705564439893668  0.3898172727601729  0.3229256564938472
  0.6898972755717446  0.1179958436026212  0.1869937523120320
  0.6889671493866684  0.8763478157473322  0.9363525840160130
  0.3068258333215099  0.3671579949324350  0.3245769435329848
  0.9315407320084628  0.1184163830390029  0.9385662578893881
  0.0645086190377800  0.8725145922591364  0.8154404815129984
  0.5563863340914372  0.8656182747882567  0.5620073498036735
  0.8118551617513555  0.1219177668319405  0.5618207725408264
  0.0648704310939382  0.3735674052788404  0.8149178923331484
  0.3049328306630900  0.1279464297727826  0.5648405633596821
  0.9318516869034769  0.3646626874257525  0.1847214335167344
  0.3055617046361283  0.8666371536358742  0.0592570736493338
  0.9326608552341239  0.8700240607603722  0.4435893644386443
  0.0547690873372493  0.3718302545863048  0.0630206844927369
  0.0629184331821378  0.6185724492431702  0.0548871664121533
  0.0681566483555851  0.8781302563761622  0.5598037283901433
  0.9314939532746914  0.1220703491239504  0.1866959887607046
  0.1879525270918405  0.8758127038515297  0.9365819650471217
  0.3111770743724397  0.8737216034250128  0.5632171864202155
  0.5557299931876780  0.6166891679554616  0.3150908631139392
  0.1968322664512428  0.6392076280640777  0.6882241738927515
  0.8098429021070167  0.1267862184601958  0.0607536573348011
  0.6878095005022563  0.1184196370005269  0.4414366292736351
  0.8258407856603847  0.3955925634968476  0.3086366258350882
  0.9335387277254098  0.1164564213333678  0.4356635532664773
  0.1764486230205099  0.8699624397478219  0.6861558274145494
  0.1833127369836359  0.3797747935352063  0.4389970003381028
  0.4350127491867380  0.8752416459002762  0.4393729131551770
  0.0587005225189866  0.1196774515994543  0.8141978261643567
  0.8059375906482631  0.6066242920798107  0.0566238044643166
  0.5600503321792120  0.8712949788273934  0.8117609670938271
  0.6877620274763038  0.1082255156804583  0.6889249713980888
  0.8243233699283844  0.3761169737735158  0.8203926294924493
 
  0.00000000E+00  0.00000000E+00  0.00000000E+00
  0.00000000E+00  0.00000000E+00  0.00000000E+00
  0.00000000E+00  0.00000000E+00  0.00000000E+00
  0.00000000E+00  0.00000000E+00  0.00000000E+00
  0.00000000E+00  0.00000000E+00  0.00000000E+00
  0.00000000E+00  0.00000000E+00  0.00000000E+00
  0.00000000E+00  0.00000000E+00  0.00000000E+00
  0.00000000E+00  0.00000000E+00  0.00000000E+00
  0.00000000E+00  0.00000000E+00  0.00000000E+00
  0.00000000E+00  0.00000000E+00  0.00000000E+00
  0.00000000E+00  0.00000000E+00  0.00000000E+00
  0.00000000E+00  0.00000000E+00  0.00000000E+00
  0.00000000E+00  0.00000000E+00  0.00000000E+00
  0.00000000E+00  0.00000000E+00  0.00000000E+00
  0.00000000E+00  0.00000000E+00  0.00000000E+00
  0.00000000E+00  0.00000000E+00  0.00000000E+00
  0.00000000E+00  0.00000000E+00  0.00000000E+00
  0.00000000E+00  0.00000000E+00  0.00000000E+00
  0.00000000E+00  0.00000000E+00  0.00000000E+00
  0.00000000E+00  0.00000000E+00  0.00000000E+00
  0.00000000E+00  0.00000000E+00  0.00000000E+00
  0.00000000E+00  0.00000000E+00  0.00000000E+00
  0.00000000E+00  0.00000000E+00  0.00000000E+00
  0.00000000E+00  0.00000000E+00  0.00000000E+00
  0.00000000E+00  0.00000000E+00  0.00000000E+00
  0.00000000E+00  0.00000000E+00  0.00000000E+00
  0.00000000E+00  0.00000000E+00  0.00000000E+00
  0.00000000E+00  0.00000000E+00  0.00000000E+00
  0.00000000E+00  0.00000000E+00  0.00000000E+00
  0.00000000E+00  0.00000000E+00  0.00000000E+00
  0.00000000E+00  0.00000000E+00  0.00000000E+00
  0.00000000E+00  0.00000000E+00  0.00000000E+00
  0.00000000E+00  0.00000000E+00  0.00000000E+00
  0.00000000E+00  0.00000000E+00  0.00000000E+00
  0.00000000E+00  0.00000000E+00  0.00000000E+00
  0.00000000E+00  0.00000000E+00  0.00000000E+00
  0.00000000E+00  0.00000000E+00  0.00000000E+00
  0.00000000E+00  0.00000000E+00  0.00000000E+00
  0.00000000E+00  0.00000000E+00  0.00000000E+00
  0.00000000E+00  0.00000000E+00  0.00000000E+00
  0.00000000E+00  0.00000000E+00  0.00000000E+00
  0.00000000E+00  0.00000000E+00  0.00000000E+00
  0.00000000E+00  0.00000000E+00  0.00000000E+00
  0.00000000E+00  0.00000000E+00  0.00000000E+00
  0.00000000E+00  0.00000000E+00  0.00000000E+00
  0.00000000E+00  0.00000000E+00  0.00000000E+00
  0.00000000E+00  0.00000000E+00  0.00000000E+00
  0.00000000E+00  0.00000000E+00  0.00000000E+00
  0.00000000E+00  0.00000000E+00  0.00000000E+00
  0.00000000E+00  0.00000000E+00  0.00000000E+00
  0.00000000E+00  0.00000000E+00  0.00000000E+00
  0.00000000E+00  0.00000000E+00  0.00000000E+00
  0.00000000E+00  0.00000000E+00  0.00000000E+00
  0.00000000E+00  0.00000000E+00  0.00000000E+00
  0.00000000E+00  0.00000000E+00  0.00000000E+00
  0.00000000E+00  0.00000000E+00  0.00000000E+00
  0.00000000E+00  0.00000000E+00  0.00000000E+00
  0.00000000E+00  0.00000000E+00  0.00000000E+00
  0.00000000E+00  0.00000000E+00  0.00000000E+00
  0.00000000E+00  0.00000000E+00  0.00000000E+00
  0.00000000E+00  0.00000000E+00  0.00000000E+00
  0.00000000E+00  0.00000000E+00  0.00000000E+00
  0.00000000E+00  0.00000000E+00  0.00000000E+00
  0.00000000E+00  0.00000000E+00  0.00000000E+00
  0.00000000E+00  0.00000000E+00  0.00000000E+00
  0.00000000E+00  0.00000000E+00  0.00000000E+00
  0.00000000E+00  0.00000000E+00  0.00000000E+00
  0.00000000E+00  0.00000000E+00  0.00000000E+00
  0.00000000E+00  0.00000000E+00  0.00000000E+00
  0.00000000E+00  0.00000000E+00  0.00000000E+00
  0.00000000E+00  0.00000000E+00  0.00000000E+00
  0.00000000E+00  0.00000000E+00  0.00000000E+00
  0.00000000E+00  0.00000000E+00  0.00000000E+00
  0.00000000E+00  0.00000000E+00  0.00000000E+00
  0.00000000E+00  0.00000000E+00  0.00000000E+00
  0.00000000E+00  0.00000000E+00  0.00000000E+00
  0.00000000E+00  0.00000000E+00  0.00000000E+00
  0.00000000E+00  0.00000000E+00  0.00000000E+00
  0.00000000E+00  0.00000000E+00  0.00000000E+00
  0.00000000E+00  0.00000000E+00  0.00000000E+00
  0.00000000E+00  0.00000000E+00  0.00000000E+00
  0.00000000E+00  0.00000000E+00  0.00000000E+00
  0.00000000E+00  0.00000000E+00  0.00000000E+00
  0.00000000E+00  0.00000000E+00  0.00000000E+00
  0.00000000E+00  0.00000000E+00  0.00000000E+00
  0.00000000E+00  0.00000000E+00  0.00000000E+00
  0.00000000E+00  0.00000000E+00  0.00000000E+00
  0.00000000E+00  0.00000000E+00  0.00000000E+00
  0.00000000E+00  0.00000000E+00  0.00000000E+00
  0.00000000E+00  0.00000000E+00  0.00000000E+00
  0.00000000E+00  0.00000000E+00  0.00000000E+00
  0.00000000E+00  0.00000000E+00  0.00000000E+00
  0.00000000E+00  0.00000000E+00  0.00000000E+00
  0.00000000E+00  0.00000000E+00  0.00000000E+00
  0.00000000E+00  0.00000000E+00  0.00000000E+00
  0.00000000E+00  0.00000000E+00  0.00000000E+00
  0.00000000E+00  0.00000000E+00  0.00000000E+00
  0.00000000E+00  0.00000000E+00  0.00000000E+00
  0.00000000E+00  0.00000000E+00  0.00000000E+00
  0.00000000E+00  0.00000000E+00  0.00000000E+00
  0.00000000E+00  0.00000000E+00  0.00000000E+00
  0.00000000E+00  0.00000000E+00  0.00000000E+00
  0.00000000E+00  0.00000000E+00  0.00000000E+00
  0.00000000E+00  0.00000000E+00  0.00000000E+00
  0.00000000E+00  0.00000000E+00  0.00000000E+00
  0.00000000E+00  0.00000000E+00  0.00000000E+00
  0.00000000E+00  0.00000000E+00  0.00000000E+00
  0.00000000E+00  0.00000000E+00  0.00000000E+00
  0.00000000E+00  0.00000000E+00  0.00000000E+00
  0.00000000E+00  0.00000000E+00  0.00000000E+00
  0.00000000E+00  0.00000000E+00  0.00000000E+00
  0.00000000E+00  0.00000000E+00  0.00000000E+00
  0.00000000E+00  0.00000000E+00  0.00000000E+00
  0.00000000E+00  0.00000000E+00  0.00000000E+00
  0.00000000E+00  0.00000000E+00  0.00000000E+00
  0.00000000E+00  0.00000000E+00  0.00000000E+00
  0.00000000E+00  0.00000000E+00  0.00000000E+00
  0.00000000E+00  0.00000000E+00  0.00000000E+00
  0.00000000E+00  0.00000000E+00  0.00000000E+00
  0.00000000E+00  0.00000000E+00  0.00000000E+00
  0.00000000E+00  0.00000000E+00  0.00000000E+00
  0.00000000E+00  0.00000000E+00  0.00000000E+00
  0.00000000E+00  0.00000000E+00  0.00000000E+00
  0.00000000E+00  0.00000000E+00  0.00000000E+00
  0.00000000E+00  0.00000000E+00  0.00000000E+00
  0.00000000E+00  0.00000000E+00  0.00000000E+00
  0.00000000E+00  0.00000000E+00  0.00000000E+00
  0.00000000E+00  0.00000000E+00  0.00000000E+00
