 vasp.6.5.1 10Mar25 (build Aug 28 2025 04:51:22) complex                         
 executed on              LinuxNV date 2026.05.18  15:12:46
 running    4 mpi-ranks, with   16 threads/rank, on    1 nodes
 distrk:  each k-point on    4 cores,    1 groups
 distr:  one band on NCORE=   1 cores,    4 groups
 Offloading initialized ...    4 GPUs detected


--------------------------------------------------------------------------------------------------------


 INCAR:
   SYSTEM = bcc_NbZr_Zr128
   ISTART = 0
   ICHARG = 2
   ENCUT = 350.0
   PREC = Normal
   ISMEAR = 1
   SIGMA = 0.20
   EDIFF = 1E-06
   NELM = 120
   ALGO = Normal
   IBRION = 2
   NSW = 100
   ISIF = 3
   ISYM = 2
   LREAL = Auto
   LWAVE = .FALSE.
   LCHARG = .FALSE.

 POTCAR:    PAW_PBE Zr_sv 04Jan2005               
 POTCAR:    PAW_PBE Zr_sv 04Jan2005               
   SHA256 =  25aed69cb10325f9d37c5c68912b61a17387d1f8e4f1d804860ffa10c8a4bf76 Zr_sv/POTCAR          
   COPYR  = (c) Copyright 04Jan2005 Georg Kresse                                                    
   COPYR  = This file is part of the software VASP. Any use, copying, and all other rights are regul
   COPYR  = If you do not have a valid VASP license, you may not use, copy or distribute this file. 
   VRHFIN =Zr: 4s4p5s4d                                                                             
   LEXCH  = PE                                                                                      
   EATOM  =  1284.2219 eV,   94.3876 Ry                                                             
                                                                                                    
   TITEL  = PAW_PBE Zr_sv 04Jan2005                                                                 
   LULTRA =        F    use ultrasoft PP ?                                                          
   IUNSCR =        1    unscreen: 0-lin 1-nonlin 2-no                                               
   RPACOR =    2.200    partial core radius                                                         
   POMASS =   91.224; ZVAL   =   12.000    mass and valenz                                          
   RCORE  =    2.500    outmost cutoff radius                                                       
   RWIGS  =    3.070; RWIGS  =    1.625    wigner-seitz radius (au A)                               
   ENMAX  =  229.898; ENMIN  =  172.424 eV                                                          
   ICORE  =        3    local potential                                                             
   LCOR   =        T    correct aug charges                                                         
   LPAW   =        T    paw PP                                                                      
   EAUG   =  461.257                                                                                
   DEXC   =    0.000                                                                                
   RMAX   =    2.561    core radius for proj-oper                                                   
   RAUG   =    1.300    factor for augmentation sphere                                              
   RDEP   =    2.597    radius for radial grids                                                     
   RDEPT  =    2.007    core radius for aug-charge                                                  
                                                                                                    
   Atomic configuration                                                                             
   11 entries                                                                                       
     n  l   j            E        occ.                                                              
     1  0  0.50    -17820.0161   2.0000                                                             
     2  0  0.50     -2467.0882   2.0000                                                             
     2  1  1.50     -2199.6095   6.0000                                                             
     3  0  0.50      -402.4863   2.0000                                                             
     3  1  1.50      -315.3675   6.0000                                                             
     3  2  2.50      -172.4472  10.0000                                                             
     4  0  0.50       -52.4146   2.0000                                                             
     5  0  0.50        -3.8421   1.0000                                                             
     4  1  1.50       -30.5054   6.0000                                                             
     4  2  2.50        -2.3341   3.0000                                                             
     4  3  2.50        -1.3606   0.0000                                                             
   Description                                                                                      
     l       E           TYP  RCUT    TYP  RCUT                                                     
     0    -52.4145962     23  2.200                                                                 
     0     -3.8421270     23  2.500                                                                 
     1    -30.5053914     23  2.200                                                                 
     1     20.4087390     23  2.200                                                                 
     2     -2.3340816     23  2.500                                                                 
     2     -0.6120942     23  2.500                                                                 
     3     -4.0817478     23  2.500                                                                 
  local pseudopotential read in
  partial core-charges read in
  partial kinetic energy density read in
  atomic valenz-charges read in
  non local Contribution for L=            0  read in
    real space projection operators read in
  non local Contribution for L=            0  read in
    real space projection operators read in
  non local Contribution for L=            1  read in
    real space projection operators read in
  non local Contribution for L=            1  read in
    real space projection operators read in
  non local Contribution for L=            2  read in
    real space projection operators read in
  non local Contribution for L=            2  read in
    real space projection operators read in
    PAW grid and wavefunctions read in
 
   number of l-projection  operators is LMAX  =            6
   number of lm-projection operators is LMMAX =           18
 
 Optimization of the real space projectors (new method)

 maximal supplied QI-value         = 15.12
 optimisation between [QCUT,QGAM] = [  9.52, 19.05] = [ 25.40,101.61] Ry 
 Optimized for a Real-space Cutoff    1.52 Angstroem

   l    n(q)    QCUT    max X(q) W(low)/X(q) W(high)/X(q)  e(spline) 
   0      9     9.524    12.107    0.68E-04    0.15E-04    0.19E-07
   0      9     9.524     9.948    0.13E-03    0.43E-04    0.34E-07
   1      8     9.524     3.563    0.71E-04    0.50E-04    0.58E-07
   1      8     9.524     4.524    0.38E-03    0.30E-03    0.30E-06
   2      8     9.524    87.261    0.43E-03    0.18E-03    0.71E-07
   2      8     9.524    70.950    0.43E-03    0.17E-03    0.69E-07
  PAW_PBE Zr_sv 04Jan2005               :
 energy of atom  1       EATOM=-1284.2219
 kinetic energy error for atom=    0.0194 (will be added to EATOM!!)
 
 
 POSCAR: Zr
  positions in direct lattice
  velocities in cartesian coordinates


 exchange-correlation table for PE
   RHO(1)=    0.500       N(1)  =     2000
   RHO(2)=  100.500       N(2)  =     4000
 


--------------------------------------------------------------------------------------------------------


 ion  position               nearest neighbor table
   1  0.375  0.875  0.875-  40 2.88  92 2.88  28 2.88  53 2.88  45 2.88 112 2.88  10 2.88  16 2.88
                           101 3.32 113 3.32 118 3.32 122 3.32  52 3.32  60 3.32
   2  0.500  0.250  0.750- 117 2.88 103 2.88  20 2.88 122 2.88 111 2.88  89 2.88  39 2.88  30 2.88
                            73 3.32 116 3.32  15 3.32 108 3.32  82 3.32  92 3.32
   3  0.250  0.250  0.250-  98 2.88  71 2.88  19 2.88   7 2.88 126 2.88  14 2.88 123 2.88  56 2.88
                           115 3.32  31 3.32  21 3.32  74 3.32  49 3.32   6 3.32
   4  0.625  0.375  0.125-  15 2.88  31 2.88 104 2.88 119 2.88 106 2.88  88 2.88  44 2.88  75 2.88
                            19 3.32  91 3.32  63 3.32 111 3.32  54 3.32  62 3.32
   5  0.000  1.000  0.750- 127 2.88  48 2.88 118 2.88 102 2.88  22 2.88  94 2.88  42 2.88  29 2.88
                            27 3.32  85 3.32  70 3.32  90 3.32  45 3.32  25 3.32
   6  0.250  1.000  0.250-  14 2.88  46 2.88  56 2.88  79 2.88 114 2.88 126 2.88 123 2.88  60 2.88
                            80 3.32  38 3.32  36 3.32  28 3.32  35 3.32   3 3.32
   7  0.125  0.375  0.125- 115 2.88   3 2.88  21 2.88  58 2.88  11 2.88  50 2.88  49 2.88 125 2.88
                            71 3.32  12 3.32  19 3.32  99 3.32 126 3.32  62 3.32
   8  0.625  0.875  0.375-  80 2.88  77 2.88  81 2.88  24 2.88 124 2.88 110 2.88  61 2.88  93 2.88
                            79 3.32  55 3.32 121 3.32 100 3.32  68 3.32  13 3.32
   9  0.750  0.750  0.000-  63 2.88  78 2.88 101 2.88  55 2.88  95 2.88 102 2.88  65 2.88  86 2.88
                           106 3.32  16 3.32  81 3.32  97 3.32  67 3.32  17 3.32
  10  0.500  1.000  1.000- 101 2.88  91 2.88  55 2.88  20 2.88 122 2.88   1 2.88  60 2.88 123 2.88
                            67 3.32  92 3.32  28 3.32  80 3.32  16 3.32  15 3.32
  11  0.000  0.500  0.250-  71 2.88 109 2.88   7 2.88  12 2.88  78 2.88  72 2.88  62 2.88  37 2.88
                            23 3.32  83 3.32  49 3.32  50 3.32 115 3.32  75 3.32
  12  0.125  0.625  0.125-  38 2.88  58 2.88 115 2.88 112 2.88  50 2.88  11 2.88  17 2.88  23 2.88
                             7 3.32  76 3.32 109 3.32 114 3.32 128 3.32  78 3.32
  13  0.625  0.125  0.375-  80 2.88  44 2.88  31 2.88  61 2.88  24 2.88  93 2.88 108 2.88  32 2.88
                            14 3.32  91 3.32   8 3.32  54 3.32  26 3.32 103 3.32
  14  0.375  0.125  0.375-  31 2.88 108 2.88  93 2.88   6 2.88  74 2.88  80 2.88   3 2.88  36 2.88
                            13 3.32 123 3.32  98 3.32  79 3.32  89 3.32  56 3.32
  15  0.500  0.250  1.000-   4 2.88  39 2.88  20 2.88 123 2.88  91 2.88 122 2.88 111 2.88  19 2.88
                            21 3.32  88 3.32   2 3.32 104 3.32  31 3.32  10 3.32
  16  0.500  0.750  1.000-  52 2.88 101 2.88  63 2.88  60 2.88  76 2.88  65 2.88  55 2.88   1 2.88
                           104 3.32 112 3.32   9 3.32  53 3.32  77 3.32  10 3.32
  17  1.000  0.750  1.000- 102 2.88 114 2.88  78 2.88  86 2.88 128 2.88  95 2.88  12 2.88 118 2.88
                            50 3.32  85 3.32  23 3.32  27 3.32   9 3.32 112 3.32
  18  0.500  0.500  0.500-  54 2.88  33 2.88 117 2.88 121 2.88  30 2.88  87 2.88  98 2.88  64 2.88
                            41 3.32  69 3.32 108 3.32 110 3.32  82 3.32 119 3.32
  19  0.375  0.375  0.125- 115 2.88 119 2.88  58 2.88   3 2.88  21 2.88  31 2.88 104 2.88  15 2.88
                            98 3.32  76 3.32   4 3.32   7 3.32  39 3.32 123 3.32
  20  0.625  0.125  0.875-  88 2.88  15 2.88   2 2.88  10 2.88 116 2.88  67 2.88  25 2.88  92 2.88
                           122 3.32 111 3.32  91 3.32 103 3.32  29 3.32 101 3.32
  21  0.250  0.250  0.000-  19 2.88   7 2.88  39 2.88  99 2.88 126 2.88 123 2.88 127 2.88 122 2.88
                            58 3.32  15 3.32   3 3.32  73 3.32 125 3.32  28 3.32
  22  0.125  0.875  0.625-  45 2.88  36 2.88  47 2.88  40 2.88   5 2.88  85 2.88  70 2.88  51 2.88
                           113 3.32  48 3.32  34 3.32 118 3.32  46 3.32  94 3.32
  23  1.000  0.750  0.250-  78 2.88  95 2.88 100 2.88  37 2.88 109 2.88  46 2.88 114 2.88  12 2.88
                            11 3.32  51 3.32  81 3.32  17 3.32  35 3.32  38 3.32
  24  0.750  1.000  0.500-   8 2.88  26 2.88  13 2.88 100 2.88  68 2.88  94 2.88  42 2.88 103 2.88
                            61 3.32  93 3.32 124 3.32  32 3.32  70 3.32  25 3.32
  25  0.750  1.000  0.750- 101 2.88  29 2.88 102 2.88 103 2.88  20 2.88  68 2.88  42 2.88  94 2.88
                            67 3.32  92 3.32  97 3.32 116 3.32   5 3.32  24 3.32
  26  0.875  0.125  0.375-  35 2.88  61 2.88  44 2.88  70 2.88  24 2.88  49 2.88 120 2.88  32 2.88
                            84 3.32 100 3.32  56 3.32  42 3.32  72 3.32  13 3.32
  27  1.000  0.000  0.000- 102 2.88  84 2.88  95 2.88 126 2.88  29 2.88 114 2.88 127 2.88 118 2.88
                            35 3.32 125 3.32   5 3.32  67 3.32  17 3.32  28 3.32
  28  0.250  1.000  1.000-   1 2.88 118 2.88 122 2.88 127 2.88  60 2.88 114 2.88 123 2.88 126 2.88
                            10 3.32  45 3.32 112 3.32   6 3.32  21 3.32  27 3.32
  29  0.875  0.125  0.875-  88 2.88 125 2.88 116 2.88  90 2.88  25 2.88  67 2.88  27 2.88   5 2.88
                            43 3.32  84 3.32  20 3.32  42 3.32 102 3.32 127 3.32
  30  0.625  0.375  0.625-  66 2.88  41 2.88  82 2.88  18 2.88 116 2.88   2 2.88  32 2.88 108 2.88
                            33 3.32 117 3.32 111 3.32  96 3.32  54 3.32 103 3.32
  31  0.500  0.250  0.250-  98 2.88 123 2.88  14 2.88  13 2.88   4 2.88  54 2.88  19 2.88  91 2.88
                             3 3.32 119 3.32  44 3.32 108 3.32  15 3.32  80 3.32
  32  0.750  0.250  0.500-  72 2.88  96 2.88  42 2.88  54 2.88  30 2.88 103 2.88  13 2.88  26 2.88
                            41 3.32 108 3.32 116 3.32  44 3.32 120 3.32  24 3.32
  33  0.625  0.625  0.625-  41 2.88  18 2.88  82 2.88  66 2.88  97 2.88 110 2.88 124 2.88  53 2.88
                            30 3.32  87 3.32 121 3.32 107 3.32  65 3.32  68 3.32
  34  0.125  0.625  0.625-  85 2.88  40 2.88  51 2.88  47 2.88  57 2.88  59 2.88  83 2.88  69 2.88
                            22 3.32 128 3.32 105 3.32 107 3.32  87 3.32 109 3.32
  35  1.000  0.000  0.250-  26 2.88  95 2.88  84 2.88 100 2.88  56 2.88 126 2.88  46 2.88 114 2.88
                            61 3.32  27 3.32  70 3.32  49 3.32  23 3.32   6 3.32
  36  0.250  1.000  0.500-  89 2.88 113 2.88  22 2.88  48 2.88  79 2.88  14 2.88  46 2.88  56 2.88
                            45 3.32  93 3.32  47 3.32  74 3.32  70 3.32   6 3.32
  37  0.875  0.625  0.375-  75 2.88 124 2.88  51 2.88  23 2.88  81 2.88  83 2.88  41 2.88  11 2.88
                           100 3.32  78 3.32  72 3.32 107 3.32 121 3.32 109 3.32
  38  0.250  0.750  0.250-  64 2.88  76 2.88  12 2.88 109 2.88  79 2.88  60 2.88 114 2.88  46 2.88
                            77 3.32 115 3.32 112 3.32  47 3.32   6 3.32  23 3.32
  39  0.375  0.375  0.875- 104 2.88  15 2.88   2 2.88  21 2.88  82 2.88  58 2.88  57 2.88  73 2.88
                           111 3.32  52 3.32  19 3.32 117 3.32 122 3.32  99 3.32
  40  0.250  0.750  0.750-   1 2.88 113 2.88 118 2.88  52 2.88  22 2.88  87 2.88  34 2.88 128 2.88
                            53 3.32 112 3.32  45 3.32  47 3.32  57 3.32  85 3.32
  41  0.750  0.500  0.500-  33 2.88 107 2.88  30 2.88  96 2.88 121 2.88  54 2.88  72 2.88  37 2.88
                            18 3.32  66 3.32 124 3.32  32 3.32  75 3.32  83 3.32
  42  0.875  0.125  0.625-  90 2.88 120 2.88  32 2.88 116 2.88  70 2.88   5 2.88  25 2.88  24 2.88
                            96 3.32  29 3.32  26 3.32  48 3.32 103 3.32  94 3.32
  43  0.875  0.375  0.875- 116 2.88  66 2.88  59 2.88  90 2.88  88 2.88 106 2.88  50 2.88 125 2.88
                            96 3.32  86 3.32  29 3.32 111 3.32  62 3.32  99 3.32
  44  0.750  0.250  0.250-  91 2.88  13 2.88  84 2.88  26 2.88   4 2.88  62 2.88  72 2.88  54 2.88
                            61 3.32  31 3.32  32 3.32  88 3.32  49 3.32  75 3.32
  45  0.250  1.000  0.750-  89 2.88 113 2.88  22 2.88  48 2.88 122 2.88   1 2.88 118 2.88 127 2.88
                            92 3.32  36 3.32  73 3.32  40 3.32  28 3.32   5 3.32
  46  0.125  0.875  0.375-  51 2.88  47 2.88   6 2.88  70 2.88  23 2.88  38 2.88  36 2.88  35 2.88
                           109 3.32  22 3.32 114 3.32  79 3.32 100 3.32  56 3.32
  47  0.250  0.750  0.500- 113 2.88  79 2.88  22 2.88  87 2.88  46 2.88  34 2.88 109 2.88  64 2.88
                           110 3.32  40 3.32  36 3.32  69 3.32  38 3.32  51 3.32
  48  0.125  0.125  0.625-  36 2.88  45 2.88  70 2.88  73 2.88   5 2.88  74 2.88 120 2.88  90 2.88
                            22 3.32  89 3.32 127 3.32  56 3.32 105 3.32  42 3.32
  49  0.000  0.250  0.250-  71 2.88 126 2.88  56 2.88  26 2.88  84 2.88   7 2.88  62 2.88  72 2.88
                            35 3.32 120 3.32  11 3.32 125 3.32   3 3.32  44 3.32
  50  0.000  0.500  1.000-  99 2.88  86 2.88 128 2.88  12 2.88  62 2.88   7 2.88  43 2.88  78 2.88
                            59 3.32  17 3.32 125 3.32  11 3.32  58 3.32 106 3.32
  51  1.000  0.750  0.500-  37 2.88  94 2.88  46 2.88  34 2.88 100 2.88 109 2.88 107 2.88  22 2.88
                            23 3.32  83 3.32  85 3.32  70 3.32 124 3.32  47 3.32
  52  0.375  0.625  0.875-  16 2.88 112 2.88 104 2.88  57 2.88  53 2.88  40 2.88  58 2.88  82 2.88
                            65 3.32  39 3.32   1 3.32  76 3.32 128 3.32  87 3.32
  53  0.500  0.750  0.750-  87 2.88 101 2.88   1 2.88  68 2.88  52 2.88 113 2.88  65 2.88  33 2.88
                            40 3.32  97 3.32  16 3.32  82 3.32  92 3.32 110 3.32
  54  0.625  0.375  0.375-  18 2.88 108 2.88  31 2.88  41 2.88 119 2.88  32 2.88  75 2.88  44 2.88
                            98 3.32 121 3.32  30 3.32  13 3.32   4 3.32  72 3.32
  55  0.625  0.875  0.125-  80 2.88  77 2.88  10 2.88  81 2.88  61 2.88  16 2.88  67 2.88   9 2.88
                            60 3.32   8 3.32  63 3.32  91 3.32 101 3.32  95 3.32
  56  0.125  0.125  0.375-  70 2.88  74 2.88  49 2.88 120 2.88   6 2.88  35 2.88  36 2.88   3 2.88
                            71 3.32  48 3.32 126 3.32  26 3.32  46 3.32  14 3.32
  57  0.250  0.500  0.750-  52 2.88 128 2.88  39 2.88  99 2.88  87 2.88  34 2.88 105 2.88 117 2.88
                            58 3.32  40 3.32  82 3.32  73 3.32  59 3.32  69 3.32
  58  0.250  0.500  0.000-  76 2.88  19 2.88   7 2.88  39 2.88  52 2.88  12 2.88  99 2.88 128 2.88
                           104 3.32  21 3.32 115 3.32 112 3.32  57 3.32  50 3.32
  59  1.000  0.500  0.750-  86 2.88  96 2.88  43 2.88 107 2.88  99 2.88 105 2.88 128 2.88  34 2.88
                            90 3.32  85 3.32  50 3.32  66 3.32  83 3.32  57 3.32
  60  0.375  0.875  0.125-  77 2.88  16 2.88 112 2.88  10 2.88  38 2.88  80 2.88  28 2.88   6 2.88
                            55 3.32  76 3.32   1 3.32  79 3.32 114 3.32 123 3.32
  61  0.750  0.000  0.250-  26 2.88  84 2.88  95 2.88 100 2.88  55 2.88  13 2.88   8 2.88  91 2.88
                            80 3.32  44 3.32  24 3.32  35 3.32  67 3.32  81 3.32
  62  0.875  0.375  0.125- 125 2.88  50 2.88  88 2.88  11 2.88 106 2.88  49 2.88  44 2.88  75 2.88
                            84 3.32  43 3.32  78 3.32   4 3.32  72 3.32   7 3.32
  63  0.625  0.625  0.125-  77 2.88  16 2.88 104 2.88   9 2.88 119 2.88  81 2.88  75 2.88 106 2.88
                            76 3.32  55 3.32   4 3.32  65 3.32 121 3.32  78 3.32
  64  0.375  0.625  0.375- 119 2.88  38 2.88  77 2.88  69 2.88 110 2.88 115 2.88  18 2.88  47 2.88
                           121 3.32  98 3.32  76 3.32  79 3.32 109 3.32  87 3.32
  65  0.625  0.625  0.875-  82 2.88 106 2.88 104 2.88  97 2.88  66 2.88  53 2.88  16 2.88   9 2.88
                           111 3.32  52 3.32  33 3.32  63 3.32 101 3.32  86 3.32
  66  0.750  0.500  0.750-  30 2.88  96 2.88 107 2.88 111 2.88  33 2.88  43 2.88  86 2.88  65 2.88
                           116 3.32  82 3.32  41 3.32  97 3.32 106 3.32  59 3.32
  67  0.750  0.000  0.000-  84 2.88  91 2.88  55 2.88 101 2.88  29 2.88  20 2.88  95 2.88 102 2.88
                            10 3.32  88 3.32  61 3.32  25 3.32  27 3.32   9 3.32
  68  0.625  0.875  0.625- 110 2.88  93 2.88  53 2.88  92 2.88  97 2.88 124 2.88  24 2.88  25 2.88
                           113 3.32   8 3.32  33 3.32 101 3.32 103 3.32  94 3.32
  69  0.250  0.500  0.500-  64 2.88  98 2.88  71 2.88 109 2.88  87 2.88 117 2.88 105 2.88  34 2.88
                            18 3.32 115 3.32  74 3.32  47 3.32  57 3.32  83 3.32
  70  0.000  0.000  0.500-  56 2.88  48 2.88  26 2.88  46 2.88  94 2.88 100 2.88  42 2.88  22 2.88
                           120 3.32  35 3.32   5 3.32  51 3.32  36 3.32  24 3.32
  71  0.125  0.375  0.375-   3 2.88  49 2.88 115 2.88  11 2.88  69 2.88  74 2.88 120 2.88  83 2.88
                             7 3.32  56 3.32 109 3.32  98 3.32  72 3.32 105 3.32
  72  0.875  0.375  0.375-  83 2.88  32 2.88 120 2.88  41 2.88  11 2.88  75 2.88  49 2.88  44 2.88
                            37 3.32  96 3.32  26 3.32  71 3.32  54 3.32  62 3.32
  73  0.250  0.250  0.750-  89 2.88 122 2.88 127 2.88  48 2.88 117 2.88  39 2.88 105 2.88  99 2.88
                             2 3.32  45 3.32  74 3.32  21 3.32  57 3.32  90 3.32
  74  0.250  0.250  0.500-  56 2.88  14 2.88  48 2.88  89 2.88  71 2.88 117 2.88  98 2.88 105 2.88
                           108 3.32  69 3.32  36 3.32   3 3.32  73 3.32 120 3.32
  75  0.750  0.500  0.250-  37 2.88  78 2.88 121 2.88  63 2.88  72 2.88  54 2.88   4 2.88  62 2.88
                            81 3.32 119 3.32  41 3.32 106 3.32  11 3.32  44 3.32
  76  0.375  0.625  0.125- 119 2.88  58 2.88 104 2.88  38 2.88 115 2.88  77 2.88 112 2.88  16 2.88
                            19 3.32  63 3.32  64 3.32  12 3.32  60 3.32  52 3.32
  77  0.500  0.750  0.250-  63 2.88  55 2.88   8 2.88  64 2.88  60 2.88  76 2.88 121 2.88  79 2.88
                            38 3.32 119 3.32  81 3.32  16 3.32  80 3.32 110 3.32
  78  0.875  0.625  0.125-  23 2.88  75 2.88  81 2.88  17 2.88   9 2.88  11 2.88 106 2.88  50 2.88
                            95 3.32  37 3.32  62 3.32  86 3.32  63 3.32  12 3.32
  79  0.375  0.875  0.375-  93 2.88 110 2.88  47 2.88  38 2.88  77 2.88   6 2.88  80 2.88  36 2.88
                             8 3.32  64 3.32 113 3.32  46 3.32  60 3.32  14 3.32
  80  0.500  1.000  0.250-  13 2.88  55 2.88  91 2.88   8 2.88 123 2.88  60 2.88  14 2.88  79 2.88
                            61 3.32  10 3.32  93 3.32  77 3.32  31 3.32   6 3.32
  81  0.750  0.750  0.250- 100 2.88   8 2.88  95 2.88  55 2.88  63 2.88  37 2.88  78 2.88 121 2.88
                            75 3.32  77 3.32   9 3.32 124 3.32  23 3.32  61 3.32
  82  0.500  0.500  0.750-  65 2.88  33 2.88 117 2.88 111 2.88  30 2.88  87 2.88  39 2.88  52 2.88
                            66 3.32  53 3.32 104 3.32  57 3.32   2 3.32  18 3.32
  83  1.000  0.500  0.500-  72 2.88 107 2.88 105 2.88  37 2.88  96 2.88  34 2.88 109 2.88  71 2.88
                           120 3.32  51 3.32  11 3.32  59 3.32  41 3.32  69 3.32
  84  0.875  0.125  0.125-  44 2.88  35 2.88  67 2.88  61 2.88  88 2.88  27 2.88  49 2.88 125 2.88
                            26 3.32  29 3.32  62 3.32  95 3.32  91 3.32 126 3.32
  85  0.000  0.750  0.750-  34 2.88 118 2.88 128 2.88  86 2.88  94 2.88 102 2.88  22 2.88 107 2.88
                            59 3.32  17 3.32   5 3.32  51 3.32  40 3.32  97 3.32
  86  0.875  0.625  0.875-  59 2.88  66 2.88 106 2.88  50 2.88  85 2.88  17 2.88  97 2.88   9 2.88
                            43 3.32 107 3.32 102 3.32  78 3.32 128 3.32  65 3.32
  87  0.375  0.625  0.625-  53 2.88 110 2.88  82 2.88  18 2.88  47 2.88  40 2.88  57 2.88  69 2.88
                            33 3.32 113 3.32 117 3.32  52 3.32  64 3.32  34 3.32
  88  0.750  0.250  1.000-  29 2.88  20 2.88  84 2.88  62 2.88  43 2.88  91 2.88 111 2.88   4 2.88
                           116 3.32  67 3.32  15 3.32  44 3.32 125 3.32 106 3.32
  89  0.375  0.125  0.625-  45 2.88  36 2.88  92 2.88  73 2.88  93 2.88   2 2.88  74 2.88 108 2.88
                           103 3.32 122 3.32 113 3.32  48 3.32  14 3.32 117 3.32
  90  1.000  0.250  0.750- 105 2.88  42 2.88  43 2.88  29 2.88  96 2.88  99 2.88 127 2.88  48 2.88
                            59 3.32 120 3.32 125 3.32 116 3.32   5 3.32  73 3.32
  91  0.625  0.125  0.125-  80 2.88  44 2.88  10 2.88  67 2.88  15 2.88  88 2.88  61 2.88  31 2.88
                           123 3.32  13 3.32  20 3.32   4 3.32  55 3.32  84 3.32
  92  0.500  1.000  0.750- 122 2.88   1 2.88 113 2.88  89 2.88 101 2.88  68 2.88 103 2.88  20 2.88
                            45 3.32  10 3.32  53 3.32  93 3.32  25 3.32   2 3.32
  93  0.500  1.000  0.500-  79 2.88  68 2.88 113 2.88  89 2.88  14 2.88 103 2.88  13 2.88   8 2.88
                            36 3.32 110 3.32  92 3.32  24 3.32  80 3.32 108 3.32
  94  0.875  0.875  0.625-  51 2.88 124 2.88  85 2.88  70 2.88   5 2.88  24 2.88  97 2.88  25 2.88
                           100 3.32 107 3.32 102 3.32  22 3.32  68 3.32  42 3.32
  95  0.875  0.875  0.125-  35 2.88  23 2.88  81 2.88  61 2.88  27 2.88   9 2.88  17 2.88  67 2.88
                           100 3.32  78 3.32  84 3.32 102 3.32 114 3.32  55 3.32
  96  0.875  0.375  0.625-  66 2.88 116 2.88  59 2.88  41 2.88  32 2.88  90 2.88  83 2.88 120 2.88
                           107 3.32  43 3.32  30 3.32  42 3.32  72 3.32 105 3.32
  97  0.750  0.750  0.750-  65 2.88  33 2.88  86 2.88  68 2.88 107 2.88 101 2.88 102 2.88  94 2.88
                            53 3.32  66 3.32   9 3.32 124 3.32  25 3.32  85 3.32
  98  0.375  0.375  0.375- 119 2.88   3 2.88  31 2.88 115 2.88  69 2.88 108 2.88  18 2.88  74 2.88
                            54 3.32  19 3.32  64 3.32  14 3.32  71 3.32 117 3.32
  99  0.125  0.375  0.875-  50 2.88 125 2.88  21 2.88  59 2.88  57 2.88  58 2.88  90 2.88  73 2.88
                           128 3.32   7 3.32 105 3.32 127 3.32  43 3.32  39 3.32
 100  0.875  0.875  0.375-  81 2.88  23 2.88  35 2.88  61 2.88  51 2.88  24 2.88 124 2.88  70 2.88
                            95 3.32  37 3.32  26 3.32   8 3.32  94 3.32  46 3.32
 101  0.625  0.875  0.875-  10 2.88  16 2.88  53 2.88  92 2.88   9 2.88  25 2.88  67 2.88  97 2.88
                             1 3.32  55 3.32  68 3.32  65 3.32  20 3.32 102 3.32
 102  0.875  0.875  0.875-  17 2.88  27 2.88  85 2.88   5 2.88  25 2.88   9 2.88  97 2.88  67 2.88
                            95 3.32  86 3.32  94 3.32 118 3.32  29 3.32 101 3.32
 103  0.625  0.125  0.625-   2 2.88 108 2.88 116 2.88  93 2.88  92 2.88  25 2.88  32 2.88  24 2.88
                            89 3.32  20 3.32  30 3.32  42 3.32  68 3.32  13 3.32
 104  0.500  0.500  0.000-  39 2.88  52 2.88  76 2.88  65 2.88  63 2.88  19 2.88   4 2.88 111 2.88
                            58 3.32  16 3.32 106 3.32 119 3.32  82 3.32  15 3.32
 105  0.125  0.375  0.625-  90 2.88 120 2.88  83 2.88  59 2.88  73 2.88  57 2.88  74 2.88  69 2.88
                            99 3.32  48 3.32  34 3.32  96 3.32  71 3.32 117 3.32
 106  0.750  0.500  1.000-  65 2.88 111 2.88  86 2.88  63 2.88   4 2.88  43 2.88  78 2.88  62 2.88
                             9 3.32 104 3.32  66 3.32  75 3.32  88 3.32  50 3.32
 107  0.875  0.625  0.625-  41 2.88  66 2.88  59 2.88  83 2.88 124 2.88  97 2.88  85 2.88  51 2.88
                            96 3.32  86 3.32  33 3.32  37 3.32  94 3.32  34 3.32
 108  0.500  0.250  0.500- 117 2.88  54 2.88  14 2.88  98 2.88 103 2.88  13 2.88  30 2.88  89 2.88
                            74 3.32  18 3.32  31 3.32  32 3.32   2 3.32  93 3.32
 109  0.125  0.625  0.375-  38 2.88  11 2.88  23 2.88  69 2.88  51 2.88  47 2.88 115 2.88  83 2.88
                            46 3.32  12 3.32  71 3.32  64 3.32  34 3.32  37 3.32
 110  0.500  0.750  0.500-  68 2.88  87 2.88  79 2.88 121 2.88  64 2.88  33 2.88   8 2.88 113 2.88
                            47 3.32 124 3.32  18 3.32  93 3.32  53 3.32  77 3.32
 111  0.625  0.375  0.875- 116 2.88  66 2.88  82 2.88 106 2.88   2 2.88  15 2.88  88 2.88 104 2.88
                            65 3.32  30 3.32  39 3.32  20 3.32  43 3.32   4 3.32
 112  0.250  0.750  1.000-  52 2.88 128 2.88  76 2.88  60 2.88   1 2.88  12 2.88 118 2.88 114 2.88
                            16 3.32  58 3.32  40 3.32  38 3.32  28 3.32  17 3.32
 113  0.375  0.875  0.625-  45 2.88  92 2.88  40 2.88  36 2.88  47 2.88  93 2.88  53 2.88 110 2.88
                            22 3.32  68 3.32   1 3.32  89 3.32  87 3.32  79 3.32
 114  0.125  0.875  0.125-  17 2.88  23 2.88   6 2.88  27 2.88  38 2.88 112 2.88  28 2.88  35 2.88
                            12 3.32 118 3.32  46 3.32  95 3.32  60 3.32 126 3.32
 115  0.250  0.500  0.250-  19 2.88   7 2.88  98 2.88  71 2.88  76 2.88  64 2.88  12 2.88 109 2.88
                             3 3.32 119 3.32  58 3.32  69 3.32  38 3.32  11 3.32
 116  0.750  0.250  0.750-  43 2.88 111 2.88  96 2.88  30 2.88  29 2.88  20 2.88 103 2.88  42 2.88
                            66 3.32  88 3.32   2 3.32  32 3.32  90 3.32  25 3.32
 117  0.375  0.375  0.625-   2 2.88 108 2.88  18 2.88  82 2.88  73 2.88  69 2.88  74 2.88  57 2.88
                            30 3.32  87 3.32  39 3.32  89 3.32  98 3.32 105 3.32
 118  0.125  0.875  0.875-  40 2.88  28 2.88  85 2.88 112 2.88   5 2.88  45 2.88  17 2.88  27 2.88
                             1 3.32 128 3.32  22 3.32 114 3.32 127 3.32 102 3.32
 119  0.500  0.500  0.250-  98 2.88  19 2.88  76 2.88  64 2.88  63 2.88  54 2.88 121 2.88   4 2.88
                           115 3.32  77 3.32  31 3.32 104 3.32  18 3.32  75 3.32
 120  0.000  0.250  0.500- 105 2.88  42 2.88  56 2.88  72 2.88  26 2.88  48 2.88  71 2.88  96 2.88
                            83 3.32  70 3.32  49 3.32  90 3.32  74 3.32  32 3.32
 121  0.625  0.625  0.375- 124 2.88  18 2.88  41 2.88  75 2.88 110 2.88  77 2.88 119 2.88  81 2.88
                            64 3.32  54 3.32  33 3.32   8 3.32  37 3.32  63 3.32
 122  0.375  0.125  0.875-  92 2.88   2 2.88  73 2.88  45 2.88  28 2.88  10 2.88  15 2.88  21 2.88
                            20 3.32  89 3.32   1 3.32 127 3.32 123 3.32  39 3.32
 123  0.375  0.125  0.125-  31 2.88  15 2.88  80 2.88  10 2.88  21 2.88   6 2.88  28 2.88   3 2.88
                            91 3.32  14 3.32  19 3.32 122 3.32  60 3.32 126 3.32
 124  0.750  0.750  0.500- 121 2.88  37 2.88   8 2.88  94 2.88  33 2.88 100 2.88 107 2.88  68 2.88
                            41 3.32 110 3.32  81 3.32  24 3.32  51 3.32  97 3.32
 125  1.000  0.250  1.000-  29 2.88  62 2.88  99 2.88 126 2.88  84 2.88   7 2.88  43 2.88 127 2.88
                            50 3.32  90 3.32  49 3.32  27 3.32  88 3.32  21 3.32
 126  0.125  0.125  0.125-  49 2.88 125 2.88  27 2.88  21 2.88   6 2.88  35 2.88   3 2.88  28 2.88
                             7 3.32  56 3.32 127 3.32  84 3.32 114 3.32 123 3.32
 127  0.125  0.125  0.875-   5 2.88  73 2.88  28 2.88  45 2.88  90 2.88  21 2.88 125 2.88  27 2.88
                            48 3.32 122 3.32 126 3.32 118 3.32  99 3.32  29 3.32
 128  0.125  0.625  0.875- 112 2.88  57 2.88  85 2.88  50 2.88  59 2.88  17 2.88  40 2.88  58 2.88
                            99 3.32 118 3.32  34 3.32  52 3.32  12 3.32  86 3.32
 
  LATTYP: Found a simple cubic cell.
 ALAT       =    13.2837596882
  
  Lattice vectors:
  
 A1 = (  13.2837596882,  -0.0000004843,  -0.0000004823)
 A2 = (  -0.0000004930,  13.2837592387,  -0.0000000308)
 A3 = (  -0.0000004693,  -0.0000000332,  13.2837594468)


Analysis of symmetry for initial positions (statically):
=====================================================================
 Subroutine PRICEL returns following result:
 
  LATTYP: Found a body centered cubic cell.
 ALAT       =     3.3209403054
  
  Lattice vectors:
  
 A1 = (   1.6604704043,   1.6604701214,  -1.6604699324)
 A2 = (  -1.6604701050,   1.6604698608,   1.6604699247)
 A3 = (   1.6604699877,  -1.6604697785,   1.6604696337)
 
 128 primitive cells build up your supercell.
 

 Routine SETGRP: Setting up the symmetry group for a 
 simple cubic supercell.


 Subroutine GETGRP returns: Found 48 space group operations
 (whereof 48 operations were pure point group operations)
 out of a pool of 48 trial point group operations.


The static configuration has the point symmetry O_h .


Analysis of symmetry for dynamics (positions and initial velocities):
=====================================================================
 Subroutine PRICEL returns following result:
 
  LATTYP: Found a body centered cubic cell.
 ALAT       =     3.3209403054
  
  Lattice vectors:
  
 A1 = (   1.6604704043,   1.6604701214,  -1.6604699324)
 A2 = (  -1.6604701050,   1.6604698608,   1.6604699247)
 A3 = (   1.6604699877,  -1.6604697785,   1.6604696337)
 
 128 primitive cells build up your supercell.
 

 Routine SETGRP: Setting up the symmetry group for a 
 simple cubic supercell.


 Subroutine GETGRP returns: Found 48 space group operations
 (whereof 48 operations were pure point group operations)
 out of a pool of 48 trial point group operations.


The dynamic configuration has the point symmetry O_h .


 Subroutine INISYM returns: Found 48 space group operations
 (whereof 48 operations are pure point group operations),
 and found   128 'primitive' translations


----------------------------------------------------------------------------------------

                                     Primitive cell                                     

  volume of cell :      18.3127

  direct lattice vectors                    reciprocal lattice vectors
     1.660470404  1.660470121 -1.660469932     0.301119496  0.301119537  0.000000003
    -1.660470105  1.660469861  1.660469925    -0.000000004  0.301119565  0.301119595
     1.660469988 -1.660469779  1.660469634     0.301119554 -0.000000026  0.301119613

  length of vectors
     2.876018669  2.876018341  2.876018058     0.425847304  0.425847394  0.425847399

  position of ions in fractional coordinates (direct lattice)
     0.999998873  0.999999797  0.999999697

  ion indices of the primitive-cell ions
   primitive index   ion index
                 1           1

----------------------------------------------------------------------------------------

 
 
 KPOINTS: Automatic mesh                          

Automatic generation of k-mesh.
 Grid dimensions read from file:
 generate k-points for:    2    2    2

 Generating k-lattice:

  Cartesian coordinates                     Fractional coordinates (reciprocal lattice)
     0.037639946  0.000000001  0.000000001     0.500000000  0.000000000  0.000000000
     0.000000001  0.037639947  0.000000000     0.000000000  0.500000000 -0.000000000
     0.000000001  0.000000000  0.037639947     0.000000000  0.000000000  0.500000000

  Length of vectors
     0.037639946  0.037639947  0.037639947

  Shift w.r.t. Gamma in fractional coordinates (k-lattice)
     0.000000000  0.000000000  0.000000000

 
 Subroutine IBZKPT returns following result:
 ===========================================
 
 Found      4 irreducible k-points:
 
 Following reciprocal coordinates:
            Coordinates               Weight
  0.000000  0.000000  0.000000      1.000000
  0.500000  0.000000  0.000000      3.000000
  0.500000  0.500000  0.000000      3.000000
  0.500000  0.500000  0.500000      1.000000
 
 Following cartesian coordinates:
            Coordinates               Weight
  0.000000  0.000000  0.000000      1.000000
  0.037640  0.000000  0.000000      3.000000
  0.037640  0.037640  0.000000      3.000000
  0.037640  0.037640  0.037640      1.000000
 


--------------------------------------------------------------------------------------------------------




 Dimension of arrays:
   k-points           NKPTS =      4   k-points in BZ     NKDIM =      4   number of bands    NBANDS=    924
   number of dos      NEDOS =    301   number of ions     NIONS =    128
   non local maximal  LDIM  =      6   non local SUM 2l+1 LMDIM =     18
   total plane-waves  NPLWV = 262144
   max r-space proj   IRMAX =   1695   max aug-charges    IRDMAX=   4849
   dimension x,y,z NGX =    64 NGY =   64 NGZ =   64
   dimension x,y,z NGXF=   128 NGYF=  128 NGZF=  128
   support grid    NGXF=   128 NGYF=  128 NGZF=  128
   ions per type =             128
   NGX,Y,Z   is equivalent  to a cutoff of   8.01,  8.01,  8.01 a.u.
   NGXF,Y,Z  is equivalent  to a cutoff of  16.02, 16.02, 16.02 a.u.

 SYSTEM =  bcc_NbZr_Zr128                          
 POSCAR =  Zr                                      

 Startparameter for this run:
   NWRITE =      2    write-flag & timer
   PREC   = normal    normal or accurate (medium, high low for compatibility)
   ISTART =      0    job   : 0-new  1-cont  2-samecut
   ICHARG =      2    charge: 1-file 2-atom 10-const
   ISPIN  =      1    spin polarized calculation?
   LNONCOLLINEAR =      F non collinear calculations
   LSORBIT =      F    spin-orbit coupling
   INIWAV =      1    electr: 0-lowe 1-rand  2-diag
   LASPH  =      F    aspherical Exc in radial PAW
 Electronic Relaxation 1
   ENCUT  =  350.0 eV  25.72 Ry    5.07 a.u.  20.26 20.26 20.26*2*pi/ulx,y,z
   ENINI  =  350.0     initial cutoff
   ENAUG  =  461.3 eV  augmentation charge cutoff
   NELM   =    120;   NELMIN=  2; NELMDL= -5     # of ELM steps 
   EDIFF  = 0.1E-05   stopping-criterion for ELM
   LREAL  =      T    real-space projection
   NLSPLINE    = F    spline interpolate recip. space projectors
   LCOMPAT=      F    compatible to vasp.4.4
   GGA_COMPAT  = T    GGA compatible to vasp.4.4-vasp.4.6
   LMAXPAW     = -100 max onsite density
   LMAXMIX     =    2 max onsite mixed and CHGCAR
   VOSKOWN=      0    Vosko Wilk Nusair interpolation
   ROPT   =   -0.00050
 Ionic relaxation
   EDIFFG = 0.1E-04   stopping-criterion for IOM
   NSW    =    100    number of steps for IOM
   NBLOCK =      1;   KBLOCK =    100    inner block; outer block 
   IBRION =      2    ionic relax: 0-MD 1-quasi-New 2-CG
   NFREE  =      1    steps in history (QN), initial steepest desc. (CG)
   ISIF   =      3    stress and relaxation
   IWAVPR =     11    prediction:  0-non 1-charg 2-wave 3-comb
   ISYM   =      2    0-nonsym 1-usesym 2-fastsym
   LCORR  =      T    Harris-Foulkes like correction to forces

   POTIM  = 0.5000    time-step for ionic-motion
   TEIN   =    0.0    initial temperature
   TEBEG  =    0.0;   TEEND  =   0.0 temperature during run
   SMASS  =  -3.00    Nose mass-parameter (am)
   estimated Nose-frequenzy (Omega)   =  0.10E-29 period in steps = 0.13E+47 mass=  -0.403E-26a.u.
   SCALEE = 1.0000    scale energy and forces
   NPACO  =    256;   APACO  = 10.0  distance and # of slots for P.C.
   PSTRESS=    0.0 pullay stress

  Mass of Ions in am
   POMASS =  91.22
  Ionic Valenz
   ZVAL   =  12.00
  Atomic Wigner-Seitz radii
   RWIGS  =  -1.00
  virtual crystal weights 
   VCA    =   1.00
   NELECT =    1536.0000    total number of electrons
   NUPDOWN=      -1.0000    fix difference up-down

 DOS related values:
   EMIN   =  10.00;   EMAX   =-10.00  energy-range for DOS
   EFERMI =   0.00;   METHOD = LEGACY      
   ISMEAR =     1;   SIGMA  =   0.20  broadening in eV -4-tet -1-fermi 0-gaus
   EFERMI_NEDOS =   21; number of points for ismear=-14 and -15

 Electronic relaxation 2 (details)
   IALGO  =     38    algorithm
   LDIAG  =      T    sub-space diagonalisation (order eigenvalues)
   LSUBROT=      F    optimize rotation matrix (better conditioning)
   LROBUST=      F    robust break criterion during scf (extrapolated energy error)
   ISEARCH=      0    line search for conjugate gradient (0, 1=use gradient)
   TURBO    =      0    0=normal 1=particle mesh
   IRESTART =      0    0=no restart 2=restart with 2 vectors
   NREBOOT  =      0    no. of reboots
   NMIN     =      0    reboot dimension
   EREF     =   0.00    reference energy to select bands
   IMIX   =      4    mixing-type and parameters
     AMIX     =   0.40;   BMIX     =  1.00
     AMIX_MAG =   1.60;   BMIX_MAG =  1.00
     AMIN     =   0.10
     WC   =   100.;   INIMIX=   1;  MIXPRE=   1;  MAXMIX= -45

 Intra band minimization:
   WEIMIN = 0.0010     energy-eigenvalue tresh-hold
   EBREAK =  0.27E-09  absolut break condition
   DEPER  =   0.30     relativ break condition  

   TIME   =   0.40     timestep for ELM

  volume/ion in A,a.u.               =      18.31       123.58
  Fermi-wavevector in a.u.,A,eV,Ry     =   1.421950  2.687095 27.510177  2.021941
  Thomas-Fermi vector in A             =   2.542705
 
 Write flags
   LWAVE        =      F    write WAVECAR
   LDOWNSAMPLE  =      F    k-point downsampling of WAVECAR
   LCHARG       =      F    write CHGCAR
   LVTOT        =      F    write LOCPOT, total local potential
   LVHAR        =      F    write LOCPOT, Hartree potential only
   WRT_POTENTIAL= false  ! write potential to hdf5 file
   LELF         =      F    write electronic localiz. function (ELF)
   LORBIT       =      0    0 simple, 1 ext, 2 COOP (PROOUT), +10 PAW based schemes


 Python interface
   PLUGINS active      =      F    recompile with -DPLUGINS to activate
 
 Dipole corrections
   LMONO      =      F    monopole corrections only (constant potential shift)
   LDIPOL     =      F    correct potential (dipole corrections)
   IDIPOL     =      0    1-x, 2-y, 3-z, 4-all directions 
   EPSILON    =  1.0000000 bulk dielectric constant
   LVACPOTAV  =      F  vacuum potentials using an averaging scheme for the charge density
   VACPOTFLAT =  0.1000000 required flatness to determine vacuum potential
 
Coulomb truncation method
  LTRUNCATE          =      F  Coulomb kernel truncation to be used

 
 Exchange correlation treatment:
   GGA     = PE    functional components
   XC_C    = 1    coefficients multiplying the functional components
   LIBXC   =     F    Libxc                    
   VOSKOWN =     0    Vosko Wilk Nusair interpolation
   LHFCALC =     F    Hartree Fock is set to
   LHFONE  =     F    Hartree Fock one center treatment
   AEXX    =    0.0000 exact exchange contribution

 Parameters of functionals:
   PE:
     No parameter
 
 Van der Waals corrections
   IVDW    =     0    specifies the selected vdW correction

 Linear response parameters
   LEPSILON=     F    determine dielectric tensor
   LRPA    =     F    only Hartree local field effects (RPA)
   LNABLA  =     F    use nabla operator in PAW spheres
   LVEL    =     F    velocity operator in full k-point grid
   CSHIFT  =0.1000    complex shift for real part using Kramers Kronig
   OMEGAMAX=  -1.0    maximum frequency
   DEG_THRESHOLD= 0.2000000E-02 threshold for treating states as degnerate
   RTIME   =   -0.100 relaxation time in fs
  (WPLASMAI=    0.000 imaginary part of plasma frequency in eV, 0.658/RTIME)
   DFIELD  = 0.0000000 0.0000000 0.0000000 field for delta impulse in time
 
  Optional k-point grid parameters
   LKPOINTS_OPT  =     F    use optional k-point grid
   KPOINTS_OPT_MODE=     1    mode for optional k-point grid
 
 Orbital magnetization related:
   ORBITALMAG=     F  switch on orbital magnetization
   LCHIMAG   =     F  perturbation theory with respect to B field
   DQ        =  0.001000  dq finite difference perturbation B field
   LLRAUG    =     F  two centre corrections for induced B field
   LBONE     =     F  B-component reconstruction in AE one-centre
   LVGVCALC  =     T  calculate vGv susceptibility
   LVGVAPPL  =     F  apply vGv susceptibility instead of pGv for G=0

 Random number generation:
   RANDOM_GENERATOR = DEFAULT
   PCG_SEED         = not used


--------------------------------------------------------------------------------------------------------


 conjugate gradient relaxation of ions
 charge density and potential will be updated during run
 non-spin polarized calculation
 Variant of blocked Davidson
 Davidson routine will perform the subspace rotation
 perform sub-space diagonalisation
    after iterative eigenvector-optimisation
 modified Broyden-mixing scheme, WC =      100.0
 initial mixing is a Kerker type mixing with AMIX =  0.4000 and BMIX =      1.0000
 Hartree-type preconditioning will be used
 using additional bands           156
 real space projection scheme for non local part
 use partial core corrections
 calculate Harris-corrections to forces 
   (improved forces if not selfconsistent)
 use gradient corrections 
 use of overlap-Matrix (Vanderbilt PP)
 Methfessel and Paxton  Order N= 1 SIGMA  =   0.20


--------------------------------------------------------------------------------------------------------


  energy-cutoff  :      350.00
  volume of cell :     2344.03
      direct lattice vectors                 reciprocal lattice vectors
    13.283759688 -0.000000484 -0.000000482     0.075279892  0.000000003  0.000000003
    -0.000000493 13.283759239 -0.000000031     0.000000003  0.075279895  0.000000000
    -0.000000469 -0.000000033 13.283759447     0.000000003  0.000000000  0.075279894

  length of vectors
    13.283759688 13.283759239 13.283759447     0.075279892  0.075279895  0.075279894


 
 k-points in units of 2pi/SCALE and weight: Automatic mesh                          
   0.00000000  0.00000000  0.00000000       0.125
   0.03763995  0.00000000  0.00000000       0.375
   0.03763995  0.03763995  0.00000000       0.375
   0.03763995  0.03763995  0.03763995       0.125
 
 k-points in reciprocal lattice and weights: Automatic mesh                          
   0.00000000  0.00000000  0.00000000       0.125
   0.50000000  0.00000000  0.00000000       0.375
   0.50000000  0.50000000  0.00000000       0.375
   0.50000000  0.50000000  0.50000000       0.125
 
 position of ions in fractional coordinates (direct lattice) 
   0.37500001  0.87499999  0.87499998
   0.49999999  0.25000001  0.75000000
   0.25000004  0.25000011  0.25000000
   0.62499993  0.37499999  0.12499998
   0.00000003  1.00000000  0.75000001
   0.25000002  1.00000000  0.25000002
   0.12500006  0.37500003  0.12500002
   0.62499997  0.87499997  0.37499997
   0.74999995  0.74999998  0.00000001
   0.50000002  0.99999998  0.99999998
   0.00000003  0.50000000  0.25000000
   0.12500006  0.62499998  0.12500000
   0.62499994  0.12500000  0.37499995
   0.37500006  0.12500002  0.37499999
   0.50000000  0.25000002  0.99999999
   0.50000000  0.74999996  0.99999998
   0.99999998  0.74999998  0.99999999
   0.50000002  0.50000000  0.50000001
   0.37500001  0.37500004  0.12500003
   0.62499995  0.12500006  0.87500002
   0.25000003  0.25000007  0.00000002
   0.12500008  0.87500000  0.62500001
   0.99999996  0.74999998  0.25000000
   0.74999996  0.99999999  0.49999994
   0.74999996  1.00000000  0.75000004
   0.87500000  0.12499998  0.37499997
   0.99999997  0.00000000  0.00000002
   0.25000006  0.99999998  0.99999995
   0.87499996  0.12500007  0.87500003
   0.62500000  0.37500007  0.62500003
   0.49999998  0.25000003  0.25000001
   0.74999998  0.25000004  0.50000001
   0.62499998  0.62499993  0.62499999
   0.12500001  0.62500004  0.62500004
   0.99999994  0.00000001  0.25000000
   0.25000006  1.00000000  0.50000008
   0.87499996  0.62500002  0.37500000
   0.25000007  0.74999994  0.24999999
   0.37500007  0.37500002  0.87500003
   0.25000009  0.75000002  0.75000001
   0.74999994  0.50000001  0.50000004
   0.87500000  0.12500006  0.62500000
   0.87499994  0.37500001  0.87499996
   0.74999995  0.24999995  0.24999999
   0.25000007  0.99999999  0.74999995
   0.12500001  0.87499997  0.37500001
   0.25000006  0.75000002  0.50000003
   0.12500005  0.12499996  0.62500000
   0.00000003  0.25000000  0.25000000
   0.00000002  0.50000000  0.99999999
   0.99999999  0.74999998  0.49999998
   0.37500003  0.62500001  0.87500002
   0.49999998  0.75000000  0.75000002
   0.62499993  0.37500005  0.37500003
   0.62499995  0.87500000  0.12500003
   0.12500001  0.12500002  0.37500001
   0.25000004  0.50000002  0.75000004
   0.25000008  0.49999999  0.00000004
   0.99999996  0.50000000  0.75000002
   0.37500006  0.87499995  0.12499998
   0.74999999  0.00000000  0.25000000
   0.87499999  0.37500000  0.12499996
   0.62499994  0.62500000  0.12500000
   0.37500004  0.62499998  0.37499997
   0.62499994  0.62499994  0.87499997
   0.74999996  0.49999999  0.74999998
   0.74999996  0.00000001  0.00000002
   0.62499992  0.87499996  0.62499998
   0.25000007  0.49999999  0.49999995
   0.00000002  0.00000002  0.49999998
   0.12500004  0.37500001  0.37499993
   0.87499998  0.37500003  0.37500003
   0.25000007  0.24999996  0.74999999
   0.25000003  0.25000000  0.49999999
   0.74999997  0.50000006  0.25000001
   0.37500002  0.62499997  0.12500000
   0.50000001  0.74999997  0.24999998
   0.87499999  0.62500001  0.12500002
   0.37500004  0.87499997  0.37500002
   0.50000005  1.00000000  0.24999999
   0.74999996  0.74999999  0.24999999
   0.50000003  0.50000002  0.75000002
   0.99999998  0.49999999  0.50000000
   0.87499997  0.12500001  0.12500001
   0.00000001  0.74999998  0.75000001
   0.87499999  0.62499995  0.87499998
   0.37500007  0.62500002  0.62500001
   0.74999997  0.24999998  0.99999997
   0.37500002  0.12499997  0.62500004
   0.99999998  0.25000003  0.75000000
   0.62499995  0.12500000  0.12499999
   0.49999994  0.99999997  0.75000001
   0.49999996  0.99999998  0.50000002
   0.87500000  0.87499996  0.62499998
   0.87499999  0.87499999  0.12500004
   0.87499993  0.37500005  0.62500005
   0.74999993  0.74999995  0.75000002
   0.37500005  0.37500003  0.37499993
   0.12500000  0.37500004  0.87500003
   0.87499997  0.87499997  0.37499997
   0.62499991  0.87499999  0.87500002
   0.87500001  0.87499998  0.87500002
   0.62499994  0.12500004  0.62500004
   0.49999996  0.50000004  0.00000000
   0.12499997  0.37500000  0.62500002
   0.74999994  0.50000003  0.99999997
   0.87499995  0.62499993  0.62500000
   0.49999998  0.25000004  0.50000000
   0.12500003  0.62500001  0.37499996
   0.49999999  0.74999999  0.50000003
   0.62500000  0.37500001  0.87499996
   0.25000007  0.74999996  0.99999997
   0.37500000  0.87500001  0.62500003
   0.12500001  0.87499996  0.12499999
   0.25000005  0.49999995  0.24999997
   0.74999996  0.25000007  0.75000002
   0.37500011  0.37500002  0.62500001
   0.12500006  0.87499996  0.87499998
   0.49999994  0.50000001  0.24999998
   0.00000002  0.25000001  0.50000000
   0.62499996  0.62499999  0.37500003
   0.37500005  0.12499997  0.87499997
   0.37500008  0.12500003  0.12500001
   0.74999996  0.74999996  0.49999998
   1.00000000  0.25000001  1.00000000
   0.12500000  0.12500003  0.12500000
   0.12500004  0.12500000  0.87499997
   0.12500004  0.62500000  0.87500000
 
 position of ions in cartesian coordinates  (Angst):
   4.98140919 11.62328903 11.62328901
   6.64187923  3.32093970  9.96281939
   3.32094020  3.32094110  3.32093968
   8.30234870  4.98140933  1.66046931
  -0.00000042 13.28375916  9.96281966
   3.32093955 13.28375909  3.32093999
   1.66047054  4.98141006  1.66047011
   8.30234881 11.62328860  4.98140904
   9.96281872  9.96281880 -0.00000021
   6.64187913 13.28375871 13.28375888
   0.00000009  6.64187966  3.32093983
   1.66047037  8.30234926  1.66046980
   8.30234873  1.66046955  4.98140885
   4.98141038  1.66046995  4.98140951
   6.64187920  3.32093984 13.28375900
   6.64187896  9.96281858 13.28375895
  13.28375862  9.96281865 13.28375884
   6.64187958  6.64187933  6.64187954
   4.98140977  4.98141009  1.66047010
   8.30234862  1.66047040 11.62328943
   3.32094024  3.32094062  0.00000015
   1.66047032 11.62328931  8.30234971
  13.28375862  9.96281873  3.32093939
   9.96281847 13.28375871  6.64187859
   9.96281837 13.28375882  9.96281972
  11.62328944  1.66046921  4.98140894
  13.28375925 -0.00000046 -0.00000023
   3.32093969 13.28375882 13.28375859
  11.62328877  1.66047034 11.62328948
   8.30234932  4.98141032  8.30234977
   6.64187934  3.32093998  3.32093977
   9.96281909  3.32093999  6.64187946
   8.30234889  8.30234825  8.30234922
   1.66046948  8.30234998  8.30235006
  13.28375882 -0.00000038  3.32093933
   3.32093993 13.28375907  6.64188064
  11.62328871  8.30234932  4.98140941
   3.32094035  9.96281853  3.32093959
   4.98141017  4.98140981 11.62328969
   3.32094034  9.96281954  9.96281951
   9.96281854  6.64187936  6.64187994
  11.62328938  1.66047025  8.30234924
  11.62328835  4.98140936 11.62328856
   9.96281887  3.32093873  3.32093937
   3.32093995 13.28375899  9.96281883
   1.66046953 11.62328886  4.98140984
   3.32094006  9.96281950  6.64187999
   1.66047027  1.66046936  8.30234965
   0.00000019  3.32093982  3.32093990
  -0.00000040  6.64187959 13.28375928
  13.28375895  9.96281867  6.64187901
   4.98140953  8.30234939 11.62328958
   6.64187882  9.96281911  9.96281952
   8.30234850  4.98141002  4.98140988
   8.30234861 11.62328897  1.66047002
   1.66046979  1.66047007  4.98140991
   3.32093991  6.64187975  9.96282003
   3.32094068  6.64187935  0.00000034
  13.28375862  6.64187911  9.96281929
   4.98141015 11.62328853  1.66046946
   9.96281946 -0.00000033  3.32093945
  11.62328932  4.98140928  1.66046899
   8.30234867  8.30234928  1.66046962
   4.98140996  8.30234910  4.98140914
   8.30234831  8.30234833 11.62328885
   9.96281869  6.64187904  9.96281899
   9.96281919 -0.00000020 -0.00000010
   8.30234806 11.62328851  8.30234909
   3.32094036  6.64187933  6.64187890
   0.00000007  0.00000025  6.64187948
   1.66047008  4.98140972  4.98140884
  11.62328917  4.98140963  4.98140977
   3.32094034  3.32093919  9.96281934
   3.32093997  3.32093963  6.64187948
   9.96281899  6.64188003  3.32093961
   4.98140974  8.30234893  1.66046979
   6.64187949  9.96281873  3.32093932
  11.62328917  8.30234917  1.66046974
   4.98140982 11.62328879  4.98140979
   6.64187993 13.28375895  3.32093951
   9.96281879  9.96281896  3.32093936
   6.64187971  6.64187967  9.96281955
  13.28375889  6.64187903  6.64187917
  11.62328922  1.66046962  1.66046958
  -0.00000057  9.96281909  9.96281974
  11.62328893  8.30234834 11.62328875
   4.98141024  8.30234956  8.30234957
   9.96281877  3.32093914 13.28375870
   4.98140973  1.66046924  8.30234994
  13.28375899  3.32093970  9.96281906
   8.30234909  1.66046961  1.66046954
   6.64187814 13.28375857  9.96281949
   6.64187861 13.28375870  6.64187972
  11.62328906 11.62328833  8.30234890
  11.62328905 11.62328873  1.66047006
  11.62328828  4.98140990  8.30234985
   9.96281806  9.96281838  9.96281943
   4.98141016  4.98140988  4.98140873
   1.66046932  4.98141012 11.62328984
  11.62328878 11.62328854  4.98140888
   8.30234776 11.62328883 11.62328945
  11.62328905 11.62328864 11.62328933
   8.30234863  1.66047010  8.30234982
   6.64187909  6.64187987 -0.00000025
   1.66046906  4.98140960  8.30234984
   9.96281821  6.64187962 13.28375862
  11.62328841  8.30234818  8.30234924
   6.64187921  3.32094003  6.64187948
   1.66046991  8.30234954  4.98140922
   6.64187917  9.96281899  6.64187979
   8.30234918  4.98140956 11.62328866
   3.32094000  9.96281870 13.28375895
   4.98140910 11.62328921  8.30234984
   1.66046961 11.62328873  1.66046975
   3.32094025  6.64187886  3.32093932
   9.96281875  3.32094033  9.96281952
   4.98141089  4.98140973  8.30234964
   1.66046996 11.62328876 11.62328915
   6.64187873  6.64187947  3.32093937
  -0.00000012  3.32093989  6.64187970
   8.30234880  8.30234902  4.98140991
   4.98141003  1.66046935 11.62328890
   4.98141078  1.66047017  1.66046983
   9.96281861  9.96281854  6.64187904
  13.28375908  3.32093949 13.28375894
   1.66046985  1.66047023  1.66046988
   1.66047004  1.66046978 11.62328912
   1.66046980  8.30234943 11.62328945
 


--------------------------------------------------------------------------------------------------------


 k-point     1 :   0.0000 0.0000 0.0000  plane waves:   34889
 k-point     2 :   0.5000 0.0000 0.0000  plane waves:   34936
 k-point     3 :   0.5000 0.5000 0.0000  plane waves:   34864
 k-point     4 :   0.5000 0.5000 0.5000  plane waves:   34776

 maximum and minimum number of plane-waves per node :     34936    34776

 maximum number of plane-waves:     34936
 maximum index in each direction: 
   IXMAX=   20   IYMAX=   20   IZMAX=   20
   IXMIN=  -20   IYMIN=  -20   IZMIN=  -20


 serial   3D FFT for wavefunctions
 parallel 3D FFT for charge:
    minimum data exchange during FFTs selected (reduces bandwidth)


 total amount of memory used by VASP MPI-rank0   672936. kBytes
=======================================================================

   base                                    :      30000. kBytes
   nonlr-proj                              :      35480. kBytes
   fftplans                                :      18931. kBytes
   grid                                    :      35979. kBytes
   one-center                              :       1990. kBytes
   wavefun                                 :     550556. kBytes
 
     INWAV:  cpu time      0.0002: real time      0.0028
 Broyden mixing: mesh for mixing (old mesh)
   NGX = 41   NGY = 41   NGZ = 41
  (NGX  =128   NGY  =128   NGZ  =128)
  gives a total of  68921 points

 initial charge density was supplied:
 charge density of overlapping atoms calculated
 number of electron    1536.0000000 magnetization 
 keeping initial charge density in first step


--------------------------------------------------------------------------------------------------------


 Maximum index for non-local projection operator          1575
 Maximum index for augmentation-charges          1177 (set IRDMAX)


--------------------------------------------------------------------------------------------------------


 First call to EWALD:  gamma=   0.133
 Maximum number of real-space cells   3x   3x   3
 Maximum number of reciprocal cells   3x   3x   3

    FEWALD:  cpu time      0.1624: real time      0.1624


--------------------------------------- Ionic step        1  -------------------------------------------




--------------------------------------- Iteration      1(   1)  ---------------------------------------


    POTLOK:  cpu time      0.0738: real time      0.0604
    SETDIJ:  cpu time      0.1401: real time      0.0094
     EDDAV:  cpu time      3.8167: real time      5.0941
       DOS:  cpu time      0.0013: real time      0.0013
    --------------------------------------------
      LOOP:  cpu time      4.0322: real time      5.1653

 eigenvalue-minimisations  :  7392
 total energy-change (2. order) : 0.1519876E+05  (-0.6607945E+05)
 number of electron    1536.0000000 magnetization 
 augmentation part     1536.0000000 magnetization 

 Free energy of the ion-electron system (eV)
  ---------------------------------------------------
  alpha Z        PSCENC =      9286.93262904
  Ewald energy   TEWEN  =   -145427.83903277
  -Hartree energ DENC   =    -24407.99778826
  -exchange      EXHF   =         0.00000000
  -V(xc)+E(xc)   XCENC  =      6511.82444580
  PAW double counting   =    128519.36237625  -126091.47310150
  entropy T*S    EENTRO =        -0.01312928
  eigenvalues    EBANDS =      2430.04868019
  atomic energy  EATOM  =    164377.91643804
  Solvation  Ediel_sol  =         0.00000000
  ---------------------------------------------------
  free energy    TOTEN  =     15198.76151750 eV

  energy without entropy =    15198.77464678  energy(sigma->0) =    15198.76589392


--------------------------------------------------------------------------------------------------------




--------------------------------------- Iteration      1(   2)  ---------------------------------------


     EDDAV:  cpu time      3.1044: real time      3.0885
       DOS:  cpu time      0.0013: real time      0.0012
    --------------------------------------------
      LOOP:  cpu time      3.1056: real time      3.0897

 eigenvalue-minimisations  :  7724
 total energy-change (2. order) :-0.1457045E+05  (-0.1415705E+05)
 number of electron    1536.0000000 magnetization 
 augmentation part     1536.0000000 magnetization 

 Free energy of the ion-electron system (eV)
  ---------------------------------------------------
  alpha Z        PSCENC =      9286.93262904
  Ewald energy   TEWEN  =   -145427.83903277
  -Hartree energ DENC   =    -24407.99778826
  -exchange      EXHF   =         0.00000000
  -V(xc)+E(xc)   XCENC  =      6511.82444580
  PAW double counting   =    128519.36237625  -126091.47310150
  entropy T*S    EENTRO =         0.00775589
  eigenvalues    EBANDS =    -12140.42072529
  atomic energy  EATOM  =    164377.91643804
  Solvation  Ediel_sol  =         0.00000000
  ---------------------------------------------------
  free energy    TOTEN  =       628.31299719 eV

  energy without entropy =      628.30524130  energy(sigma->0) =      628.31041190


--------------------------------------------------------------------------------------------------------




--------------------------------------- Iteration      1(   3)  ---------------------------------------


     EDDAV:  cpu time      4.3178: real time      4.2905
       DOS:  cpu time      0.0013: real time      0.0013
    --------------------------------------------
      LOOP:  cpu time      4.3191: real time      4.2918

 eigenvalue-minimisations  : 11376
 total energy-change (2. order) :-0.1472883E+04  (-0.1378109E+04)
 number of electron    1536.0000000 magnetization 
 augmentation part     1536.0000000 magnetization 

 Free energy of the ion-electron system (eV)
  ---------------------------------------------------
  alpha Z        PSCENC =      9286.93262904
  Ewald energy   TEWEN  =   -145427.83903277
  -Hartree energ DENC   =    -24407.99778826
  -exchange      EXHF   =         0.00000000
  -V(xc)+E(xc)   XCENC  =      6511.82444580
  PAW double counting   =    128519.36237625  -126091.47310150
  entropy T*S    EENTRO =         0.06804897
  eigenvalues    EBANDS =    -13613.36414040
  atomic energy  EATOM  =    164377.91643804
  Solvation  Ediel_sol  =         0.00000000
  ---------------------------------------------------
  free energy    TOTEN  =      -844.57012484 eV

  energy without entropy =     -844.63817381  energy(sigma->0) =     -844.59280783


--------------------------------------------------------------------------------------------------------




--------------------------------------- Iteration      1(   4)  ---------------------------------------


     EDDAV:  cpu time      4.0788: real time      4.0651
       DOS:  cpu time      0.0014: real time      0.0013
    --------------------------------------------
      LOOP:  cpu time      4.0801: real time      4.0664

 eigenvalue-minimisations  : 10920
 total energy-change (2. order) :-0.2035161E+03  (-0.1978583E+03)
 number of electron    1536.0000000 magnetization 
 augmentation part     1536.0000000 magnetization 

 Free energy of the ion-electron system (eV)
  ---------------------------------------------------
  alpha Z        PSCENC =      9286.93262904
  Ewald energy   TEWEN  =   -145427.83903277
  -Hartree energ DENC   =    -24407.99778826
  -exchange      EXHF   =         0.00000000
  -V(xc)+E(xc)   XCENC  =      6511.82444580
  PAW double counting   =    128519.36237625  -126091.47310150
  entropy T*S    EENTRO =         0.26996226
  eigenvalues    EBANDS =    -13817.08214683
  atomic energy  EATOM  =    164377.91643804
  Solvation  Ediel_sol  =         0.00000000
  ---------------------------------------------------
  free energy    TOTEN  =     -1048.08621798 eV

  energy without entropy =    -1048.35618024  energy(sigma->0) =    -1048.17620540


--------------------------------------------------------------------------------------------------------




--------------------------------------- Iteration      1(   5)  ---------------------------------------


     EDDAV:  cpu time      3.8380: real time      3.8138
       DOS:  cpu time      0.0013: real time      0.0013
    CHARGE:  cpu time      0.4853: real time      0.3140
    MIXING:  cpu time      0.0409: real time      0.0038
    --------------------------------------------
      LOOP:  cpu time      4.3654: real time      4.1327

 eigenvalue-minimisations  : 10128
 total energy-change (2. order) :-0.1344458E+02  (-0.1338888E+02)
 number of electron    1536.0000136 magnetization 
 augmentation part       18.5208843 magnetization 

 Broyden mixing:
  rms(total) = 0.18574E+02    rms(broyden)= 0.18574E+02
  rms(prec ) = 0.18665E+02
  weight for this iteration     100.00

 Free energy of the ion-electron system (eV)
  ---------------------------------------------------
  alpha Z        PSCENC =      9286.93262904
  Ewald energy   TEWEN  =   -145427.83903277
  -Hartree energ DENC   =    -24407.99778826
  -exchange      EXHF   =         0.00000000
  -V(xc)+E(xc)   XCENC  =      6511.82444580
  PAW double counting   =    128519.36237625  -126091.47310150
  entropy T*S    EENTRO =         0.26185128
  eigenvalues    EBANDS =    -13830.51861275
  atomic energy  EATOM  =    164377.91643804
  Solvation  Ediel_sol  =         0.00000000
  ---------------------------------------------------
  free energy    TOTEN  =     -1061.53079488 eV

  energy without entropy =    -1061.79264616  energy(sigma->0) =    -1061.61807864


--------------------------------------------------------------------------------------------------------




--------------------------------------- Iteration      1(   6)  ---------------------------------------


    POTLOK:  cpu time      0.0404: real time      0.0156
    SETDIJ:  cpu time      0.1101: real time      0.0074
     EDDAV:  cpu time      3.4677: real time      3.4144
       DOS:  cpu time      0.0013: real time      0.0013
    CHARGE:  cpu time      0.4536: real time      0.3069
    MIXING:  cpu time      0.0406: real time      0.0036
    --------------------------------------------
      LOOP:  cpu time      4.1136: real time      3.7493

 eigenvalue-minimisations  :  8728
 total energy-change (2. order) : 0.2247906E+02  (-0.4161582E+01)
 number of electron    1536.0000148 magnetization 
 augmentation part       20.5430357 magnetization 

 Broyden mixing:
  rms(total) = 0.84239E+01    rms(broyden)= 0.84239E+01
  rms(prec ) = 0.84670E+01
  weight for this iteration     100.00

 eigenvalues of (default mixing * dielectric matrix)
  average eigenvalue GAMMA=   1.8195
  1.8195

 Free energy of the ion-electron system (eV)
  ---------------------------------------------------
  alpha Z        PSCENC =      9286.93262904
  Ewald energy   TEWEN  =   -145427.83903277
  -Hartree energ DENC   =    -23581.53459449
  -exchange      EXHF   =         0.00000000
  -V(xc)+E(xc)   XCENC  =      6463.64348810
  PAW double counting   =    183625.99734605  -181162.36318756
  entropy T*S    EENTRO =         0.32340932
  eigenvalues    EBANDS =    -14622.12822568
  atomic energy  EATOM  =    164377.91643804
  Solvation  Ediel_sol  =         0.00000000
  ---------------------------------------------------
  free energy    TOTEN  =     -1039.05172995 eV

  energy without entropy =    -1039.37513927  energy(sigma->0) =    -1039.15953305


--------------------------------------------------------------------------------------------------------




--------------------------------------- Iteration      1(   7)  ---------------------------------------


    POTLOK:  cpu time      0.0361: real time      0.0110
    SETDIJ:  cpu time      0.1037: real time      0.0069
     EDDAV:  cpu time      3.5834: real time      3.5293
       DOS:  cpu time      0.0013: real time      0.0012
    CHARGE:  cpu time      0.4501: real time      0.3063
    MIXING:  cpu time      0.0426: real time      0.0039
    --------------------------------------------
      LOOP:  cpu time      4.2172: real time      3.8587

 eigenvalue-minimisations  :  9120
 total energy-change (2. order) : 0.2754361E+01  (-0.3009255E+01)
 number of electron    1536.0000041 magnetization 
 augmentation part       16.9111979 magnetization 

 Broyden mixing:
  rms(total) = 0.89065E+00    rms(broyden)= 0.89065E+00
  rms(prec ) = 0.95603E+00
  weight for this iteration     100.00

 eigenvalues of (default mixing * dielectric matrix)
  average eigenvalue GAMMA=   2.4384
  1.7168  3.1600

 Free energy of the ion-electron system (eV)
  ---------------------------------------------------
  alpha Z        PSCENC =      9286.93262904
  Ewald energy   TEWEN  =   -145427.83903277
  -Hartree energ DENC   =    -23037.51918023
  -exchange      EXHF   =         0.00000000
  -V(xc)+E(xc)   XCENC  =      6431.26498627
  PAW double counting   =    244546.67987202  -241972.01622041
  entropy T*S    EENTRO =         0.31857892
  eigenvalues    EBANDS =    -15242.03543941
  atomic energy  EATOM  =    164377.91643804
  Solvation  Ediel_sol  =         0.00000000
  ---------------------------------------------------
  free energy    TOTEN  =     -1036.29736855 eV

  energy without entropy =    -1036.61594746  energy(sigma->0) =    -1036.40356152


--------------------------------------------------------------------------------------------------------




--------------------------------------- Iteration      1(   8)  ---------------------------------------


    POTLOK:  cpu time      0.0378: real time      0.0111
    SETDIJ:  cpu time      0.1021: real time      0.0068
     EDDAV:  cpu time      3.6761: real time      3.6213
       DOS:  cpu time      0.0013: real time      0.0013
    CHARGE:  cpu time      0.4559: real time      0.3045
    MIXING:  cpu time      0.0449: real time      0.0039
    --------------------------------------------
      LOOP:  cpu time      4.3180: real time      3.9490

 eigenvalue-minimisations  :  9456
 total energy-change (2. order) :-0.6211270E+00  (-0.4714822E+00)
 number of electron    1535.9999940 magnetization 
 augmentation part       12.3221315 magnetization 

 Broyden mixing:
  rms(total) = 0.89570E-01    rms(broyden)= 0.89485E-01
  rms(prec ) = 0.94385E-01
  weight for this iteration     100.00

 eigenvalues of (default mixing * dielectric matrix)
  average eigenvalue GAMMA=   1.8412
  1.2283  1.6697  2.6255

 Free energy of the ion-electron system (eV)
  ---------------------------------------------------
  alpha Z        PSCENC =      9286.93262904
  Ewald energy   TEWEN  =   -145427.83903277
  -Hartree energ DENC   =    -23286.10172782
  -exchange      EXHF   =         0.00000000
  -V(xc)+E(xc)   XCENC  =      6443.63853766
  PAW double counting   =    258444.19799806  -255659.25842705
  entropy T*S    EENTRO =         0.30051728
  eigenvalues    EBANDS =    -15216.70542795
  atomic energy  EATOM  =    164377.91643804
  Solvation  Ediel_sol  =         0.00000000
  ---------------------------------------------------
  free energy    TOTEN  =     -1036.91849552 eV

  energy without entropy =    -1037.21901279  energy(sigma->0) =    -1037.01866794


--------------------------------------------------------------------------------------------------------




--------------------------------------- Iteration      1(   9)  ---------------------------------------


    POTLOK:  cpu time      0.0382: real time      0.0114
    SETDIJ:  cpu time      0.1037: real time      0.0069
     EDDAV:  cpu time      3.4857: real time      3.4322
       DOS:  cpu time      0.0013: real time      0.0013
    CHARGE:  cpu time      0.4580: real time      0.3040
    MIXING:  cpu time      0.0486: real time      0.0042
    --------------------------------------------
      LOOP:  cpu time      4.1355: real time      3.7599

 eigenvalue-minimisations  :  8856
 total energy-change (2. order) : 0.1645525E-01  (-0.1057564E-01)
 number of electron    1535.9999945 magnetization 
 augmentation part       12.7284650 magnetization 

 Broyden mixing:
  rms(total) = 0.65271E-01    rms(broyden)= 0.65268E-01
  rms(prec ) = 0.68209E-01
  weight for this iteration     100.00

 eigenvalues of (default mixing * dielectric matrix)
  average eigenvalue GAMMA=   1.9894
  0.9743  2.7037  2.6272  1.6522

 Free energy of the ion-electron system (eV)
  ---------------------------------------------------
  alpha Z        PSCENC =      9286.93262904
  Ewald energy   TEWEN  =   -145427.83903277
  -Hartree energ DENC   =    -23258.37025359
  -exchange      EXHF   =         0.00000000
  -V(xc)+E(xc)   XCENC  =      6442.17434035
  PAW double counting   =    257028.95152299  -254256.76565002
  entropy T*S    EENTRO =         0.30343561
  eigenvalues    EBANDS =    -15230.20546990
  atomic energy  EATOM  =    164377.91643804
  Solvation  Ediel_sol  =         0.00000000
  ---------------------------------------------------
  free energy    TOTEN  =     -1036.90204027 eV

  energy without entropy =    -1037.20547588  energy(sigma->0) =    -1037.00318547


--------------------------------------------------------------------------------------------------------




--------------------------------------- Iteration      1(  10)  ---------------------------------------


    POTLOK:  cpu time      0.0389: real time      0.0124
    SETDIJ:  cpu time      0.1032: real time      0.0068
     EDDAV:  cpu time      3.8431: real time      3.7870
       DOS:  cpu time      0.0013: real time      0.0013
    CHARGE:  cpu time      0.4557: real time      0.3048
    MIXING:  cpu time      0.0547: real time      0.0046
    --------------------------------------------
      LOOP:  cpu time      4.4970: real time      4.1167

 eigenvalue-minimisations  : 10016
 total energy-change (2. order) : 0.4801486E-02  (-0.1121657E-02)
 number of electron    1535.9999948 magnetization 
 augmentation part       12.9095557 magnetization 

 Broyden mixing:
  rms(total) = 0.16931E-01    rms(broyden)= 0.16930E-01
  rms(prec ) = 0.17709E-01
  weight for this iteration     100.00

 eigenvalues of (default mixing * dielectric matrix)
  average eigenvalue GAMMA=   1.7225
  2.6685  2.2124  1.6491  1.0083  1.0743

 Free energy of the ion-electron system (eV)
  ---------------------------------------------------
  alpha Z        PSCENC =      9286.93262904
  Ewald energy   TEWEN  =   -145427.83903277
  -Hartree energ DENC   =    -23271.11690383
  -exchange      EXHF   =         0.00000000
  -V(xc)+E(xc)   XCENC  =      6442.76374619
  PAW double counting   =    256974.67292726  -254183.68877653
  entropy T*S    EENTRO =         0.30441205
  eigenvalues    EBANDS =    -15236.84267822
  atomic energy  EATOM  =    164377.91643804
  Solvation  Ediel_sol  =         0.00000000
  ---------------------------------------------------
  free energy    TOTEN  =     -1036.89723878 eV

  energy without entropy =    -1037.20165083  energy(sigma->0) =    -1036.99870947


--------------------------------------------------------------------------------------------------------




--------------------------------------- Iteration      1(  11)  ---------------------------------------


    POTLOK:  cpu time      0.0358: real time      0.0130
    SETDIJ:  cpu time      0.1017: real time      0.0068
     EDDAV:  cpu time      3.5256: real time      3.4714
       DOS:  cpu time      0.0013: real time      0.0013
    CHARGE:  cpu time      0.4623: real time      0.3085
    MIXING:  cpu time      0.0583: real time      0.0047
    --------------------------------------------
      LOOP:  cpu time      4.1851: real time      3.8058

 eigenvalue-minimisations  :  8984
 total energy-change (2. order) : 0.4533496E-04  (-0.7941769E-04)
 number of electron    1535.9999948 magnetization 
 augmentation part       12.8745333 magnetization 

 Broyden mixing:
  rms(total) = 0.41833E-02    rms(broyden)= 0.41832E-02
  rms(prec ) = 0.45083E-02
  weight for this iteration     100.00

 eigenvalues of (default mixing * dielectric matrix)
  average eigenvalue GAMMA=   1.8482
  2.9275  2.4318  2.1132  1.6356  1.0164  0.9648

 Free energy of the ion-electron system (eV)
  ---------------------------------------------------
  alpha Z        PSCENC =      9286.93262904
  Ewald energy   TEWEN  =   -145427.83903277
  -Hartree energ DENC   =    -23267.93863282
  -exchange      EXHF   =         0.00000000
  -V(xc)+E(xc)   XCENC  =      6442.61583273
  PAW double counting   =    256955.09901579  -254168.59517212
  entropy T*S    EENTRO =         0.30431702
  eigenvalues    EBANDS =    -15235.39258834
  atomic energy  EATOM  =    164377.91643804
  Solvation  Ediel_sol  =         0.00000000
  ---------------------------------------------------
  free energy    TOTEN  =     -1036.89719345 eV

  energy without entropy =    -1037.20151046  energy(sigma->0) =    -1036.99863245


--------------------------------------------------------------------------------------------------------




--------------------------------------- Iteration      1(  12)  ---------------------------------------


    POTLOK:  cpu time      0.0372: real time      0.0132
    SETDIJ:  cpu time      0.1030: real time      0.0068
     EDDAV:  cpu time      3.4758: real time      3.4223
       DOS:  cpu time      0.0013: real time      0.0013
    CHARGE:  cpu time      0.4523: real time      0.3049
    MIXING:  cpu time      0.0629: real time      0.0051
    --------------------------------------------
      LOOP:  cpu time      4.1325: real time      3.7535

 eigenvalue-minimisations  :  8808
 total energy-change (2. order) : 0.1612979E-04  (-0.1185678E-04)
 number of electron    1535.9999948 magnetization 
 augmentation part       12.8865050 magnetization 

 Broyden mixing:
  rms(total) = 0.20464E-02    rms(broyden)= 0.20463E-02
  rms(prec ) = 0.21770E-02
  weight for this iteration     100.00

 eigenvalues of (default mixing * dielectric matrix)
  average eigenvalue GAMMA=   1.7341
  2.7929  2.5419  2.3213  1.6337  1.0126  1.0126  0.8238

 Free energy of the ion-electron system (eV)
  ---------------------------------------------------
  alpha Z        PSCENC =      9286.93262904
  Ewald energy   TEWEN  =   -145427.83903277
  -Hartree energ DENC   =    -23269.44625278
  -exchange      EXHF   =         0.00000000
  -V(xc)+E(xc)   XCENC  =      6442.69072639
  PAW double counting   =    256985.78725825  -254197.86742605
  entropy T*S    EENTRO =         0.30440186
  eigenvalues    EBANDS =    -15235.37591928
  atomic energy  EATOM  =    164377.91643804
  Solvation  Ediel_sol  =         0.00000000
  ---------------------------------------------------
  free energy    TOTEN  =     -1036.89717732 eV

  energy without entropy =    -1037.20157917  energy(sigma->0) =    -1036.99864460


--------------------------------------------------------------------------------------------------------




--------------------------------------- Iteration      1(  13)  ---------------------------------------


    POTLOK:  cpu time      0.0370: real time      0.0118
    SETDIJ:  cpu time      0.1098: real time      0.0069
     EDDAV:  cpu time      3.2536: real time      3.2014
       DOS:  cpu time      0.0014: real time      0.0014
    CHARGE:  cpu time      0.4570: real time      0.3058
    MIXING:  cpu time      0.0633: real time      0.0055
    --------------------------------------------
      LOOP:  cpu time      3.9220: real time      3.5328

 eigenvalue-minimisations  :  8048
 total energy-change (2. order) : 0.1827563E-04  (-0.1153199E-05)
 number of electron    1535.9999948 magnetization 
 augmentation part       12.8893981 magnetization 

 Broyden mixing:
  rms(total) = 0.45761E-03    rms(broyden)= 0.45759E-03
  rms(prec ) = 0.48897E-03
  weight for this iteration     100.00

 eigenvalues of (default mixing * dielectric matrix)
  average eigenvalue GAMMA=   1.7995
  2.7362  2.7362  2.3475  2.0633  1.6243  1.0413  0.9576  0.8898

 Free energy of the ion-electron system (eV)
  ---------------------------------------------------
  alpha Z        PSCENC =      9286.93262904
  Ewald energy   TEWEN  =   -145427.83903277
  -Hartree energ DENC   =    -23269.07571012
  -exchange      EXHF   =         0.00000000
  -V(xc)+E(xc)   XCENC  =      6442.67247694
  PAW double counting   =    256978.05061091  -254190.50665540
  entropy T*S    EENTRO =         0.30441053
  eigenvalues    EBANDS =    -15235.35232621
  atomic energy  EATOM  =    164377.91643804
  Solvation  Ediel_sol  =         0.00000000
  ---------------------------------------------------
  free energy    TOTEN  =     -1036.89715904 eV

  energy without entropy =    -1037.20156957  energy(sigma->0) =    -1036.99862922


--------------------------------------------------------------------------------------------------------




--------------------------------------- Iteration      1(  14)  ---------------------------------------


    POTLOK:  cpu time      0.0376: real time      0.0109
    SETDIJ:  cpu time      0.1020: real time      0.0064
     EDDAV:  cpu time      2.1160: real time      2.0715
       DOS:  cpu time      0.0013: real time      0.0013
    CHARGE:  cpu time      0.4560: real time      0.3051
    MIXING:  cpu time      0.0629: real time      0.0057
    --------------------------------------------
      LOOP:  cpu time      2.7758: real time      2.4009

 eigenvalue-minimisations  :  4208
 total energy-change (2. order) : 0.1859895E-05  (-0.5697770E-07)
 number of electron    1535.9999948 magnetization 
 augmentation part       12.8894293 magnetization 

 Broyden mixing:
  rms(total) = 0.12469E-03    rms(broyden)= 0.12469E-03
  rms(prec ) = 0.13248E-03
  weight for this iteration     100.00

 eigenvalues of (default mixing * dielectric matrix)
  average eigenvalue GAMMA=   1.7236
  2.8056  2.6360  2.3732  2.3732  1.6262  1.0334  0.9422  0.9422  0.7801

 Free energy of the ion-electron system (eV)
  ---------------------------------------------------
  alpha Z        PSCENC =      9286.93262904
  Ewald energy   TEWEN  =   -145427.83903277
  -Hartree energ DENC   =    -23268.98450927
  -exchange      EXHF   =         0.00000000
  -V(xc)+E(xc)   XCENC  =      6442.66788041
  PAW double counting   =    256974.67523214  -254187.21166553
  entropy T*S    EENTRO =         0.30440875
  eigenvalues    EBANDS =    -15235.35853799
  atomic energy  EATOM  =    164377.91643804
  Solvation  Ediel_sol  =         0.00000000
  ---------------------------------------------------
  free energy    TOTEN  =     -1036.89715718 eV

  energy without entropy =    -1037.20156593  energy(sigma->0) =    -1036.99862677


--------------------------------------------------------------------------------------------------------




--------------------------------------- Iteration      1(  15)  ---------------------------------------


    POTLOK:  cpu time      0.0359: real time      0.0126
    SETDIJ:  cpu time      0.1017: real time      0.0064
     EDDAV:  cpu time      2.1016: real time      2.0572
       DOS:  cpu time      0.0013: real time      0.0013
    --------------------------------------------
      LOOP:  cpu time      2.2407: real time      2.0777

 eigenvalue-minimisations  :  4152
 total energy-change (2. order) :-0.9007563E-06  (-0.2423162E-07)
 number of electron    1535.9999948 magnetization 
 augmentation part       12.8894293 magnetization 

 Free energy of the ion-electron system (eV)
  ---------------------------------------------------
  alpha Z        PSCENC =      9286.93262904
  Ewald energy   TEWEN  =   -145427.83903277
  -Hartree energ DENC   =    -23268.96214388
  -exchange      EXHF   =         0.00000000
  -V(xc)+E(xc)   XCENC  =      6442.66672980
  PAW double counting   =    256974.14171557  -254186.69503811
  entropy T*S    EENTRO =         0.30440686
  eigenvalues    EBANDS =    -15235.36286262
  atomic energy  EATOM  =    164377.91643804
  Solvation  Ediel_sol  =         0.00000000
  ---------------------------------------------------
  free energy    TOTEN  =     -1036.89715808 eV

  energy without entropy =    -1037.20156494  energy(sigma->0) =    -1036.99862704


--------------------------------------------------------------------------------------------------------




 average (electrostatic) potential at core
  the test charge radii are     1.0638
  (the norm of the test charge is              1.0000)
       1 -70.9097       2 -70.9096       3 -70.9095       4 -70.9096       5 -70.9093
       6 -70.9094       7 -70.9095       8 -70.9096       9 -70.9095      10 -70.9096
      11 -70.9094      12 -70.9095      13 -70.9095      14 -70.9095      15 -70.9096
      16 -70.9097      17 -70.9094      18 -70.9097      19 -70.9097      20 -70.9096
      21 -70.9095      22 -70.9095      23 -70.9094      24 -70.9094      25 -70.9093
      26 -70.9094      27 -70.9093      28 -70.9094      29 -70.9094      30 -70.9097
      31 -70.9096      32 -70.9094      33 -70.9097      34 -70.9094      35 -70.9094
      36 -70.9095      37 -70.9095      38 -70.9095      39 -70.9096      40 -70.9096
      41 -70.9096      42 -70.9093      43 -70.9095      44 -70.9094      45 -70.9096
      46 -70.9094      47 -70.9095      48 -70.9094      49 -70.9094      50 -70.9095
      51 -70.9094      52 -70.9097      53 -70.9097      54 -70.9096      55 -70.9096
      56 -70.9094      57 -70.9095      58 -70.9096      59 -70.9095      60 -70.9095
      61 -70.9095      62 -70.9094      63 -70.9096      64 -70.9096      65 -70.9097
      66 -70.9097      67 -70.9095      68 -70.9095      69 -70.9095      70 -70.9093
      71 -70.9095      72 -70.9094      73 -70.9095      74 -70.9095      75 -70.9095
      76 -70.9097      77 -70.9097      78 -70.9095      79 -70.9095      80 -70.9096
      81 -70.9096      82 -70.9097      83 -70.9094      84 -70.9094      85 -70.9094
      86 -70.9095      87 -70.9096      88 -70.9095      89 -70.9096      90 -70.9094
      91 -70.9096      92 -70.9096      93 -70.9096      94 -70.9093      95 -70.9094
      96 -70.9095      97 -70.9095      98 -70.9097      99 -70.9094     100 -70.9094
     101 -70.9095     102 -70.9093     103 -70.9095     104 -70.9097     105 -70.9094
     106 -70.9095     107 -70.9095     108 -70.9096     109 -70.9094     110 -70.9096
     111 -70.9097     112 -70.9096     113 -70.9097     114 -70.9094     115 -70.9097
     116 -70.9095     117 -70.9096     118 -70.9094     119 -70.9097     120 -70.9094
     121 -70.9096     122 -70.9096     123 -70.9095     124 -70.9095     125 -70.9094
     126 -70.9094     127 -70.9094     128 -70.9095
 
 
 
 E-fermi :  11.7050     XC(G=0): -12.2163     alpha+bet :-20.2634

 val. band max:       11.6449871106   @ k =   0.5000   0.0000   0.0000
 cond. band min:      11.7919518331   @ k =   0.5000   0.5000   0.0000
 fundamental gap:      0.1469647225
 Fermi energy:        11.7050277112

 k-point     1 :       0.0000    0.0000    0.0000
  band No.  band energies     occupation 
      1     -36.5251      2.00000
      2     -36.4163      2.00000
      3     -36.4163      2.00000
      4     -36.4163      2.00000
      5     -36.4163      2.00000
      6     -36.4163      2.00000
      7     -36.4163      2.00000
      8     -36.3326      2.00000
      9     -36.3326      2.00000
     10     -36.3326      2.00000
     11     -36.3326      2.00000
     12     -36.3326      2.00000
     13     -36.3326      2.00000
     14     -36.3326      2.00000
     15     -36.3326      2.00000
     16     -36.3326      2.00000
     17     -36.3326      2.00000
     18     -36.3326      2.00000
     19     -36.3326      2.00000
     20     -36.2675      2.00000
     21     -36.2675      2.00000
     22     -36.2675      2.00000
     23     -36.2675      2.00000
     24     -36.2675      2.00000
     25     -36.2675      2.00000
     26     -36.2675      2.00000
     27     -36.2675      2.00000
     28     -36.1696      2.00000
     29     -36.1696      2.00000
     30     -36.1696      2.00000
     31     -36.1696      2.00000
     32     -36.1696      2.00000
     33     -36.1696      2.00000
     34     -36.1508      2.00000
     35     -36.1508      2.00000
     36     -36.1508      2.00000
     37     -36.1508      2.00000
     38     -36.1508      2.00000
     39     -36.1508      2.00000
     40     -36.1508      2.00000
     41     -36.1508      2.00000
     42     -36.1508      2.00000
     43     -36.1508      2.00000
     44     -36.1508      2.00000
     45     -36.1508      2.00000
     46     -36.1508      2.00000
     47     -36.1508      2.00000
     48     -36.1508      2.00000
     49     -36.1508      2.00000
     50     -36.1508      2.00000
     51     -36.1508      2.00000
     52     -36.1508      2.00000
     53     -36.1508      2.00000
     54     -36.1508      2.00000
     55     -36.1508      2.00000
     56     -36.1507      2.00000
     57     -36.1507      2.00000
     58     -36.1328      2.00000
     59     -36.1328      2.00000
     60     -36.1328      2.00000
     61     -36.1328      2.00000
     62     -36.1328      2.00000
     63     -36.1328      2.00000
     64     -36.1328      2.00000
     65     -36.1328      2.00000
     66     -36.1328      2.00000
     67     -36.1327      2.00000
     68     -36.1327      2.00000
     69     -36.1327      2.00000
     70     -36.1327      2.00000
     71     -36.1327      2.00000
     72     -36.1327      2.00000
     73     -36.1327      2.00000
     74     -36.1327      2.00000
     75     -36.1327      2.00000
     76     -36.1327      2.00000
     77     -36.1327      2.00000
     78     -36.1327      2.00000
     79     -36.1327      2.00000
     80     -36.1327      2.00000
     81     -36.1327      2.00000
     82     -36.1319      2.00000
     83     -36.1319      2.00000
     84     -36.1319      2.00000
     85     -36.1319      2.00000
     86     -36.1319      2.00000
     87     -36.1319      2.00000
     88     -36.1146      2.00000
     89     -36.1146      2.00000
     90     -36.1146      2.00000
     91     -36.1146      2.00000
     92     -36.1146      2.00000
     93     -36.1146      2.00000
     94     -36.1146      2.00000
     95     -36.1146      2.00000
     96     -36.1146      2.00000
     97     -36.1146      2.00000
     98     -36.1146      2.00000
     99     -36.1146      2.00000
    100     -36.0973      2.00000
    101     -36.0973      2.00000
    102     -36.0321      2.00000
    103     -36.0321      2.00000
    104     -36.0321      2.00000
    105     -36.0321      2.00000
    106     -36.0321      2.00000
    107     -36.0321      2.00000
    108     -36.0320      2.00000
    109     -36.0320      2.00000
    110     -36.0010      2.00000
    111     -36.0010      2.00000
    112     -36.0010      2.00000
    113     -36.0010      2.00000
    114     -36.0010      2.00000
    115     -36.0010      2.00000
    116     -36.0010      2.00000
    117     -36.0010      2.00000
    118     -36.0010      2.00000
    119     -36.0010      2.00000
    120     -36.0010      2.00000
    121     -36.0009      2.00000
    122     -35.9492      2.00000
    123     -35.9492      2.00000
    124     -35.9492      2.00000
    125     -35.9491      2.00000
    126     -35.9491      2.00000
    127     -35.9491      2.00000
    128     -35.8667      2.00000
    129     -15.5154      2.00000
    130     -15.5154      2.00000
    131     -15.5154      2.00000
    132     -15.5154      2.00000
    133     -15.5154      2.00000
    134     -15.5154      2.00000
    135     -15.2417      2.00000
    136     -15.2417      2.00000
    137     -15.2417      2.00000
    138     -15.2417      2.00000
    139     -15.2417      2.00000
    140     -15.2417      2.00000
    141     -15.2417      2.00000
    142     -15.2417      2.00000
    143     -15.2417      2.00000
    144     -15.2417      2.00000
    145     -15.2417      2.00000
    146     -15.2417      2.00000
    147     -15.1928      2.00000
    148     -15.1928      2.00000
    149     -15.1928      2.00000
    150     -15.1928      2.00000
    151     -15.1928      2.00000
    152     -15.1928      2.00000
    153     -15.1928      2.00000
    154     -15.1928      2.00000
    155     -15.1928      2.00000
    156     -15.1928      2.00000
    157     -15.1928      2.00000
    158     -15.1928      2.00000
    159     -15.1754      2.00000
    160     -15.1754      2.00000
    161     -15.1754      2.00000
    162     -15.1754      2.00000
    163     -15.1754      2.00000
    164     -15.1754      2.00000
    165     -15.1754      2.00000
    166     -15.1754      2.00000
    167     -15.1754      2.00000
    168     -15.1754      2.00000
    169     -15.1754      2.00000
    170     -15.1754      2.00000
    171     -15.1754      2.00000
    172     -15.1754      2.00000
    173     -15.1754      2.00000
    174     -15.1754      2.00000
    175     -15.1754      2.00000
    176     -15.1754      2.00000
    177     -15.1754      2.00000
    178     -15.1754      2.00000
    179     -15.1754      2.00000
    180     -15.1754      2.00000
    181     -15.1754      2.00000
    182     -15.1754      2.00000
    183     -15.1596      2.00000
    184     -15.1596      2.00000
    185     -15.1596      2.00000
    186     -15.1596      2.00000
    187     -15.1596      2.00000
    188     -15.1596      2.00000
    189     -15.1596      2.00000
    190     -15.1596      2.00000
    191     -15.1596      2.00000
    192     -15.1596      2.00000
    193     -15.1596      2.00000
    194     -15.1596      2.00000
    195     -15.1596      2.00000
    196     -15.1596      2.00000
    197     -15.1596      2.00000
    198     -15.1596      2.00000
    199     -15.1596      2.00000
    200     -15.1596      2.00000
    201     -15.1596      2.00000
    202     -15.1596      2.00000
    203     -15.1596      2.00000
    204     -15.1596      2.00000
    205     -15.1596      2.00000
    206     -15.1596      2.00000
    207     -14.9543      2.00000
    208     -14.9543      2.00000
    209     -14.9543      2.00000
    210     -14.9543      2.00000
    211     -14.9543      2.00000
    212     -14.9543      2.00000
    213     -14.9543      2.00000
    214     -14.9543      2.00000
    215     -14.9543      2.00000
    216     -14.9543      2.00000
    217     -14.9543      2.00000
    218     -14.9543      2.00000
    219     -14.9543      2.00000
    220     -14.9543      2.00000
    221     -14.9543      2.00000
    222     -14.9543      2.00000
    223     -14.8675      2.00000
    224     -14.8675      2.00000
    225     -14.8675      2.00000
    226     -14.8675      2.00000
    227     -14.8675      2.00000
    228     -14.8675      2.00000
    229     -14.8470      2.00000
    230     -14.8470      2.00000
    231     -14.8470      2.00000
    232     -14.8434      2.00000
    233     -14.8434      2.00000
    234     -14.8434      2.00000
    235     -14.8434      2.00000
    236     -14.8434      2.00000
    237     -14.8434      2.00000
    238     -14.8434      2.00000
    239     -14.8434      2.00000
    240     -14.6507      2.00000
    241     -14.6507      2.00000
    242     -14.6507      2.00000
    243     -14.6507      2.00000
    244     -14.6507      2.00000
    245     -14.6507      2.00000
    246     -14.6507      2.00000
    247     -14.6507      2.00000
    248     -14.6507      2.00000
    249     -14.6507      2.00000
    250     -14.6507      2.00000
    251     -14.6507      2.00000
    252     -14.6227      2.00000
    253     -14.6227      2.00000
    254     -14.6227      2.00000
    255     -14.6227      2.00000
    256     -14.6227      2.00000
    257     -14.6227      2.00000
    258     -14.5732      2.00000
    259     -14.5732      2.00000
    260     -14.5732      2.00000
    261     -14.5732      2.00000
    262     -14.5732      2.00000
    263     -14.5732      2.00000
    264     -14.5732      2.00000
    265     -14.5732      2.00000
    266     -14.5732      2.00000
    267     -14.5732      2.00000
    268     -14.5732      2.00000
    269     -14.5732      2.00000
    270     -14.5610      2.00000
    271     -14.5610      2.00000
    272     -14.5610      2.00000
    273     -14.5610      2.00000
    274     -14.5610      2.00000
    275     -14.5610      2.00000
    276     -14.5001      2.00000
    277     -14.5001      2.00000
    278     -14.5001      2.00000
    279     -14.5001      2.00000
    280     -14.5001      2.00000
    281     -14.5001      2.00000
    282     -14.5001      2.00000
    283     -14.5000      2.00000
    284     -14.5000      2.00000
    285     -14.5000      2.00000
    286     -14.5000      2.00000
    287     -14.5000      2.00000
    288     -14.3725      2.00000
    289     -14.3725      2.00000
    290     -14.3725      2.00000
    291     -14.3725      2.00000
    292     -14.3725      2.00000
    293     -14.3725      2.00000
    294     -14.3725      2.00000
    295     -14.3725      2.00000
    296     -14.3725      2.00000
    297     -14.3725      2.00000
    298     -14.3725      2.00000
    299     -14.3725      2.00000
    300     -14.3725      2.00000
    301     -14.3725      2.00000
    302     -14.3725      2.00000
    303     -14.3725      2.00000
    304     -14.3725      2.00000
    305     -14.3725      2.00000
    306     -14.3725      2.00000
    307     -14.3725      2.00000
    308     -14.3725      2.00000
    309     -14.3725      2.00000
    310     -14.3725      2.00000
    311     -14.3725      2.00000
    312     -14.3490      2.00000
    313     -14.3490      2.00000
    314     -14.3489      2.00000
    315     -14.3489      2.00000
    316     -14.3489      2.00000
    317     -14.3489      2.00000
    318     -14.3489      2.00000
    319     -14.3489      2.00000
    320     -14.3489      2.00000
    321     -14.3489      2.00000
    322     -14.3489      2.00000
    323     -14.3489      2.00000
    324     -14.2298      2.00000
    325     -14.2298      2.00000
    326     -14.2298      2.00000
    327     -14.2298      2.00000
    328     -14.2298      2.00000
    329     -14.2298      2.00000
    330     -14.2298      2.00000
    331     -14.2298      2.00000
    332     -14.2298      2.00000
    333     -14.2298      2.00000
    334     -14.2298      2.00000
    335     -14.2298      2.00000
    336     -14.1783      2.00000
    337     -14.1783      2.00000
    338     -14.1783      2.00000
    339     -14.1783      2.00000
    340     -14.1783      2.00000
    341     -14.1783      2.00000
    342     -14.1783      2.00000
    343     -14.1783      2.00000
    344     -14.1783      2.00000
    345     -14.1783      2.00000
    346     -14.1783      2.00000
    347     -14.1783      2.00000
    348     -14.1531      2.00000
    349     -14.1531      2.00000
    350     -14.1531      2.00000
    351     -14.1531      2.00000
    352     -14.1531      2.00000
    353     -14.1531      2.00000
    354     -14.1531      2.00000
    355     -14.1531      2.00000
    356     -14.1531      2.00000
    357     -14.1531      2.00000
    358     -14.1531      2.00000
    359     -14.1531      2.00000
    360     -14.1531      2.00000
    361     -14.1531      2.00000
    362     -14.1531      2.00000
    363     -14.1531      2.00000
    364     -14.1530      2.00000
    365     -14.1530      2.00000
    366     -14.1530      2.00000
    367     -14.1530      2.00000
    368     -14.1530      2.00000
    369     -14.1530      2.00000
    370     -14.1530      2.00000
    371     -14.1530      2.00000
    372     -14.1285      2.00000
    373     -14.1285      2.00000
    374     -14.1285      2.00000
    375     -14.1285      2.00000
    376     -14.1285      2.00000
    377     -14.1285      2.00000
    378     -13.9484      2.00000
    379     -13.9484      2.00000
    380     -13.9484      2.00000
    381     -13.9484      2.00000
    382     -13.9484      2.00000
    383     -13.9484      2.00000
    384     -13.8916      2.00000
    385     -13.8916      2.00000
    386     -13.8916      2.00000
    387     -13.8916      2.00000
    388     -13.8916      2.00000
    389     -13.8916      2.00000
    390     -13.8916      2.00000
    391     -13.8916      2.00000
    392     -13.8534      2.00000
    393     -13.8534      2.00000
    394     -13.8534      2.00000
    395     -13.8534      2.00000
    396     -13.8534      2.00000
    397     -13.8534      2.00000
    398     -13.8534      2.00000
    399     -13.8534      2.00000
    400     -13.8534      2.00000
    401     -13.8534      2.00000
    402     -13.8534      2.00000
    403     -13.8534      2.00000
    404     -13.8343      2.00000
    405     -13.8343      2.00000
    406     -13.8343      2.00000
    407     -13.8343      2.00000
    408     -13.8343      2.00000
    409     -13.8343      2.00000
    410     -13.8343      2.00000
    411     -13.8343      2.00000
    412     -13.8343      2.00000
    413     -13.8343      2.00000
    414     -13.8343      2.00000
    415     -13.8343      2.00000
    416     -13.7819      2.00000
    417     -13.7819      2.00000
    418     -13.7819      2.00000
    419     -13.7819      2.00000
    420     -13.7819      2.00000
    421     -13.7819      2.00000
    422     -13.7819      2.00000
    423     -13.7819      2.00000
    424     -13.7819      2.00000
    425     -13.7819      2.00000
    426     -13.7819      2.00000
    427     -13.7819      2.00000
    428     -13.7819      2.00000
    429     -13.7819      2.00000
    430     -13.7819      2.00000
    431     -13.7819      2.00000
    432     -13.7612      2.00000
    433     -13.7612      2.00000
    434     -13.7612      2.00000
    435     -13.7612      2.00000
    436     -13.7612      2.00000
    437     -13.7612      2.00000
    438     -13.7612      2.00000
    439     -13.7612      2.00000
    440     -13.7612      2.00000
    441     -13.7612      2.00000
    442     -13.7612      2.00000
    443     -13.7612      2.00000
    444     -13.7612      2.00000
    445     -13.7612      2.00000
    446     -13.7612      2.00000
    447     -13.7612      2.00000
    448     -13.7612      2.00000
    449     -13.7612      2.00000
    450     -13.7612      2.00000
    451     -13.7612      2.00000
    452     -13.7612      2.00000
    453     -13.7612      2.00000
    454     -13.7612      2.00000
    455     -13.7612      2.00000
    456     -13.7374      2.00000
    457     -13.7374      2.00000
    458     -13.7374      2.00000
    459     -13.7374      2.00000
    460     -13.7374      2.00000
    461     -13.7374      2.00000
    462     -13.7374      2.00000
    463     -13.7374      2.00000
    464     -13.7374      2.00000
    465     -13.7374      2.00000
    466     -13.7374      2.00000
    467     -13.7374      2.00000
    468     -13.7374      2.00000
    469     -13.7374      2.00000
    470     -13.7374      2.00000
    471     -13.7374      2.00000
    472     -13.7374      2.00000
    473     -13.7374      2.00000
    474     -13.7374      2.00000
    475     -13.7374      2.00000
    476     -13.7374      2.00000
    477     -13.7374      2.00000
    478     -13.7374      2.00000
    479     -13.7374      2.00000
    480     -13.7118      2.00000
    481     -13.7118      2.00000
    482     -13.7118      2.00000
    483     -13.7118      2.00000
    484     -13.7118      2.00000
    485     -13.7118      2.00000
    486     -13.7118      2.00000
    487     -13.7118      2.00000
    488     -13.7118      2.00000
    489     -13.7118      2.00000
    490     -13.7118      2.00000
    491     -13.7118      2.00000
    492     -13.5530      2.00000
    493     -13.5530      2.00000
    494     -13.5530      2.00000
    495     -13.5530      2.00000
    496     -13.5530      2.00000
    497     -13.5530      2.00000
    498     -13.5373      2.00000
    499     -13.5373      2.00000
    500     -13.5373      2.00000
    501     -13.5373      2.00000
    502     -13.5373      2.00000
    503     -13.5373      2.00000
    504     -13.5373      2.00000
    505     -13.5373      2.00000
    506     -13.5373      2.00000
    507     -13.5373      2.00000
    508     -13.5373      2.00000
    509     -13.5373      2.00000
    510     -13.5198      2.00000
    511     -13.5198      2.00000
    512     -13.5198      2.00000
    513       6.0725      2.00000
    514       7.3738      2.00000
    515       7.3738      2.00000
    516       7.3738      2.00000
    517       7.3738      2.00000
    518       7.3738      2.00000
    519       7.3738      2.00000
    520       7.9215      2.00000
    521       7.9215      2.00000
    522       8.0756      2.00000
    523       8.0756      2.00000
    524       8.0756      2.00000
    525       8.0756      2.00000
    526       8.0756      2.00000
    527       8.0756      2.00000
    528       8.0756      2.00000
    529       8.0756      2.00000
    530       8.0756      2.00000
    531       8.0756      2.00000
    532       8.0756      2.00000
    533       8.0756      2.00000
    534       8.0958      2.00000
    535       8.0958      2.00000
    536       8.0958      2.00000
    537       8.0958      2.00000
    538       8.0958      2.00000
    539       8.0958      2.00000
    540       8.6492      2.00000
    541       8.6492      2.00000
    542       8.6492      2.00000
    543       8.6492      2.00000
    544       8.6492      2.00000
    545       8.6492      2.00000
    546       8.8679      2.00000
    547       8.8679      2.00000
    548       8.8679      2.00000
    549       8.8679      2.00000
    550       8.8679      2.00000
    551       8.8679      2.00000
    552       8.8679      2.00000
    553       8.8679      2.00000
    554       8.8679      2.00000
    555       8.8679      2.00000
    556       8.8679      2.00000
    557       8.8679      2.00000
    558       8.8679      2.00000
    559       8.8679      2.00000
    560       8.8679      2.00000
    561       8.8679      2.00000
    562       8.8679      2.00000
    563       8.8679      2.00000
    564       8.8679      2.00000
    565       8.8679      2.00000
    566       8.8679      2.00000
    567       8.8679      2.00000
    568       8.8679      2.00000
    569       8.8679      2.00000
    570       9.0623      2.00000
    571       9.0623      2.00000
    572       9.0623      2.00000
    573       9.0623      2.00000
    574       9.0623      2.00000
    575       9.0623      2.00000
    576       9.0623      2.00000
    577       9.0623      2.00000
    578       9.0623      2.00000
    579       9.0623      2.00000
    580       9.0623      2.00000
    581       9.0623      2.00000
    582       9.0702      2.00000
    583       9.0702      2.00000
    584       9.0702      2.00000
    585       9.0702      2.00000
    586       9.0702      2.00000
    587       9.0702      2.00000
    588       9.1698      2.00000
    589       9.1698      2.00000
    590       9.1698      2.00000
    591       9.1698      2.00000
    592       9.1698      2.00000
    593       9.1698      2.00000
    594       9.1698      2.00000
    595       9.1698      2.00000
    596       9.4490      2.00000
    597       9.4490      2.00000
    598       9.4490      2.00000
    599       9.4490      2.00000
    600       9.4490      2.00000
    601       9.4490      2.00000
    602       9.4490      2.00000
    603       9.4490      2.00000
    604       9.4490      2.00000
    605       9.4490      2.00000
    606       9.4490      2.00000
    607       9.4490      2.00000
    608       9.5761      2.00000
    609       9.5761      2.00000
    610       9.5761      2.00000
    611       9.5761      2.00000
    612       9.5761      2.00000
    613       9.5761      2.00000
    614       9.5761      2.00000
    615       9.5761      2.00000
    616       9.5761      2.00000
    617       9.5761      2.00000
    618       9.5761      2.00000
    619       9.5761      2.00000
    620       9.5762      2.00000
    621       9.5762      2.00000
    622       9.5762      2.00000
    623       9.5762      2.00000
    624       9.5762      2.00000
    625       9.5762      2.00000
    626       9.5762      2.00000
    627       9.5762      2.00000
    628       9.5762      2.00000
    629       9.5762      2.00000
    630       9.5762      2.00000
    631       9.5762      2.00000
    632       9.6534      2.00000
    633       9.6534      2.00000
    634       9.6534      2.00000
    635       9.6534      2.00000
    636       9.6534      2.00000
    637       9.6534      2.00000
    638      10.1817      2.00000
    639      10.1817      2.00000
    640      10.1817      2.00000
    641      10.1817      2.00000
    642      10.1817      2.00000
    643      10.1817      2.00000
    644      10.1817      2.00000
    645      10.1817      2.00000
    646      10.1817      2.00000
    647      10.1817      2.00000
    648      10.1817      2.00000
    649      10.1817      2.00000
    650      10.4156      2.00000
    651      10.4156      2.00000
    652      10.4156      2.00000
    653      10.4156      2.00000
    654      10.4156      2.00000
    655      10.4156      2.00000
    656      10.4156      2.00000
    657      10.4156      2.00000
    658      10.4156      2.00000
    659      10.4156      2.00000
    660      10.4156      2.00000
    661      10.4156      2.00000
    662      10.4156      2.00000
    663      10.4156      2.00000
    664      10.4156      2.00000
    665      10.4156      2.00000
    666      10.4322      2.00000
    667      10.4322      2.00000
    668      10.4322      2.00000
    669      10.4322      2.00000
    670      10.4322      2.00000
    671      10.4322      2.00000
    672      10.4391      2.00000
    673      10.4391      2.00000
    674      10.4391      2.00000
    675      10.4391      2.00000
    676      10.4391      2.00000
    677      10.4391      2.00000
    678      10.4391      2.00000
    679      10.4391      2.00000
    680      10.4391      2.00000
    681      10.4391      2.00000
    682      10.4391      2.00000
    683      10.4391      2.00000
    684      10.6942      2.00000
    685      10.6942      2.00000
    686      10.6942      2.00000
    687      10.6942      2.00000
    688      10.6942      2.00000
    689      10.6942      2.00000
    690      10.6942      2.00000
    691      10.6942      2.00000
    692      10.6942      2.00000
    693      10.6942      2.00000
    694      10.6942      2.00000
    695      10.6942      2.00000
    696      10.6942      2.00000
    697      10.6942      2.00000
    698      10.6942      2.00000
    699      10.6942      2.00000
    700      10.6942      2.00000
    701      10.6943      2.00000
    702      10.6943      2.00000
    703      10.6943      2.00000
    704      10.6943      2.00000
    705      10.6943      2.00000
    706      10.6943      2.00000
    707      10.6943      2.00000
    708      10.7583      2.00000
    709      10.7583      2.00000
    710      10.7583      2.00000
    711      10.7583      2.00000
    712      10.7583      2.00000
    713      10.7583      2.00000
    714      10.8055      2.00000
    715      10.8055      2.00000
    716      10.8055      2.00000
    717      10.8055      2.00000
    718      10.8055      2.00000
    719      10.8055      2.00000
    720      10.8055      2.00000
    721      10.8055      2.00000
    722      11.0192      2.00001
    723      11.0192      2.00001
    724      11.0192      2.00001
    725      11.0192      2.00001
    726      11.0192      2.00001
    727      11.0192      2.00001
    728      11.0192      2.00001
    729      11.0192      2.00001
    730      11.0192      2.00001
    731      11.0192      2.00001
    732      11.0192      2.00001
    733      11.0192      2.00001
    734      11.0192      2.00001
    735      11.0192      2.00001
    736      11.0192      2.00001
    737      11.0192      2.00001
    738      11.1689      2.00100
    739      11.1689      2.00100
    740      11.1689      2.00100
    741      11.1689      2.00100
    742      11.1689      2.00100
    743      11.1689      2.00100
    744      11.4115      2.05812
    745      11.4115      2.05812
    746      11.4115      2.05812
    747      11.4115      2.05812
    748      11.4115      2.05812
    749      11.4115      2.05812
    750      11.4115      2.05813
    751      11.4115      2.05813
    752      11.4115      2.05813
    753      11.4115      2.05813
    754      11.4115      2.05813
    755      11.4115      2.05813
    756      11.4115      2.05813
    757      11.4115      2.05813
    758      11.4115      2.05813
    759      11.4115      2.05813
    760      11.4115      2.05813
    761      11.4115      2.05813
    762      11.4115      2.05813
    763      11.4115      2.05813
    764      11.4115      2.05813
    765      11.4115      2.05813
    766      11.4115      2.05813
    767      11.4115      2.05813
    768      11.4443      2.06919
    769      11.4443      2.06919
    770      11.4443      2.06919
    771      11.4443      2.06919
    772      11.4443      2.06919
    773      11.4443      2.06919
    774      11.4443      2.06919
    775      11.4443      2.06919
    776      11.4443      2.06919
    777      11.4443      2.06919
    778      11.4443      2.06919
    779      11.4443      2.06919
    780      11.9154     -0.05944
    781      11.9154     -0.05944
    782      11.9154     -0.05944
    783      11.9154     -0.05944
    784      11.9154     -0.05944
    785      11.9154     -0.05944
    786      11.9154     -0.05944
    787      11.9154     -0.05944
    788      11.9154     -0.05944
    789      11.9154     -0.05944
    790      11.9154     -0.05945
    791      11.9154     -0.05945
    792      11.9154     -0.05945
    793      11.9154     -0.05945
    794      11.9154     -0.05945
    795      11.9154     -0.05945
    796      11.9155     -0.05945
    797      11.9155     -0.05945
    798      11.9155     -0.05945
    799      11.9155     -0.05945
    800      11.9155     -0.05945
    801      11.9155     -0.05945
    802      11.9155     -0.05945
    803      11.9155     -0.05945
    804      11.9459     -0.07079
    805      11.9459     -0.07079
    806      11.9459     -0.07079
    807      11.9459     -0.07079
    808      11.9459     -0.07079
    809      11.9459     -0.07079
    810      11.9459     -0.07079
    811      11.9459     -0.07079
    812      11.9459     -0.07079
    813      11.9459     -0.07079
    814      11.9459     -0.07079
    815      11.9459     -0.07079
    816      11.9459     -0.07079
    817      11.9459     -0.07079
    818      11.9459     -0.07079
    819      11.9459     -0.07079
    820      11.9459     -0.07079
    821      11.9459     -0.07079
    822      11.9459     -0.07079
    823      11.9459     -0.07079
    824      11.9459     -0.07079
    825      11.9459     -0.07079
    826      11.9459     -0.07079
    827      11.9459     -0.07079
    828      12.1104     -0.01465
    829      12.1104     -0.01465
    830      12.1104     -0.01465
    831      12.1104     -0.01465
    832      12.1104     -0.01465
    833      12.1104     -0.01465
    834      12.1104     -0.01465
    835      12.1104     -0.01465
    836      12.1104     -0.01465
    837      12.1104     -0.01465
    838      12.1104     -0.01465
    839      12.1104     -0.01465
    840      12.7071     -0.00000
    841      12.7071     -0.00000
    842      12.7071     -0.00000
    843      12.7071     -0.00000
    844      12.7071     -0.00000
    845      12.7071     -0.00000
    846      12.7071     -0.00000
    847      12.7071     -0.00000
    848      12.7071     -0.00000
    849      12.7071     -0.00000
    850      12.7071     -0.00000
    851      12.7071     -0.00000
    852      12.8240     -0.00000
    853      12.8240     -0.00000
    854      12.8240     -0.00000
    855      13.0210     -0.00000
    856      13.0210     -0.00000
    857      13.0210     -0.00000
    858      13.0210     -0.00000
    859      13.0210     -0.00000
    860      13.0210     -0.00000
    861      13.0210     -0.00000
    862      13.0210     -0.00000
    863      13.0210     -0.00000
    864      13.0210     -0.00000
    865      13.0210     -0.00000
    866      13.0210     -0.00000
    867      13.2133     -0.00000
    868      13.2133     -0.00000
    869      13.2133     -0.00000
    870      13.2133     -0.00000
    871      13.2133     -0.00000
    872      13.2133     -0.00000
    873      13.2133     -0.00000
    874      13.2133     -0.00000
    875      13.2133     -0.00000
    876      13.2133     -0.00000
    877      13.2133     -0.00000
    878      13.2133     -0.00000
    879      13.3820     -0.00000
    880      13.3820     -0.00000
    881      13.3820     -0.00000
    882      13.3820     -0.00000
    883      13.3820     -0.00000
    884      13.3820     -0.00000
    885      13.3820     -0.00000
    886      13.3820     -0.00000
    887      13.3820     -0.00000
    888      13.3820     -0.00000
    889      13.3820     -0.00000
    890      13.3820     -0.00000
    891      13.4479     -0.00000
    892      13.4479     -0.00000
    893      13.4479     -0.00000
    894      13.4479     -0.00000
    895      13.4479     -0.00000
    896      13.4479     -0.00000
    897      13.8634     -0.00000
    898      13.8634     -0.00000
    899      13.8634     -0.00000
    900      13.8634     -0.00000
    901      13.8635     -0.00000
    902      13.8635     -0.00000
    903      14.1026     -0.00000
    904      14.1026     -0.00000
    905      14.1026     -0.00000
    906      14.1026     -0.00000
    907      14.1026     -0.00000
    908      14.1026     -0.00000
    909      14.1026     -0.00000
    910      14.1026     -0.00000
    911      14.1026     -0.00000
    912      14.1026     -0.00000
    913      14.1026     -0.00000
    914      14.1026     -0.00000
    915      14.5512     -0.00000
    916      14.5512     -0.00000
    917      14.5513     -0.00000
    918      14.5513     -0.00000
    919      14.5514     -0.00000
    920      14.5515     -0.00000
    921      14.8445     -0.00000
    922      14.8445     -0.00000
    923      14.8445     -0.00000
    924      14.8446     -0.00000

 k-point     2 :       0.5000    0.0000    0.0000
  band No.  band energies     occupation 
      1     -36.4966      2.00000
      2     -36.4964      2.00000
      3     -36.3942      2.00000
      4     -36.3942      2.00000
      5     -36.3942      2.00000
      6     -36.3942      2.00000
      7     -36.3941      2.00000
      8     -36.3941      2.00000
      9     -36.3940      2.00000
     10     -36.3940      2.00000
     11     -36.3153      2.00000
     12     -36.3153      2.00000
     13     -36.3152      2.00000
     14     -36.3152      2.00000
     15     -36.3151      2.00000
     16     -36.3151      2.00000
     17     -36.3151      2.00000
     18     -36.3151      2.00000
     19     -36.3001      2.00000
     20     -36.3001      2.00000
     21     -36.2455      2.00000
     22     -36.2455      2.00000
     23     -36.2454      2.00000
     24     -36.2454      2.00000
     25     -36.2454      2.00000
     26     -36.2454      2.00000
     27     -36.2454      2.00000
     28     -36.2454      2.00000
     29     -36.2016      2.00000
     30     -36.2016      2.00000
     31     -36.2016      2.00000
     32     -36.2016      2.00000
     33     -36.2016      2.00000
     34     -36.2016      2.00000
     35     -36.2016      2.00000
     36     -36.2016      2.00000
     37     -36.1641      2.00000
     38     -36.1641      2.00000
     39     -36.1641      2.00000
     40     -36.1641      2.00000
     41     -36.1640      2.00000
     42     -36.1640      2.00000
     43     -36.1640      2.00000
     44     -36.1640      2.00000
     45     -36.1456      2.00000
     46     -36.1456      2.00000
     47     -36.1456      2.00000
     48     -36.1456      2.00000
     49     -36.1456      2.00000
     50     -36.1456      2.00000
     51     -36.1456      2.00000
     52     -36.1456      2.00000
     53     -36.1455      2.00000
     54     -36.1455      2.00000
     55     -36.1454      2.00000
     56     -36.1454      2.00000
     57     -36.1454      2.00000
     58     -36.1454      2.00000
     59     -36.1454      2.00000
     60     -36.1454      2.00000
     61     -36.1375      2.00000
     62     -36.1375      2.00000
     63     -36.1375      2.00000
     64     -36.1375      2.00000
     65     -36.1374      2.00000
     66     -36.1374      2.00000
     67     -36.1374      2.00000
     68     -36.1374      2.00000
     69     -36.1269      2.00000
     70     -36.1269      2.00000
     71     -36.1268      2.00000
     72     -36.1268      2.00000
     73     -36.1200      2.00000
     74     -36.1200      2.00000
     75     -36.1200      2.00000
     76     -36.1200      2.00000
     77     -36.1200      2.00000
     78     -36.1200      2.00000
     79     -36.1200      2.00000
     80     -36.1200      2.00000
     81     -36.1199      2.00000
     82     -36.1199      2.00000
     83     -36.1199      2.00000
     84     -36.1199      2.00000
     85     -36.1199      2.00000
     86     -36.1199      2.00000
     87     -36.1199      2.00000
     88     -36.1199      2.00000
     89     -36.1024      2.00000
     90     -36.1024      2.00000
     91     -36.1023      2.00000
     92     -36.1023      2.00000
     93     -36.0739      2.00000
     94     -36.0739      2.00000
     95     -36.0739      2.00000
     96     -36.0739      2.00000
     97     -36.0739      2.00000
     98     -36.0739      2.00000
     99     -36.0739      2.00000
    100     -36.0739      2.00000
    101     -36.0655      2.00000
    102     -36.0655      2.00000
    103     -36.0655      2.00000
    104     -36.0655      2.00000
    105     -36.0655      2.00000
    106     -36.0655      2.00000
    107     -36.0655      2.00000
    108     -36.0655      2.00000
    109     -36.0467      2.00000
    110     -36.0467      2.00000
    111     -36.0085      2.00000
    112     -36.0085      2.00000
    113     -36.0085      2.00000
    114     -36.0085      2.00000
    115     -36.0084      2.00000
    116     -36.0084      2.00000
    117     -36.0084      2.00000
    118     -36.0084      2.00000
    119     -35.9621      2.00000
    120     -35.9621      2.00000
    121     -35.9621      2.00000
    122     -35.9621      2.00000
    123     -35.9620      2.00000
    124     -35.9619      2.00000
    125     -35.9619      2.00000
    126     -35.9619      2.00000
    127     -35.8876      2.00000
    128     -35.8875      2.00000
    129     -15.4447      2.00000
    130     -15.4447      2.00000
    131     -15.4446      2.00000
    132     -15.4446      2.00000
    133     -15.4244      2.00000
    134     -15.4244      2.00000
    135     -15.4244      2.00000
    136     -15.4244      2.00000
    137     -15.4242      2.00000
    138     -15.4242      2.00000
    139     -15.4242      2.00000
    140     -15.4242      2.00000
    141     -15.2608      2.00000
    142     -15.2608      2.00000
    143     -15.2608      2.00000
    144     -15.2608      2.00000
    145     -15.2608      2.00000
    146     -15.2608      2.00000
    147     -15.2608      2.00000
    148     -15.2608      2.00000
    149     -15.2076      2.00000
    150     -15.2076      2.00000
    151     -15.2076      2.00000
    152     -15.2076      2.00000
    153     -15.2076      2.00000
    154     -15.2076      2.00000
    155     -15.2076      2.00000
    156     -15.2076      2.00000
    157     -15.2075      2.00000
    158     -15.2075      2.00000
    159     -15.2074      2.00000
    160     -15.2074      2.00000
    161     -15.2074      2.00000
    162     -15.2074      2.00000
    163     -15.2074      2.00000
    164     -15.2074      2.00000
    165     -15.1632      2.00000
    166     -15.1631      2.00000
    167     -15.1631      2.00000
    168     -15.1631      2.00000
    169     -15.1631      2.00000
    170     -15.1631      2.00000
    171     -15.1631      2.00000
    172     -15.1631      2.00000
    173     -15.1630      2.00000
    174     -15.1630      2.00000
    175     -15.1630      2.00000
    176     -15.1630      2.00000
    177     -15.1630      2.00000
    178     -15.1630      2.00000
    179     -15.1630      2.00000
    180     -15.1630      2.00000
    181     -15.1314      2.00000
    182     -15.1314      2.00000
    183     -15.1314      2.00000
    184     -15.1314      2.00000
    185     -15.1312      2.00000
    186     -15.1312      2.00000
    187     -15.1312      2.00000
    188     -15.1312      2.00000
    189     -15.1283      2.00000
    190     -15.1283      2.00000
    191     -15.1283      2.00000
    192     -15.1283      2.00000
    193     -15.1283      2.00000
    194     -15.1283      2.00000
    195     -15.1283      2.00000
    196     -15.1283      2.00000
    197     -15.0460      2.00000
    198     -15.0460      2.00000
    199     -15.0460      2.00000
    200     -15.0460      2.00000
    201     -15.0460      2.00000
    202     -15.0460      2.00000
    203     -15.0460      2.00000
    204     -15.0460      2.00000
    205     -15.0204      2.00000
    206     -15.0204      2.00000
    207     -15.0204      2.00000
    208     -15.0204      2.00000
    209     -15.0204      2.00000
    210     -15.0204      2.00000
    211     -15.0204      2.00000
    212     -15.0204      2.00000
    213     -14.9330      2.00000
    214     -14.9330      2.00000
    215     -14.9330      2.00000
    216     -14.9330      2.00000
    217     -14.9313      2.00000
    218     -14.9313      2.00000
    219     -14.9313      2.00000
    220     -14.9313      2.00000
    221     -14.9313      2.00000
    222     -14.9313      2.00000
    223     -14.9313      2.00000
    224     -14.9313      2.00000
    225     -14.8587      2.00000
    226     -14.8586      2.00000
    227     -14.8448      2.00000
    228     -14.8448      2.00000
    229     -14.8448      2.00000
    230     -14.8448      2.00000
    231     -14.8447      2.00000
    232     -14.8447      2.00000
    233     -14.8447      2.00000
    234     -14.8447      2.00000
    235     -14.8062      2.00000
    236     -14.8062      2.00000
    237     -14.7957      2.00000
    238     -14.7957      2.00000
    239     -14.7956      2.00000
    240     -14.7956      2.00000
    241     -14.6947      2.00000
    242     -14.6947      2.00000
    243     -14.6947      2.00000
    244     -14.6947      2.00000
    245     -14.6947      2.00000
    246     -14.6947      2.00000
    247     -14.6946      2.00000
    248     -14.6946      2.00000
    249     -14.6889      2.00000
    250     -14.6889      2.00000
    251     -14.6889      2.00000
    252     -14.6889      2.00000
    253     -14.6889      2.00000
    254     -14.6889      2.00000
    255     -14.6889      2.00000
    256     -14.6889      2.00000
    257     -14.6523      2.00000
    258     -14.6523      2.00000
    259     -14.6523      2.00000
    260     -14.6523      2.00000
    261     -14.6522      2.00000
    262     -14.6522      2.00000
    263     -14.6522      2.00000
    264     -14.6522      2.00000
    265     -14.6109      2.00000
    266     -14.6109      2.00000
    267     -14.6109      2.00000
    268     -14.6109      2.00000
    269     -14.6108      2.00000
    270     -14.6108      2.00000
    271     -14.6108      2.00000
    272     -14.6108      2.00000
    273     -14.5000      2.00000
    274     -14.5000      2.00000
    275     -14.4999      2.00000
    276     -14.4999      2.00000
    277     -14.4788      2.00000
    278     -14.4788      2.00000
    279     -14.4788      2.00000
    280     -14.4788      2.00000
    281     -14.4787      2.00000
    282     -14.4787      2.00000
    283     -14.4787      2.00000
    284     -14.4787      2.00000
    285     -14.4335      2.00000
    286     -14.4335      2.00000
    287     -14.4335      2.00000
    288     -14.4335      2.00000
    289     -14.3820      2.00000
    290     -14.3820      2.00000
    291     -14.3820      2.00000
    292     -14.3820      2.00000
    293     -14.3820      2.00000
    294     -14.3820      2.00000
    295     -14.3820      2.00000
    296     -14.3820      2.00000
    297     -14.3819      2.00000
    298     -14.3819      2.00000
    299     -14.3819      2.00000
    300     -14.3819      2.00000
    301     -14.3819      2.00000
    302     -14.3819      2.00000
    303     -14.3819      2.00000
    304     -14.3819      2.00000
    305     -14.3379      2.00000
    306     -14.3379      2.00000
    307     -14.3379      2.00000
    308     -14.3379      2.00000
    309     -14.3379      2.00000
    310     -14.3379      2.00000
    311     -14.3379      2.00000
    312     -14.3379      2.00000
    313     -14.3143      2.00000
    314     -14.3143      2.00000
    315     -14.2465      2.00000
    316     -14.2465      2.00000
    317     -14.2465      2.00000
    318     -14.2465      2.00000
    319     -14.2465      2.00000
    320     -14.2465      2.00000
    321     -14.2465      2.00000
    322     -14.2465      2.00000
    323     -14.2464      2.00000
    324     -14.2464      2.00000
    325     -14.2464      2.00000
    326     -14.2464      2.00000
    327     -14.2464      2.00000
    328     -14.2464      2.00000
    329     -14.2464      2.00000
    330     -14.2464      2.00000
    331     -14.1937      2.00000
    332     -14.1937      2.00000
    333     -14.1936      2.00000
    334     -14.1936      2.00000
    335     -14.1898      2.00000
    336     -14.1898      2.00000
    337     -14.1898      2.00000
    338     -14.1898      2.00000
    339     -14.1898      2.00000
    340     -14.1898      2.00000
    341     -14.1898      2.00000
    342     -14.1898      2.00000
    343     -14.1811      2.00000
    344     -14.1811      2.00000
    345     -14.1811      2.00000
    346     -14.1811      2.00000
    347     -14.1706      2.00000
    348     -14.1706      2.00000
    349     -14.1706      2.00000
    350     -14.1706      2.00000
    351     -14.1705      2.00000
    352     -14.1705      2.00000
    353     -14.1705      2.00000
    354     -14.1705      2.00000
    355     -14.1360      2.00000
    356     -14.1360      2.00000
    357     -14.1360      2.00000
    358     -14.1360      2.00000
    359     -14.1359      2.00000
    360     -14.1359      2.00000
    361     -14.1359      2.00000
    362     -14.1359      2.00000
    363     -14.0716      2.00000
    364     -14.0716      2.00000
    365     -14.0716      2.00000
    366     -14.0716      2.00000
    367     -14.0716      2.00000
    368     -14.0716      2.00000
    369     -14.0716      2.00000
    370     -14.0716      2.00000
    371     -14.0536      2.00000
    372     -14.0536      2.00000
    373     -14.0536      2.00000
    374     -14.0536      2.00000
    375     -14.0536      2.00000
    376     -14.0536      2.00000
    377     -14.0536      2.00000
    378     -14.0536      2.00000
    379     -13.9959      2.00000
    380     -13.9959      2.00000
    381     -13.9959      2.00000
    382     -13.9959      2.00000
    383     -13.9959      2.00000
    384     -13.9959      2.00000
    385     -13.9959      2.00000
    386     -13.9959      2.00000
    387     -13.9820      2.00000
    388     -13.9820      2.00000
    389     -13.9820      2.00000
    390     -13.9820      2.00000
    391     -13.9820      2.00000
    392     -13.9820      2.00000
    393     -13.9820      2.00000
    394     -13.9820      2.00000
    395     -13.9765      2.00000
    396     -13.9765      2.00000
    397     -13.9765      2.00000
    398     -13.9765      2.00000
    399     -13.9765      2.00000
    400     -13.9765      2.00000
    401     -13.9765      2.00000
    402     -13.9765      2.00000
    403     -13.9249      2.00000
    404     -13.9249      2.00000
    405     -13.9249      2.00000
    406     -13.9249      2.00000
    407     -13.8190      2.00000
    408     -13.8190      2.00000
    409     -13.8190      2.00000
    410     -13.8190      2.00000
    411     -13.8189      2.00000
    412     -13.8189      2.00000
    413     -13.8189      2.00000
    414     -13.8189      2.00000
    415     -13.8038      2.00000
    416     -13.8038      2.00000
    417     -13.8038      2.00000
    418     -13.8038      2.00000
    419     -13.8038      2.00000
    420     -13.8038      2.00000
    421     -13.8038      2.00000
    422     -13.8037      2.00000
    423     -13.8037      2.00000
    424     -13.8037      2.00000
    425     -13.8037      2.00000
    426     -13.8037      2.00000
    427     -13.8037      2.00000
    428     -13.8037      2.00000
    429     -13.8037      2.00000
    430     -13.8037      2.00000
    431     -13.7806      2.00000
    432     -13.7806      2.00000
    433     -13.7806      2.00000
    434     -13.7806      2.00000
    435     -13.7806      2.00000
    436     -13.7806      2.00000
    437     -13.7806      2.00000
    438     -13.7806      2.00000
    439     -13.7461      2.00000
    440     -13.7461      2.00000
    441     -13.7461      2.00000
    442     -13.7461      2.00000
    443     -13.7461      2.00000
    444     -13.7461      2.00000
    445     -13.7461      2.00000
    446     -13.7461      2.00000
    447     -13.7428      2.00000
    448     -13.7428      2.00000
    449     -13.7428      2.00000
    450     -13.7428      2.00000
    451     -13.7427      2.00000
    452     -13.7427      2.00000
    453     -13.7427      2.00000
    454     -13.7427      2.00000
    455     -13.7341      2.00000
    456     -13.7341      2.00000
    457     -13.7340      2.00000
    458     -13.7340      2.00000
    459     -13.7340      2.00000
    460     -13.7340      2.00000
    461     -13.7340      2.00000
    462     -13.7340      2.00000
    463     -13.7340      2.00000
    464     -13.7340      2.00000
    465     -13.7340      2.00000
    466     -13.7340      2.00000
    467     -13.7339      2.00000
    468     -13.7339      2.00000
    469     -13.7339      2.00000
    470     -13.7339      2.00000
    471     -13.6427      2.00000
    472     -13.6426      2.00000
    473     -13.6312      2.00000
    474     -13.6312      2.00000
    475     -13.6311      2.00000
    476     -13.6311      2.00000
    477     -13.6063      2.00000
    478     -13.6063      2.00000
    479     -13.6063      2.00000
    480     -13.6063      2.00000
    481     -13.6062      2.00000
    482     -13.6062      2.00000
    483     -13.6062      2.00000
    484     -13.6062      2.00000
    485     -13.6010      2.00000
    486     -13.6010      2.00000
    487     -13.6010      2.00000
    488     -13.6010      2.00000
    489     -13.6010      2.00000
    490     -13.6010      2.00000
    491     -13.6010      2.00000
    492     -13.6010      2.00000
    493     -13.6007      2.00000
    494     -13.6007      2.00000
    495     -13.6007      2.00000
    496     -13.6007      2.00000
    497     -13.6005      2.00000
    498     -13.6005      2.00000
    499     -13.6005      2.00000
    500     -13.6005      2.00000
    501     -13.5943      2.00000
    502     -13.5943      2.00000
    503     -13.5943      2.00000
    504     -13.5943      2.00000
    505     -13.5943      2.00000
    506     -13.5943      2.00000
    507     -13.5943      2.00000
    508     -13.5943      2.00000
    509     -13.5699      2.00000
    510     -13.5699      2.00000
    511     -13.5698      2.00000
    512     -13.5698      2.00000
    513       6.4228      2.00000
    514       6.4229      2.00000
    515       7.5913      2.00000
    516       7.5913      2.00000
    517       7.5913      2.00000
    518       7.5913      2.00000
    519       7.5915      2.00000
    520       7.5915      2.00000
    521       7.5915      2.00000
    522       7.5915      2.00000
    523       8.1044      2.00000
    524       8.1046      2.00000
    525       8.2511      2.00000
    526       8.2512      2.00000
    527       8.3044      2.00000
    528       8.3044      2.00000
    529       8.3044      2.00000
    530       8.3044      2.00000
    531       8.3045      2.00000
    532       8.3045      2.00000
    533       8.3045      2.00000
    534       8.3045      2.00000
    535       8.4025      2.00000
    536       8.4025      2.00000
    537       8.4025      2.00000
    538       8.4025      2.00000
    539       8.4027      2.00000
    540       8.4027      2.00000
    541       8.4027      2.00000
    542       8.4027      2.00000
    543       8.4674      2.00000
    544       8.4674      2.00000
    545       8.4675      2.00000
    546       8.4675      2.00000
    547       8.5236      2.00000
    548       8.5236      2.00000
    549       8.5236      2.00000
    550       8.5236      2.00000
    551       8.5236      2.00000
    552       8.5236      2.00000
    553       8.5236      2.00000
    554       8.5236      2.00000
    555       8.6219      2.00000
    556       8.6219      2.00000
    557       8.8364      2.00000
    558       8.8364      2.00000
    559       8.8364      2.00000
    560       8.8364      2.00000
    561       8.8365      2.00000
    562       8.8365      2.00000
    563       8.8365      2.00000
    564       8.8365      2.00000
    565       9.0921      2.00000
    566       9.0921      2.00000
    567       9.0921      2.00000
    568       9.0921      2.00000
    569       9.0921      2.00000
    570       9.0921      2.00000
    571       9.0921      2.00000
    572       9.0921      2.00000
    573       9.1581      2.00000
    574       9.1581      2.00000
    575       9.1581      2.00000
    576       9.1581      2.00000
    577       9.1581      2.00000
    578       9.1581      2.00000
    579       9.1581      2.00000
    580       9.1581      2.00000
    581       9.1582      2.00000
    582       9.1582      2.00000
    583       9.1582      2.00000
    584       9.1582      2.00000
    585       9.1582      2.00000
    586       9.1582      2.00000
    587       9.1582      2.00000
    588       9.1582      2.00000
    589       9.3212      2.00000
    590       9.3212      2.00000
    591       9.3212      2.00000
    592       9.3212      2.00000
    593       9.3214      2.00000
    594       9.3214      2.00000
    595       9.3214      2.00000
    596       9.3214      2.00000
    597       9.4400      2.00000
    598       9.4400      2.00000
    599       9.4400      2.00000
    600       9.4401      2.00000
    601       9.4402      2.00000
    602       9.4402      2.00000
    603       9.4402      2.00000
    604       9.4402      2.00000
    605       9.5009      2.00000
    606       9.5009      2.00000
    607       9.5009      2.00000
    608       9.5009      2.00000
    609       9.5010      2.00000
    610       9.5010      2.00000
    611       9.5010      2.00000
    612       9.5010      2.00000
    613       9.5036      2.00000
    614       9.5036      2.00000
    615       9.5036      2.00000
    616       9.5036      2.00000
    617       9.5036      2.00000
    618       9.5036      2.00000
    619       9.5036      2.00000
    620       9.5036      2.00000
    621       9.5037      2.00000
    622       9.5037      2.00000
    623       9.5037      2.00000
    624       9.5037      2.00000
    625       9.5037      2.00000
    626       9.5037      2.00000
    627       9.5037      2.00000
    628       9.5037      2.00000
    629       9.5429      2.00000
    630       9.5429      2.00000
    631       9.5433      2.00000
    632       9.5433      2.00000
    633       9.5433      2.00000
    634       9.5433      2.00000
    635       9.5433      2.00000
    636       9.5433      2.00000
    637       9.5433      2.00000
    638       9.5433      2.00000
    639       9.8039      2.00000
    640       9.8039      2.00000
    641       9.9394      2.00000
    642       9.9394      2.00000
    643       9.9394      2.00000
    644       9.9394      2.00000
    645       9.9394      2.00000
    646       9.9394      2.00000
    647       9.9394      2.00000
    648       9.9394      2.00000
    649      10.2491      2.00000
    650      10.2491      2.00000
    651      10.2491      2.00000
    652      10.2491      2.00000
    653      10.2492      2.00000
    654      10.2492      2.00000
    655      10.2492      2.00000
    656      10.2492      2.00000
    657      10.4138      2.00000
    658      10.4138      2.00000
    659      10.4139      2.00000
    660      10.4139      2.00000
    661      10.5863      2.00000
    662      10.5863      2.00000
    663      10.5863      2.00000
    664      10.5863      2.00000
    665      10.5863      2.00000
    666      10.5863      2.00000
    667      10.5863      2.00000
    668      10.5863      2.00000
    669      10.6076      2.00000
    670      10.6076      2.00000
    671      10.6077      2.00000
    672      10.6077      2.00000
    673      10.6178      2.00000
    674      10.6178      2.00000
    675      10.6178      2.00000
    676      10.6178      2.00000
    677      10.6178      2.00000
    678      10.6178      2.00000
    679      10.6178      2.00000
    680      10.6178      2.00000
    681      10.6179      2.00000
    682      10.6179      2.00000
    683      10.6179      2.00000
    684      10.6179      2.00000
    685      10.6179      2.00000
    686      10.6179      2.00000
    687      10.6179      2.00000
    688      10.6179      2.00000
    689      10.6582      2.00000
    690      10.6582      2.00000
    691      10.6582      2.00000
    692      10.6582      2.00000
    693      10.6835      2.00000
    694      10.6835      2.00000
    695      10.6835      2.00000
    696      10.6835      2.00000
    697      10.6836      2.00000
    698      10.6836      2.00000
    699      10.6836      2.00000
    700      10.6836      2.00000
    701      10.8043      2.00000
    702      10.8043      2.00000
    703      10.8043      2.00000
    704      10.8043      2.00000
    705      10.8043      2.00000
    706      10.8043      2.00000
    707      10.8043      2.00000
    708      10.8043      2.00000
    709      10.8822      2.00000
    710      10.8822      2.00000
    711      10.8822      2.00000
    712      10.8822      2.00000
    713      10.8823      2.00000
    714      10.8823      2.00000
    715      10.8823      2.00000
    716      10.8823      2.00000
    717      10.9331      2.00000
    718      10.9331      2.00000
    719      10.9331      2.00000
    720      10.9331      2.00000
    721      10.9331      2.00000
    722      10.9331      2.00000
    723      10.9331      2.00000
    724      10.9331      2.00000
    725      10.9331      2.00000
    726      10.9331      2.00000
    727      10.9331      2.00000
    728      10.9331      2.00000
    729      10.9331      2.00000
    730      10.9331      2.00000
    731      10.9331      2.00000
    732      10.9331      2.00000
    733      11.1923      2.00173
    734      11.1923      2.00173
    735      11.1923      2.00173
    736      11.1923      2.00173
    737      11.1923      2.00173
    738      11.1923      2.00173
    739      11.1923      2.00173
    740      11.1923      2.00173
    741      11.2007      2.00210
    742      11.2007      2.00210
    743      11.2007      2.00210
    744      11.2007      2.00210
    745      11.2007      2.00210
    746      11.2007      2.00210
    747      11.2007      2.00210
    748      11.2007      2.00210
    749      11.2910      2.01266
    750      11.2910      2.01266
    751      11.2910      2.01266
    752      11.2910      2.01266
    753      11.2910      2.01266
    754      11.2910      2.01266
    755      11.2910      2.01266
    756      11.2910      2.01266
    757      11.3012      2.01503
    758      11.3012      2.01503
    759      11.3012      2.01503
    760      11.3012      2.01503
    761      11.3013      2.01506
    762      11.3013      2.01506
    763      11.3013      2.01506
    764      11.3013      2.01506
    765      11.6030      1.75130
    766      11.6030      1.75130
    767      11.6030      1.75129
    768      11.6030      1.75129
    769      11.6030      1.75127
    770      11.6030      1.75127
    771      11.6030      1.75127
    772      11.6030      1.75125
    773      11.6449      1.48430
    774      11.6449      1.48430
    775      11.6449      1.48429
    776      11.6449      1.48429
    777      11.6450      1.48362
    778      11.6450      1.48362
    779      11.6450      1.48361
    780      11.6450      1.48361
    781      11.9830     -0.06426
    782      11.9830     -0.06426
    783      11.9830     -0.06426
    784      11.9830     -0.06426
    785      12.0118     -0.05223
    786      12.0118     -0.05223
    787      12.0118     -0.05223
    788      12.0118     -0.05223
    789      12.0119     -0.05221
    790      12.0119     -0.05221
    791      12.0119     -0.05221
    792      12.0119     -0.05221
    793      12.0662     -0.02843
    794      12.0662     -0.02843
    795      12.0662     -0.02843
    796      12.0662     -0.02843
    797      12.0662     -0.02842
    798      12.0662     -0.02841
    799      12.0662     -0.02841
    800      12.0662     -0.02841
    801      12.0939     -0.01906
    802      12.0939     -0.01906
    803      12.0939     -0.01906
    804      12.0939     -0.01906
    805      12.0939     -0.01906
    806      12.0939     -0.01906
    807      12.0939     -0.01906
    808      12.0939     -0.01906
    809      12.0991     -0.01756
    810      12.0992     -0.01756
    811      12.0992     -0.01756
    812      12.0992     -0.01756
    813      12.0992     -0.01756
    814      12.0992     -0.01756
    815      12.0992     -0.01756
    816      12.0992     -0.01756
    817      12.0992     -0.01754
    818      12.0992     -0.01754
    819      12.0992     -0.01754
    820      12.0992     -0.01754
    821      12.0992     -0.01754
    822      12.0992     -0.01754
    823      12.0992     -0.01754
    824      12.0992     -0.01754
    825      12.2052     -0.00231
    826      12.2052     -0.00231
    827      12.2052     -0.00231
    828      12.2052     -0.00231
    829      12.2052     -0.00231
    830      12.2052     -0.00231
    831      12.2052     -0.00231
    832      12.2052     -0.00231
    833      12.2395     -0.00104
    834      12.2395     -0.00104
    835      12.3245     -0.00011
    836      12.3245     -0.00011
    837      12.3245     -0.00011
    838      12.3245     -0.00011
    839      12.3246     -0.00011
    840      12.3246     -0.00011
    841      12.3246     -0.00011
    842      12.3246     -0.00011
    843      12.4630     -0.00000
    844      12.4630     -0.00000
    845      12.4630     -0.00000
    846      12.4630     -0.00000
    847      12.4630     -0.00000
    848      12.4630     -0.00000
    849      12.4630     -0.00000
    850      12.4630     -0.00000
    851      12.4631     -0.00000
    852      12.4631     -0.00000
    853      12.4631     -0.00000
    854      12.4631     -0.00000
    855      12.4631     -0.00000
    856      12.4631     -0.00000
    857      12.4631     -0.00000
    858      12.4631     -0.00000
    859      12.5098     -0.00000
    860      12.5098     -0.00000
    861      12.5098     -0.00000
    862      12.5098     -0.00000
    863      12.5098     -0.00000
    864      12.5098     -0.00000
    865      12.5098     -0.00000
    866      12.5098     -0.00000
    867      12.7656     -0.00000
    868      12.7656     -0.00000
    869      12.7657     -0.00000
    870      12.7657     -0.00000
    871      12.8606     -0.00000
    872      12.8606     -0.00000
    873      12.8606     -0.00000
    874      12.8606     -0.00000
    875      12.9815     -0.00000
    876      12.9816     -0.00000
    877      13.5136     -0.00000
    878      13.5136     -0.00000
    879      13.5136     -0.00000
    880      13.5136     -0.00000
    881      13.5137     -0.00000
    882      13.5137     -0.00000
    883      13.5137     -0.00000
    884      13.5137     -0.00000
    885      13.8863     -0.00000
    886      13.8863     -0.00000
    887      13.8863     -0.00000
    888      13.8863     -0.00000
    889      13.8864     -0.00000
    890      13.8864     -0.00000
    891      13.8864     -0.00000
    892      13.8864     -0.00000
    893      14.0536     -0.00000
    894      14.0536     -0.00000
    895      14.0537     -0.00000
    896      14.0537     -0.00000
    897      14.1336     -0.00000
    898      14.1336     -0.00000
    899      14.1336     -0.00000
    900      14.1336     -0.00000
    901      14.1337     -0.00000
    902      14.1338     -0.00000
    903      14.1339     -0.00000
    904      14.1342     -0.00000
    905      14.2044     -0.00000
    906      14.2048     -0.00000
    907      14.2676     -0.00000
    908      14.2677     -0.00000
    909      14.2678     -0.00000
    910      14.2680     -0.00000
    911      14.2681     -0.00000
    912      14.2689     -0.00000
    913      14.2697     -0.00000
    914      14.2734     -0.00000
    915      14.3414     -0.00000
    916      14.3417     -0.00000
    917      14.3433     -0.00000
    918      14.3466     -0.00000
    919      14.5513     -0.00000
    920      14.5534     -0.00000
    921      14.5571     -0.00000
    922      14.5631     -0.00000
    923      14.5720     -0.00000
    924      14.6140     -0.00000

 k-point     3 :       0.5000    0.5000    0.0000
  band No.  band energies     occupation 
      1     -36.4696      2.00000
      2     -36.4696      2.00000
      3     -36.4695      2.00000
      4     -36.4694      2.00000
      5     -36.3732      2.00000
      6     -36.3732      2.00000
      7     -36.3732      2.00000
      8     -36.3732      2.00000
      9     -36.3731      2.00000
     10     -36.3731      2.00000
     11     -36.3731      2.00000
     12     -36.3731      2.00000
     13     -36.2854      2.00000
     14     -36.2854      2.00000
     15     -36.2854      2.00000
     16     -36.2854      2.00000
     17     -36.2854      2.00000
     18     -36.2854      2.00000
     19     -36.2853      2.00000
     20     -36.2853      2.00000
     21     -36.2336      2.00000
     22     -36.2336      2.00000
     23     -36.2336      2.00000
     24     -36.2336      2.00000
     25     -36.2335      2.00000
     26     -36.2335      2.00000
     27     -36.2335      2.00000
     28     -36.2335      2.00000
     29     -36.2335      2.00000
     30     -36.2335      2.00000
     31     -36.2335      2.00000
     32     -36.2335      2.00000
     33     -36.2335      2.00000
     34     -36.2335      2.00000
     35     -36.2334      2.00000
     36     -36.2334      2.00000
     37     -36.1916      2.00000
     38     -36.1916      2.00000
     39     -36.1916      2.00000
     40     -36.1916      2.00000
     41     -36.1599      2.00000
     42     -36.1599      2.00000
     43     -36.1599      2.00000
     44     -36.1599      2.00000
     45     -36.1598      2.00000
     46     -36.1598      2.00000
     47     -36.1598      2.00000
     48     -36.1598      2.00000
     49     -36.1587      2.00000
     50     -36.1587      2.00000
     51     -36.1587      2.00000
     52     -36.1587      2.00000
     53     -36.1586      2.00000
     54     -36.1586      2.00000
     55     -36.1586      2.00000
     56     -36.1585      2.00000
     57     -36.1324      2.00000
     58     -36.1324      2.00000
     59     -36.1324      2.00000
     60     -36.1324      2.00000
     61     -36.1323      2.00000
     62     -36.1323      2.00000
     63     -36.1323      2.00000
     64     -36.1323      2.00000
     65     -36.1323      2.00000
     66     -36.1323      2.00000
     67     -36.1323      2.00000
     68     -36.1323      2.00000
     69     -36.1322      2.00000
     70     -36.1322      2.00000
     71     -36.1322      2.00000
     72     -36.1322      2.00000
     73     -36.1076      2.00000
     74     -36.1076      2.00000
     75     -36.1075      2.00000
     76     -36.1075      2.00000
     77     -36.1075      2.00000
     78     -36.1075      2.00000
     79     -36.1074      2.00000
     80     -36.1074      2.00000
     81     -36.0939      2.00000
     82     -36.0939      2.00000
     83     -36.0939      2.00000
     84     -36.0939      2.00000
     85     -36.0905      2.00000
     86     -36.0905      2.00000
     87     -36.0905      2.00000
     88     -36.0905      2.00000
     89     -36.0905      2.00000
     90     -36.0905      2.00000
     91     -36.0905      2.00000
     92     -36.0905      2.00000
     93     -36.0671      2.00000
     94     -36.0671      2.00000
     95     -36.0671      2.00000
     96     -36.0671      2.00000
     97     -36.0671      2.00000
     98     -36.0671      2.00000
     99     -36.0671      2.00000
    100     -36.0671      2.00000
    101     -36.0670      2.00000
    102     -36.0670      2.00000
    103     -36.0670      2.00000
    104     -36.0670      2.00000
    105     -36.0670      2.00000
    106     -36.0670      2.00000
    107     -36.0670      2.00000
    108     -36.0670      2.00000
    109     -36.0510      2.00000
    110     -36.0510      2.00000
    111     -36.0510      2.00000
    112     -36.0510      2.00000
    113     -36.0509      2.00000
    114     -36.0509      2.00000
    115     -36.0509      2.00000
    116     -36.0509      2.00000
    117     -35.9736      2.00000
    118     -35.9736      2.00000
    119     -35.9735      2.00000
    120     -35.9735      2.00000
    121     -35.9734      2.00000
    122     -35.9734      2.00000
    123     -35.9734      2.00000
    124     -35.9734      2.00000
    125     -35.9065      2.00000
    126     -35.9064      2.00000
    127     -35.9063      2.00000
    128     -35.9063      2.00000
    129     -15.4232      2.00000
    130     -15.4232      2.00000
    131     -15.4232      2.00000
    132     -15.4231      2.00000
    133     -15.3660      2.00000
    134     -15.3660      2.00000
    135     -15.3660      2.00000
    136     -15.3660      2.00000
    137     -15.3659      2.00000
    138     -15.3659      2.00000
    139     -15.3659      2.00000
    140     -15.3659      2.00000
    141     -15.3658      2.00000
    142     -15.3658      2.00000
    143     -15.3658      2.00000
    144     -15.3658      2.00000
    145     -15.3658      2.00000
    146     -15.3658      2.00000
    147     -15.3658      2.00000
    148     -15.3658      2.00000
    149     -15.2482      2.00000
    150     -15.2482      2.00000
    151     -15.2482      2.00000
    152     -15.2481      2.00000
    153     -15.2153      2.00000
    154     -15.2153      2.00000
    155     -15.2153      2.00000
    156     -15.2153      2.00000
    157     -15.2153      2.00000
    158     -15.2153      2.00000
    159     -15.2153      2.00000
    160     -15.2153      2.00000
    161     -15.2152      2.00000
    162     -15.2152      2.00000
    163     -15.2152      2.00000
    164     -15.2152      2.00000
    165     -15.2152      2.00000
    166     -15.2152      2.00000
    167     -15.2152      2.00000
    168     -15.2152      2.00000
    169     -15.1592      2.00000
    170     -15.1592      2.00000
    171     -15.1592      2.00000
    172     -15.1592      2.00000
    173     -15.1592      2.00000
    174     -15.1592      2.00000
    175     -15.1592      2.00000
    176     -15.1592      2.00000
    177     -15.1568      2.00000
    178     -15.1568      2.00000
    179     -15.1568      2.00000
    180     -15.1568      2.00000
    181     -15.1568      2.00000
    182     -15.1568      2.00000
    183     -15.1568      2.00000
    184     -15.1568      2.00000
    185     -15.0265      2.00000
    186     -15.0265      2.00000
    187     -15.0264      2.00000
    188     -15.0264      2.00000
    189     -15.0264      2.00000
    190     -15.0264      2.00000
    191     -15.0263      2.00000
    192     -15.0263      2.00000
    193     -15.0160      2.00000
    194     -15.0160      2.00000
    195     -15.0159      2.00000
    196     -15.0159      2.00000
    197     -15.0159      2.00000
    198     -15.0159      2.00000
    199     -15.0159      2.00000
    200     -15.0159      2.00000
    201     -14.9994      2.00000
    202     -14.9994      2.00000
    203     -14.9994      2.00000
    204     -14.9994      2.00000
    205     -14.9994      2.00000
    206     -14.9994      2.00000
    207     -14.9994      2.00000
    208     -14.9994      2.00000
    209     -14.9591      2.00000
    210     -14.9591      2.00000
    211     -14.9591      2.00000
    212     -14.9591      2.00000
    213     -14.9590      2.00000
    214     -14.9590      2.00000
    215     -14.9590      2.00000
    216     -14.9590      2.00000
    217     -14.9590      2.00000
    218     -14.9590      2.00000
    219     -14.9590      2.00000
    220     -14.9590      2.00000
    221     -14.9590      2.00000
    222     -14.9590      2.00000
    223     -14.9590      2.00000
    224     -14.9590      2.00000
    225     -14.9505      2.00000
    226     -14.9505      2.00000
    227     -14.9505      2.00000
    228     -14.9505      2.00000
    229     -14.9408      2.00000
    230     -14.9408      2.00000
    231     -14.9408      2.00000
    232     -14.9408      2.00000
    233     -14.9407      2.00000
    234     -14.9407      2.00000
    235     -14.9407      2.00000
    236     -14.9407      2.00000
    237     -14.7475      2.00000
    238     -14.7474      2.00000
    239     -14.7473      2.00000
    240     -14.7473      2.00000
    241     -14.7419      2.00000
    242     -14.7419      2.00000
    243     -14.7419      2.00000
    244     -14.7419      2.00000
    245     -14.7419      2.00000
    246     -14.7419      2.00000
    247     -14.7419      2.00000
    248     -14.7419      2.00000
    249     -14.6709      2.00000
    250     -14.6709      2.00000
    251     -14.6709      2.00000
    252     -14.6709      2.00000
    253     -14.6243      2.00000
    254     -14.6243      2.00000
    255     -14.6243      2.00000
    256     -14.6243      2.00000
    257     -14.6243      2.00000
    258     -14.6243      2.00000
    259     -14.6243      2.00000
    260     -14.6243      2.00000
    261     -14.5559      2.00000
    262     -14.5559      2.00000
    263     -14.5559      2.00000
    264     -14.5559      2.00000
    265     -14.5559      2.00000
    266     -14.5559      2.00000
    267     -14.5559      2.00000
    268     -14.5559      2.00000
    269     -14.5065      2.00000
    270     -14.5065      2.00000
    271     -14.5065      2.00000
    272     -14.5065      2.00000
    273     -14.5065      2.00000
    274     -14.5065      2.00000
    275     -14.5065      2.00000
    276     -14.5065      2.00000
    277     -14.4946      2.00000
    278     -14.4946      2.00000
    279     -14.4946      2.00000
    280     -14.4946      2.00000
    281     -14.4946      2.00000
    282     -14.4946      2.00000
    283     -14.4946      2.00000
    284     -14.4946      2.00000
    285     -14.4946      2.00000
    286     -14.4946      2.00000
    287     -14.4946      2.00000
    288     -14.4946      2.00000
    289     -14.4946      2.00000
    290     -14.4945      2.00000
    291     -14.4945      2.00000
    292     -14.4945      2.00000
    293     -14.4080      2.00000
    294     -14.4080      2.00000
    295     -14.4079      2.00000
    296     -14.4079      2.00000
    297     -14.4079      2.00000
    298     -14.4079      2.00000
    299     -14.4078      2.00000
    300     -14.4078      2.00000
    301     -14.3421      2.00000
    302     -14.3421      2.00000
    303     -14.3420      2.00000
    304     -14.3420      2.00000
    305     -14.3420      2.00000
    306     -14.3420      2.00000
    307     -14.3420      2.00000
    308     -14.3420      2.00000
    309     -14.2928      2.00000
    310     -14.2928      2.00000
    311     -14.2928      2.00000
    312     -14.2927      2.00000
    313     -14.2927      2.00000
    314     -14.2927      2.00000
    315     -14.2927      2.00000
    316     -14.2927      2.00000
    317     -14.2464      2.00000
    318     -14.2464      2.00000
    319     -14.2464      2.00000
    320     -14.2464      2.00000
    321     -14.2464      2.00000
    322     -14.2464      2.00000
    323     -14.2464      2.00000
    324     -14.2464      2.00000
    325     -14.2403      2.00000
    326     -14.2403      2.00000
    327     -14.2403      2.00000
    328     -14.2403      2.00000
    329     -14.2360      2.00000
    330     -14.2360      2.00000
    331     -14.2360      2.00000
    332     -14.2360      2.00000
    333     -14.2360      2.00000
    334     -14.2360      2.00000
    335     -14.2360      2.00000
    336     -14.2360      2.00000
    337     -14.2126      2.00000
    338     -14.2126      2.00000
    339     -14.2126      2.00000
    340     -14.2126      2.00000
    341     -14.2125      2.00000
    342     -14.2125      2.00000
    343     -14.2125      2.00000
    344     -14.2125      2.00000
    345     -14.2125      2.00000
    346     -14.2125      2.00000
    347     -14.2125      2.00000
    348     -14.2125      2.00000
    349     -14.2124      2.00000
    350     -14.2124      2.00000
    351     -14.2124      2.00000
    352     -14.2124      2.00000
    353     -14.1527      2.00000
    354     -14.1527      2.00000
    355     -14.1527      2.00000
    356     -14.1527      2.00000
    357     -14.1527      2.00000
    358     -14.1527      2.00000
    359     -14.1527      2.00000
    360     -14.1527      2.00000
    361     -14.0439      2.00000
    362     -14.0439      2.00000
    363     -14.0439      2.00000
    364     -14.0439      2.00000
    365     -14.0274      2.00000
    366     -14.0274      2.00000
    367     -14.0274      2.00000
    368     -14.0274      2.00000
    369     -14.0274      2.00000
    370     -14.0274      2.00000
    371     -14.0273      2.00000
    372     -14.0273      2.00000
    373     -14.0053      2.00000
    374     -14.0053      2.00000
    375     -14.0053      2.00000
    376     -14.0053      2.00000
    377     -14.0053      2.00000
    378     -14.0053      2.00000
    379     -14.0053      2.00000
    380     -14.0053      2.00000
    381     -14.0052      2.00000
    382     -14.0052      2.00000
    383     -14.0052      2.00000
    384     -14.0052      2.00000
    385     -14.0052      2.00000
    386     -14.0052      2.00000
    387     -14.0052      2.00000
    388     -14.0052      2.00000
    389     -13.9370      2.00000
    390     -13.9370      2.00000
    391     -13.9370      2.00000
    392     -13.9370      2.00000
    393     -13.9369      2.00000
    394     -13.9369      2.00000
    395     -13.9369      2.00000
    396     -13.9369      2.00000
    397     -13.8813      2.00000
    398     -13.8813      2.00000
    399     -13.8813      2.00000
    400     -13.8813      2.00000
    401     -13.8813      2.00000
    402     -13.8813      2.00000
    403     -13.8813      2.00000
    404     -13.8813      2.00000
    405     -13.8813      2.00000
    406     -13.8813      2.00000
    407     -13.8813      2.00000
    408     -13.8813      2.00000
    409     -13.8813      2.00000
    410     -13.8813      2.00000
    411     -13.8813      2.00000
    412     -13.8813      2.00000
    413     -13.8746      2.00000
    414     -13.8746      2.00000
    415     -13.8746      2.00000
    416     -13.8746      2.00000
    417     -13.8746      2.00000
    418     -13.8746      2.00000
    419     -13.8745      2.00000
    420     -13.8745      2.00000
    421     -13.8445      2.00000
    422     -13.8445      2.00000
    423     -13.8445      2.00000
    424     -13.8445      2.00000
    425     -13.8323      2.00000
    426     -13.8323      2.00000
    427     -13.8323      2.00000
    428     -13.8323      2.00000
    429     -13.8323      2.00000
    430     -13.8323      2.00000
    431     -13.8323      2.00000
    432     -13.8323      2.00000
    433     -13.7645      2.00000
    434     -13.7645      2.00000
    435     -13.7645      2.00000
    436     -13.7645      2.00000
    437     -13.7645      2.00000
    438     -13.7645      2.00000
    439     -13.7645      2.00000
    440     -13.7645      2.00000
    441     -13.7627      2.00000
    442     -13.7627      2.00000
    443     -13.7627      2.00000
    444     -13.7627      2.00000
    445     -13.7627      2.00000
    446     -13.7627      2.00000
    447     -13.7627      2.00000
    448     -13.7627      2.00000
    449     -13.7586      2.00000
    450     -13.7586      2.00000
    451     -13.7586      2.00000
    452     -13.7586      2.00000
    453     -13.7324      2.00000
    454     -13.7324      2.00000
    455     -13.7324      2.00000
    456     -13.7324      2.00000
    457     -13.7324      2.00000
    458     -13.7324      2.00000
    459     -13.7324      2.00000
    460     -13.7323      2.00000
    461     -13.6547      2.00000
    462     -13.6547      2.00000
    463     -13.6547      2.00000
    464     -13.6547      2.00000
    465     -13.6546      2.00000
    466     -13.6546      2.00000
    467     -13.6546      2.00000
    468     -13.6546      2.00000
    469     -13.6546      2.00000
    470     -13.6546      2.00000
    471     -13.6546      2.00000
    472     -13.6546      2.00000
    473     -13.6545      2.00000
    474     -13.6545      2.00000
    475     -13.6545      2.00000
    476     -13.6545      2.00000
    477     -13.6387      2.00000
    478     -13.6387      2.00000
    479     -13.6387      2.00000
    480     -13.6387      2.00000
    481     -13.6387      2.00000
    482     -13.6387      2.00000
    483     -13.6387      2.00000
    484     -13.6387      2.00000
    485     -13.6387      2.00000
    486     -13.6387      2.00000
    487     -13.6386      2.00000
    488     -13.6386      2.00000
    489     -13.6386      2.00000
    490     -13.6386      2.00000
    491     -13.6386      2.00000
    492     -13.6386      2.00000
    493     -13.6150      2.00000
    494     -13.6150      2.00000
    495     -13.6149      2.00000
    496     -13.6149      2.00000
    497     -13.6004      2.00000
    498     -13.6004      2.00000
    499     -13.6004      2.00000
    500     -13.6004      2.00000
    501     -13.6003      2.00000
    502     -13.6003      2.00000
    503     -13.6003      2.00000
    504     -13.6003      2.00000
    505     -13.5480      2.00000
    506     -13.5480      2.00000
    507     -13.5480      2.00000
    508     -13.5480      2.00000
    509     -13.5258      2.00000
    510     -13.5258      2.00000
    511     -13.5258      2.00000
    512     -13.5258      2.00000
    513       6.7432      2.00000
    514       6.7433      2.00000
    515       6.7433      2.00000
    516       6.7434      2.00000
    517       7.8439      2.00000
    518       7.8439      2.00000
    519       7.8439      2.00000
    520       7.8440      2.00000
    521       7.8440      2.00000
    522       7.8440      2.00000
    523       7.8441      2.00000
    524       7.8441      2.00000
    525       8.3027      2.00000
    526       8.3027      2.00000
    527       8.3027      2.00000
    528       8.3027      2.00000
    529       8.3375      2.00000
    530       8.3376      2.00000
    531       8.3377      2.00000
    532       8.3377      2.00000
    533       8.5165      2.00000
    534       8.5165      2.00000
    535       8.5166      2.00000
    536       8.5167      2.00000
    537       8.6071      2.00000
    538       8.6072      2.00000
    539       8.6072      2.00000
    540       8.6072      2.00000
    541       8.6542      2.00000
    542       8.6542      2.00000
    543       8.6542      2.00000
    544       8.6542      2.00000
    545       8.6542      2.00000
    546       8.6542      2.00000
    547       8.6542      2.00000
    548       8.6542      2.00000
    549       8.6543      2.00000
    550       8.6543      2.00000
    551       8.6543      2.00000
    552       8.6543      2.00000
    553       8.6544      2.00000
    554       8.6544      2.00000
    555       8.6544      2.00000
    556       8.6544      2.00000
    557       8.6544      2.00000
    558       8.6544      2.00000
    559       8.6544      2.00000
    560       8.6544      2.00000
    561       8.6545      2.00000
    562       8.6545      2.00000
    563       8.6545      2.00000
    564       8.6545      2.00000
    565       8.8502      2.00000
    566       8.8502      2.00000
    567       8.8502      2.00000
    568       8.8502      2.00000
    569       8.8503      2.00000
    570       8.8503      2.00000
    571       8.8503      2.00000
    572       8.8503      2.00000
    573       8.8503      2.00000
    574       8.8503      2.00000
    575       8.8503      2.00000
    576       8.8503      2.00000
    577       8.8504      2.00000
    578       8.8504      2.00000
    579       8.8504      2.00000
    580       8.8504      2.00000
    581       9.1257      2.00000
    582       9.1257      2.00000
    583       9.1258      2.00000
    584       9.1258      2.00000
    585       9.1258      2.00000
    586       9.1259      2.00000
    587       9.1259      2.00000
    588       9.1259      2.00000
    589       9.4366      2.00000
    590       9.4366      2.00000
    591       9.4366      2.00000
    592       9.4366      2.00000
    593       9.4366      2.00000
    594       9.4366      2.00000
    595       9.4366      2.00000
    596       9.4366      2.00000
    597       9.4367      2.00000
    598       9.4367      2.00000
    599       9.4367      2.00000
    600       9.4367      2.00000
    601       9.4367      2.00000
    602       9.4367      2.00000
    603       9.4367      2.00000
    604       9.4367      2.00000
    605       9.4763      2.00000
    606       9.4763      2.00000
    607       9.4764      2.00000
    608       9.4764      2.00000
    609       9.4764      2.00000
    610       9.4765      2.00000
    611       9.4765      2.00000
    612       9.4765      2.00000
    613       9.4951      2.00000
    614       9.4951      2.00000
    615       9.4951      2.00000
    616       9.4951      2.00000
    617       9.4952      2.00000
    618       9.4952      2.00000
    619       9.4952      2.00000
    620       9.4952      2.00000
    621       9.5884      2.00000
    622       9.5884      2.00000
    623       9.5884      2.00000
    624       9.5884      2.00000
    625       9.5884      2.00000
    626       9.5884      2.00000
    627       9.5884      2.00000
    628       9.5884      2.00000
    629       9.5885      2.00000
    630       9.5885      2.00000
    631       9.5886      2.00000
    632       9.5886      2.00000
    633       9.5886      2.00000
    634       9.5886      2.00000
    635       9.5887      2.00000
    636       9.5887      2.00000
    637       9.6833      2.00000
    638       9.6833      2.00000
    639       9.6833      2.00000
    640       9.6833      2.00000
    641       9.6833      2.00000
    642       9.6833      2.00000
    643       9.6833      2.00000
    644       9.6834      2.00000
    645      10.1033      2.00000
    646      10.1033      2.00000
    647      10.1034      2.00000
    648      10.1034      2.00000
    649      10.1034      2.00000
    650      10.1034      2.00000
    651      10.1035      2.00000
    652      10.1035      2.00000
    653      10.1645      2.00000
    654      10.1645      2.00000
    655      10.1645      2.00000
    656      10.1645      2.00000
    657      10.1645      2.00000
    658      10.1645      2.00000
    659      10.1645      2.00000
    660      10.1645      2.00000
    661      10.5724      2.00000
    662      10.5724      2.00000
    663      10.5724      2.00000
    664      10.5724      2.00000
    665      10.5724      2.00000
    666      10.5724      2.00000
    667      10.5724      2.00000
    668      10.5724      2.00000
    669      10.6168      2.00000
    670      10.6168      2.00000
    671      10.6168      2.00000
    672      10.6168      2.00000
    673      10.6169      2.00000
    674      10.6169      2.00000
    675      10.6169      2.00000
    676      10.6169      2.00000
    677      10.6169      2.00000
    678      10.6169      2.00000
    679      10.6169      2.00000
    680      10.6169      2.00000
    681      10.6170      2.00000
    682      10.6170      2.00000
    683      10.6170      2.00000
    684      10.6170      2.00000
    685      10.6501      2.00000
    686      10.6501      2.00000
    687      10.6501      2.00000
    688      10.6501      2.00000
    689      10.6502      2.00000
    690      10.6502      2.00000
    691      10.6502      2.00000
    692      10.6502      2.00000
    693      10.7040      2.00000
    694      10.7040      2.00000
    695      10.7040      2.00000
    696      10.7040      2.00000
    697      10.8395      2.00000
    698      10.8395      2.00000
    699      10.8395      2.00000
    700      10.8395      2.00000
    701      10.8395      2.00000
    702      10.8395      2.00000
    703      10.8396      2.00000
    704      10.8396      2.00000
    705      10.8902      2.00000
    706      10.8902      2.00000
    707      10.8902      2.00000
    708      10.8902      2.00000
    709      10.8902      2.00000
    710      10.8902      2.00000
    711      10.8902      2.00000
    712      10.8902      2.00000
    713      10.8902      2.00000
    714      10.8902      2.00000
    715      10.8902      2.00000
    716      10.8902      2.00000
    717      10.8902      2.00000
    718      10.8902      2.00000
    719      10.8902      2.00000
    720      10.8903      2.00000
    721      10.9854      2.00000
    722      10.9854      2.00000
    723      10.9855      2.00000
    724      10.9855      2.00000
    725      10.9855      2.00000
    726      10.9855      2.00000
    727      10.9855      2.00000
    728      10.9855      2.00000
    729      11.0227      2.00002
    730      11.0227      2.00002
    731      11.0228      2.00002
    732      11.0228      2.00002
    733      11.0228      2.00002
    734      11.0228      2.00002
    735      11.0228      2.00002
    736      11.0228      2.00002
    737      11.0228      2.00002
    738      11.0228      2.00002
    739      11.0228      2.00002
    740      11.0228      2.00002
    741      11.0228      2.00002
    742      11.0228      2.00002
    743      11.0228      2.00002
    744      11.0228      2.00002
    745      11.1580      2.00076
    746      11.1580      2.00076
    747      11.1580      2.00076
    748      11.1580      2.00076
    749      11.7920      0.33579
    750      11.7920      0.33578
    751      11.7920      0.33577
    752      11.7920      0.33577
    753      11.7920      0.33577
    754      11.7920      0.33576
    755      11.7920      0.33576
    756      11.7920      0.33575
    757      11.7920      0.33575
    758      11.7920      0.33575
    759      11.7920      0.33574
    760      11.7920      0.33574
    761      11.7920      0.33574
    762      11.7920      0.33573
    763      11.7920      0.33572
    764      11.7920      0.33572
    765      11.8001      0.28771
    766      11.8001      0.28769
    767      11.8001      0.28769
    768      11.8001      0.28768
    769      11.8001      0.28766
    770      11.8001      0.28766
    771      11.8001      0.28765
    772      11.8001      0.28761
    773      11.8177      0.19422
    774      11.8177      0.19421
    775      11.8177      0.19415
    776      11.8177      0.19414
    777      11.8177      0.19402
    778      11.8177      0.19402
    779      11.8178      0.19395
    780      11.8178      0.19395
    781      11.8195      0.18555
    782      11.8195      0.18555
    783      11.8195      0.18533
    784      11.8195      0.18532
    785      11.8196      0.18511
    786      11.8196      0.18511
    787      11.8196      0.18491
    788      11.8196      0.18491
    789      11.8541      0.05056
    790      11.8541      0.05055
    791      11.8541      0.05052
    792      11.8541      0.05051
    793      11.8541      0.05047
    794      11.8541      0.05045
    795      11.8542      0.05041
    796      11.8542      0.05039
    797      11.8645      0.02125
    798      11.8645      0.02124
    799      11.8645      0.02119
    800      11.8645      0.02118
    801      11.8645      0.02113
    802      11.8646      0.02112
    803      11.8646      0.02107
    804      11.8646      0.02106
    805      11.8726      0.00181
    806      11.8726      0.00181
    807      11.8726      0.00180
    808      11.8726      0.00180
    809      11.8726      0.00176
    810      11.8726      0.00176
    811      11.8726      0.00176
    812      11.8726      0.00176
    813      11.8726      0.00168
    814      11.8726      0.00168
    815      11.8726      0.00167
    816      11.8726      0.00167
    817      11.8727      0.00164
    818      11.8727      0.00163
    819      11.8727      0.00163
    820      11.8727      0.00163
    821      12.0744     -0.02538
    822      12.0744     -0.02538
    823      12.0744     -0.02538
    824      12.0744     -0.02538
    825      12.0744     -0.02537
    826      12.0745     -0.02537
    827      12.0745     -0.02537
    828      12.0745     -0.02537
    829      12.0857     -0.02158
    830      12.0857     -0.02157
    831      12.0857     -0.02157
    832      12.0857     -0.02157
    833      12.0857     -0.02156
    834      12.0857     -0.02156
    835      12.0858     -0.02156
    836      12.0858     -0.02156
    837      12.3610     -0.00004
    838      12.3610     -0.00004
    839      12.3610     -0.00004
    840      12.3610     -0.00004
    841      12.3690     -0.00003
    842      12.3690     -0.00003
    843      12.3690     -0.00003
    844      12.3690     -0.00003
    845      12.3690     -0.00003
    846      12.3690     -0.00003
    847      12.3690     -0.00003
    848      12.3690     -0.00003
    849      12.5844     -0.00000
    850      12.5844     -0.00000
    851      12.5844     -0.00000
    852      12.5844     -0.00000
    853      12.6138     -0.00000
    854      12.6138     -0.00000
    855      12.6139     -0.00000
    856      12.6139     -0.00000
    857      13.2185     -0.00000
    858      13.2185     -0.00000
    859      13.2186     -0.00000
    860      13.2186     -0.00000
    861      13.2186     -0.00000
    862      13.2186     -0.00000
    863      13.2186     -0.00000
    864      13.2186     -0.00000
    865      13.2186     -0.00000
    866      13.2186     -0.00000
    867      13.2187     -0.00000
    868      13.2187     -0.00000
    869      13.2187     -0.00000
    870      13.2187     -0.00000
    871      13.2187     -0.00000
    872      13.2187     -0.00000
    873      13.2303     -0.00000
    874      13.2303     -0.00000
    875      13.2303     -0.00000
    876      13.2303     -0.00000
    877      13.2303     -0.00000
    878      13.2303     -0.00000
    879      13.2304     -0.00000
    880      13.2304     -0.00000
    881      13.2511     -0.00000
    882      13.2511     -0.00000
    883      13.2511     -0.00000
    884      13.2511     -0.00000
    885      13.3729     -0.00000
    886      13.3729     -0.00000
    887      13.3729     -0.00000
    888      13.3729     -0.00000
    889      13.3730     -0.00000
    890      13.3730     -0.00000
    891      13.3730     -0.00000
    892      13.3730     -0.00000
    893      13.5123     -0.00000
    894      13.5123     -0.00000
    895      13.5123     -0.00000
    896      13.5123     -0.00000
    897      13.8434     -0.00000
    898      13.8434     -0.00000
    899      13.8434     -0.00000
    900      13.8434     -0.00000
    901      13.8434     -0.00000
    902      13.8434     -0.00000
    903      13.8434     -0.00000
    904      13.8434     -0.00000
    905      14.1162     -0.00000
    906      14.1162     -0.00000
    907      14.1162     -0.00000
    908      14.1162     -0.00000
    909      14.1162     -0.00000
    910      14.1162     -0.00000
    911      14.1162     -0.00000
    912      14.1162     -0.00000
    913      14.1527     -0.00000
    914      14.1527     -0.00000
    915      14.1527     -0.00000
    916      14.1527     -0.00000
    917      14.1527     -0.00000
    918      14.1528     -0.00000
    919      14.1528     -0.00000
    920      14.1528     -0.00000
    921      14.7606     -0.00000
    922      14.7812     -0.00000
    923      14.8096     -0.00000
    924      14.8669     -0.00000

 k-point     4 :       0.5000    0.5000    0.5000
  band No.  band energies     occupation 
      1     -36.4442      2.00000
      2     -36.4442      2.00000
      3     -36.4441      2.00000
      4     -36.4441      2.00000
      5     -36.4441      2.00000
      6     -36.4440      2.00000
      7     -36.4440      2.00000
      8     -36.4440      2.00000
      9     -36.2715      2.00000
     10     -36.2715      2.00000
     11     -36.2714      2.00000
     12     -36.2714      2.00000
     13     -36.2714      2.00000
     14     -36.2714      2.00000
     15     -36.2714      2.00000
     16     -36.2714      2.00000
     17     -36.2714      2.00000
     18     -36.2714      2.00000
     19     -36.2714      2.00000
     20     -36.2714      2.00000
     21     -36.2713      2.00000
     22     -36.2713      2.00000
     23     -36.2713      2.00000
     24     -36.2713      2.00000
     25     -36.2713      2.00000
     26     -36.2713      2.00000
     27     -36.2713      2.00000
     28     -36.2713      2.00000
     29     -36.2713      2.00000
     30     -36.2713      2.00000
     31     -36.2713      2.00000
     32     -36.2713      2.00000
     33     -36.1828      2.00000
     34     -36.1828      2.00000
     35     -36.1828      2.00000
     36     -36.1828      2.00000
     37     -36.1828      2.00000
     38     -36.1828      2.00000
     39     -36.1828      2.00000
     40     -36.1828      2.00000
     41     -36.1828      2.00000
     42     -36.1828      2.00000
     43     -36.1828      2.00000
     44     -36.1828      2.00000
     45     -36.1828      2.00000
     46     -36.1828      2.00000
     47     -36.1827      2.00000
     48     -36.1827      2.00000
     49     -36.1827      2.00000
     50     -36.1827      2.00000
     51     -36.1827      2.00000
     52     -36.1827      2.00000
     53     -36.1827      2.00000
     54     -36.1827      2.00000
     55     -36.1827      2.00000
     56     -36.1827      2.00000
     57     -36.1315      2.00000
     58     -36.1315      2.00000
     59     -36.1315      2.00000
     60     -36.1315      2.00000
     61     -36.1315      2.00000
     62     -36.1315      2.00000
     63     -36.1315      2.00000
     64     -36.1315      2.00000
     65     -36.0939      2.00000
     66     -36.0939      2.00000
     67     -36.0939      2.00000
     68     -36.0939      2.00000
     69     -36.0939      2.00000
     70     -36.0939      2.00000
     71     -36.0939      2.00000
     72     -36.0939      2.00000
     73     -36.0925      2.00000
     74     -36.0925      2.00000
     75     -36.0925      2.00000
     76     -36.0925      2.00000
     77     -36.0925      2.00000
     78     -36.0925      2.00000
     79     -36.0924      2.00000
     80     -36.0924      2.00000
     81     -36.0924      2.00000
     82     -36.0924      2.00000
     83     -36.0924      2.00000
     84     -36.0924      2.00000
     85     -36.0924      2.00000
     86     -36.0924      2.00000
     87     -36.0924      2.00000
     88     -36.0924      2.00000
     89     -36.0924      2.00000
     90     -36.0924      2.00000
     91     -36.0924      2.00000
     92     -36.0924      2.00000
     93     -36.0924      2.00000
     94     -36.0923      2.00000
     95     -36.0923      2.00000
     96     -36.0923      2.00000
     97     -36.0546      2.00000
     98     -36.0546      2.00000
     99     -36.0546      2.00000
    100     -36.0546      2.00000
    101     -36.0546      2.00000
    102     -36.0546      2.00000
    103     -36.0545      2.00000
    104     -36.0545      2.00000
    105     -36.0545      2.00000
    106     -36.0545      2.00000
    107     -36.0545      2.00000
    108     -36.0545      2.00000
    109     -36.0545      2.00000
    110     -36.0545      2.00000
    111     -36.0545      2.00000
    112     -36.0545      2.00000
    113     -36.0545      2.00000
    114     -36.0545      2.00000
    115     -36.0544      2.00000
    116     -36.0544      2.00000
    117     -36.0544      2.00000
    118     -36.0544      2.00000
    119     -36.0544      2.00000
    120     -36.0544      2.00000
    121     -35.9233      2.00000
    122     -35.9233      2.00000
    123     -35.9233      2.00000
    124     -35.9233      2.00000
    125     -35.9232      2.00000
    126     -35.9232      2.00000
    127     -35.9232      2.00000
    128     -35.9231      2.00000
    129     -15.3549      2.00000
    130     -15.3549      2.00000
    131     -15.3549      2.00000
    132     -15.3549      2.00000
    133     -15.3549      2.00000
    134     -15.3549      2.00000
    135     -15.3548      2.00000
    136     -15.3548      2.00000
    137     -15.3548      2.00000
    138     -15.3548      2.00000
    139     -15.3548      2.00000
    140     -15.3548      2.00000
    141     -15.3548      2.00000
    142     -15.3548      2.00000
    143     -15.3548      2.00000
    144     -15.3548      2.00000
    145     -15.3548      2.00000
    146     -15.3548      2.00000
    147     -15.3548      2.00000
    148     -15.3548      2.00000
    149     -15.3548      2.00000
    150     -15.3548      2.00000
    151     -15.3547      2.00000
    152     -15.3547      2.00000
    153     -15.2207      2.00000
    154     -15.2207      2.00000
    155     -15.2207      2.00000
    156     -15.2207      2.00000
    157     -15.2207      2.00000
    158     -15.2207      2.00000
    159     -15.2206      2.00000
    160     -15.2206      2.00000
    161     -15.2206      2.00000
    162     -15.2206      2.00000
    163     -15.2206      2.00000
    164     -15.2206      2.00000
    165     -15.2206      2.00000
    166     -15.2206      2.00000
    167     -15.2206      2.00000
    168     -15.2206      2.00000
    169     -15.2206      2.00000
    170     -15.2206      2.00000
    171     -15.2206      2.00000
    172     -15.2206      2.00000
    173     -15.2206      2.00000
    174     -15.2206      2.00000
    175     -15.2206      2.00000
    176     -15.2206      2.00000
    177     -15.0939      2.00000
    178     -15.0939      2.00000
    179     -15.0939      2.00000
    180     -15.0939      2.00000
    181     -15.0939      2.00000
    182     -15.0939      2.00000
    183     -15.0939      2.00000
    184     -15.0939      2.00000
    185     -15.0548      2.00000
    186     -15.0548      2.00000
    187     -15.0548      2.00000
    188     -15.0548      2.00000
    189     -15.0548      2.00000
    190     -15.0548      2.00000
    191     -15.0548      2.00000
    192     -15.0548      2.00000
    193     -15.0548      2.00000
    194     -15.0548      2.00000
    195     -15.0548      2.00000
    196     -15.0548      2.00000
    197     -15.0548      2.00000
    198     -15.0548      2.00000
    199     -15.0548      2.00000
    200     -15.0547      2.00000
    201     -15.0547      2.00000
    202     -15.0547      2.00000
    203     -15.0547      2.00000
    204     -15.0547      2.00000
    205     -15.0547      2.00000
    206     -15.0547      2.00000
    207     -15.0547      2.00000
    208     -15.0547      2.00000
    209     -14.8963      2.00000
    210     -14.8963      2.00000
    211     -14.8963      2.00000
    212     -14.8963      2.00000
    213     -14.8963      2.00000
    214     -14.8963      2.00000
    215     -14.8963      2.00000
    216     -14.8963      2.00000
    217     -14.8963      2.00000
    218     -14.8962      2.00000
    219     -14.8962      2.00000
    220     -14.8962      2.00000
    221     -14.8962      2.00000
    222     -14.8962      2.00000
    223     -14.8962      2.00000
    224     -14.8962      2.00000
    225     -14.8625      2.00000
    226     -14.8625      2.00000
    227     -14.8625      2.00000
    228     -14.8625      2.00000
    229     -14.8625      2.00000
    230     -14.8625      2.00000
    231     -14.8625      2.00000
    232     -14.8625      2.00000
    233     -14.8625      2.00000
    234     -14.8625      2.00000
    235     -14.8625      2.00000
    236     -14.8625      2.00000
    237     -14.8625      2.00000
    238     -14.8625      2.00000
    239     -14.8625      2.00000
    240     -14.8625      2.00000
    241     -14.6839      2.00000
    242     -14.6839      2.00000
    243     -14.6839      2.00000
    244     -14.6839      2.00000
    245     -14.6839      2.00000
    246     -14.6839      2.00000
    247     -14.6839      2.00000
    248     -14.6839      2.00000
    249     -14.6839      2.00000
    250     -14.6839      2.00000
    251     -14.6839      2.00000
    252     -14.6839      2.00000
    253     -14.6838      2.00000
    254     -14.6838      2.00000
    255     -14.6838      2.00000
    256     -14.6838      2.00000
    257     -14.6838      2.00000
    258     -14.6838      2.00000
    259     -14.6838      2.00000
    260     -14.6838      2.00000
    261     -14.6838      2.00000
    262     -14.6838      2.00000
    263     -14.6838      2.00000
    264     -14.6838      2.00000
    265     -14.5097      2.00000
    266     -14.5097      2.00000
    267     -14.5097      2.00000
    268     -14.5097      2.00000
    269     -14.5097      2.00000
    270     -14.5097      2.00000
    271     -14.5097      2.00000
    272     -14.5097      2.00000
    273     -14.5097      2.00000
    274     -14.5097      2.00000
    275     -14.5097      2.00000
    276     -14.5097      2.00000
    277     -14.5097      2.00000
    278     -14.5097      2.00000
    279     -14.5097      2.00000
    280     -14.5097      2.00000
    281     -14.5097      2.00000
    282     -14.5097      2.00000
    283     -14.5097      2.00000
    284     -14.5097      2.00000
    285     -14.5097      2.00000
    286     -14.5097      2.00000
    287     -14.5097      2.00000
    288     -14.5097      2.00000
    289     -14.5029      2.00000
    290     -14.5029      2.00000
    291     -14.5029      2.00000
    292     -14.5029      2.00000
    293     -14.5028      2.00000
    294     -14.5028      2.00000
    295     -14.5028      2.00000
    296     -14.5028      2.00000
    297     -14.3679      2.00000
    298     -14.3679      2.00000
    299     -14.3679      2.00000
    300     -14.3678      2.00000
    301     -14.3678      2.00000
    302     -14.3678      2.00000
    303     -14.3678      2.00000
    304     -14.3678      2.00000
    305     -14.3678      2.00000
    306     -14.3678      2.00000
    307     -14.3678      2.00000
    308     -14.3678      2.00000
    309     -14.3678      2.00000
    310     -14.3678      2.00000
    311     -14.3678      2.00000
    312     -14.3678      2.00000
    313     -14.3678      2.00000
    314     -14.3678      2.00000
    315     -14.3678      2.00000
    316     -14.3678      2.00000
    317     -14.3678      2.00000
    318     -14.3678      2.00000
    319     -14.3678      2.00000
    320     -14.3678      2.00000
    321     -14.1438      2.00000
    322     -14.1438      2.00000
    323     -14.1438      2.00000
    324     -14.1438      2.00000
    325     -14.1438      2.00000
    326     -14.1438      2.00000
    327     -14.1438      2.00000
    328     -14.1438      2.00000
    329     -14.1438      2.00000
    330     -14.1438      2.00000
    331     -14.1438      2.00000
    332     -14.1438      2.00000
    333     -14.1438      2.00000
    334     -14.1438      2.00000
    335     -14.1438      2.00000
    336     -14.1438      2.00000
    337     -14.0838      2.00000
    338     -14.0838      2.00000
    339     -14.0838      2.00000
    340     -14.0838      2.00000
    341     -14.0838      2.00000
    342     -14.0838      2.00000
    343     -14.0838      2.00000
    344     -14.0838      2.00000
    345     -14.0838      2.00000
    346     -14.0838      2.00000
    347     -14.0838      2.00000
    348     -14.0838      2.00000
    349     -14.0838      2.00000
    350     -14.0837      2.00000
    351     -14.0837      2.00000
    352     -14.0837      2.00000
    353     -14.0837      2.00000
    354     -14.0837      2.00000
    355     -14.0837      2.00000
    356     -14.0837      2.00000
    357     -14.0837      2.00000
    358     -14.0837      2.00000
    359     -14.0837      2.00000
    360     -14.0837      2.00000
    361     -14.0783      2.00000
    362     -14.0783      2.00000
    363     -14.0783      2.00000
    364     -14.0783      2.00000
    365     -14.0783      2.00000
    366     -14.0783      2.00000
    367     -14.0783      2.00000
    368     -14.0783      2.00000
    369     -14.0783      2.00000
    370     -14.0783      2.00000
    371     -14.0783      2.00000
    372     -14.0783      2.00000
    373     -14.0783      2.00000
    374     -14.0783      2.00000
    375     -14.0783      2.00000
    376     -14.0783      2.00000
    377     -14.0783      2.00000
    378     -14.0783      2.00000
    379     -14.0783      2.00000
    380     -14.0783      2.00000
    381     -14.0782      2.00000
    382     -14.0782      2.00000
    383     -14.0782      2.00000
    384     -14.0782      2.00000
    385     -14.0133      2.00000
    386     -14.0133      2.00000
    387     -14.0132      2.00000
    388     -14.0132      2.00000
    389     -14.0132      2.00000
    390     -14.0132      2.00000
    391     -14.0132      2.00000
    392     -14.0132      2.00000
    393     -13.9624      2.00000
    394     -13.9624      2.00000
    395     -13.9624      2.00000
    396     -13.9624      2.00000
    397     -13.9624      2.00000
    398     -13.9624      2.00000
    399     -13.9624      2.00000
    400     -13.9624      2.00000
    401     -13.9624      2.00000
    402     -13.9624      2.00000
    403     -13.9624      2.00000
    404     -13.9624      2.00000
    405     -13.9624      2.00000
    406     -13.9624      2.00000
    407     -13.9624      2.00000
    408     -13.9624      2.00000
    409     -13.9624      2.00000
    410     -13.9624      2.00000
    411     -13.9624      2.00000
    412     -13.9624      2.00000
    413     -13.9624      2.00000
    414     -13.9624      2.00000
    415     -13.9624      2.00000
    416     -13.9624      2.00000
    417     -13.8731      2.00000
    418     -13.8731      2.00000
    419     -13.8731      2.00000
    420     -13.8731      2.00000
    421     -13.8731      2.00000
    422     -13.8731      2.00000
    423     -13.8731      2.00000
    424     -13.8731      2.00000
    425     -13.7388      2.00000
    426     -13.7388      2.00000
    427     -13.7388      2.00000
    428     -13.7388      2.00000
    429     -13.7387      2.00000
    430     -13.7387      2.00000
    431     -13.7387      2.00000
    432     -13.7387      2.00000
    433     -13.7387      2.00000
    434     -13.7387      2.00000
    435     -13.7387      2.00000
    436     -13.7387      2.00000
    437     -13.7387      2.00000
    438     -13.7387      2.00000
    439     -13.7387      2.00000
    440     -13.7387      2.00000
    441     -13.7387      2.00000
    442     -13.7387      2.00000
    443     -13.7387      2.00000
    444     -13.7387      2.00000
    445     -13.7387      2.00000
    446     -13.7387      2.00000
    447     -13.7387      2.00000
    448     -13.7387      2.00000
    449     -13.7063      2.00000
    450     -13.7063      2.00000
    451     -13.7063      2.00000
    452     -13.7063      2.00000
    453     -13.7063      2.00000
    454     -13.7063      2.00000
    455     -13.7063      2.00000
    456     -13.7063      2.00000
    457     -13.7063      2.00000
    458     -13.7063      2.00000
    459     -13.7062      2.00000
    460     -13.7062      2.00000
    461     -13.7062      2.00000
    462     -13.7062      2.00000
    463     -13.7062      2.00000
    464     -13.7062      2.00000
    465     -13.7062      2.00000
    466     -13.7062      2.00000
    467     -13.7062      2.00000
    468     -13.7062      2.00000
    469     -13.7062      2.00000
    470     -13.7062      2.00000
    471     -13.7062      2.00000
    472     -13.7062      2.00000
    473     -13.6222      2.00000
    474     -13.6222      2.00000
    475     -13.6222      2.00000
    476     -13.6222      2.00000
    477     -13.6222      2.00000
    478     -13.6222      2.00000
    479     -13.6222      2.00000
    480     -13.6222      2.00000
    481     -13.6222      2.00000
    482     -13.6222      2.00000
    483     -13.6221      2.00000
    484     -13.6221      2.00000
    485     -13.6221      2.00000
    486     -13.6221      2.00000
    487     -13.6221      2.00000
    488     -13.6221      2.00000
    489     -13.6221      2.00000
    490     -13.6221      2.00000
    491     -13.6221      2.00000
    492     -13.6221      2.00000
    493     -13.6221      2.00000
    494     -13.6221      2.00000
    495     -13.6221      2.00000
    496     -13.6221      2.00000
    497     -13.5794      2.00000
    498     -13.5794      2.00000
    499     -13.5794      2.00000
    500     -13.5794      2.00000
    501     -13.5794      2.00000
    502     -13.5794      2.00000
    503     -13.5794      2.00000
    504     -13.5794      2.00000
    505     -13.5793      2.00000
    506     -13.5793      2.00000
    507     -13.5793      2.00000
    508     -13.5793      2.00000
    509     -13.5793      2.00000
    510     -13.5793      2.00000
    511     -13.5793      2.00000
    512     -13.5793      2.00000
    513       7.0505      2.00000
    514       7.0506      2.00000
    515       7.0506      2.00000
    516       7.0506      2.00000
    517       7.0507      2.00000
    518       7.0507      2.00000
    519       7.0508      2.00000
    520       7.0508      2.00000
    521       8.6721      2.00000
    522       8.6721      2.00000
    523       8.6722      2.00000
    524       8.6722      2.00000
    525       8.6722      2.00000
    526       8.6722      2.00000
    527       8.6722      2.00000
    528       8.6722      2.00000
    529       8.6723      2.00000
    530       8.6723      2.00000
    531       8.6723      2.00000
    532       8.6723      2.00000
    533       8.6723      2.00000
    534       8.6723      2.00000
    535       8.6724      2.00000
    536       8.6724      2.00000
    537       8.6798      2.00000
    538       8.6798      2.00000
    539       8.6798      2.00000
    540       8.6798      2.00000
    541       8.6798      2.00000
    542       8.6798      2.00000
    543       8.6798      2.00000
    544       8.6798      2.00000
    545       8.6799      2.00000
    546       8.6799      2.00000
    547       8.6799      2.00000
    548       8.6799      2.00000
    549       8.6799      2.00000
    550       8.6799      2.00000
    551       8.6799      2.00000
    552       8.6799      2.00000
    553       8.6799      2.00000
    554       8.6799      2.00000
    555       8.6799      2.00000
    556       8.6799      2.00000
    557       8.6799      2.00000
    558       8.6799      2.00000
    559       8.6799      2.00000
    560       8.6799      2.00000
    561       8.7914      2.00000
    562       8.7914      2.00000
    563       8.7914      2.00000
    564       8.7914      2.00000
    565       8.7914      2.00000
    566       8.7914      2.00000
    567       8.7914      2.00000
    568       8.7914      2.00000
    569       8.7914      2.00000
    570       8.7915      2.00000
    571       8.7915      2.00000
    572       8.7915      2.00000
    573       8.7915      2.00000
    574       8.7915      2.00000
    575       8.7915      2.00000
    576       8.7915      2.00000
    577       8.7915      2.00000
    578       8.7915      2.00000
    579       8.7915      2.00000
    580       8.7915      2.00000
    581       8.7916      2.00000
    582       8.7916      2.00000
    583       8.7916      2.00000
    584       8.7916      2.00000
    585       8.9289      2.00000
    586       8.9289      2.00000
    587       8.9289      2.00000
    588       8.9289      2.00000
    589       8.9289      2.00000
    590       8.9289      2.00000
    591       8.9289      2.00000
    592       8.9289      2.00000
    593       8.9289      2.00000
    594       8.9289      2.00000
    595       8.9289      2.00000
    596       8.9289      2.00000
    597       8.9289      2.00000
    598       8.9289      2.00000
    599       8.9289      2.00000
    600       8.9289      2.00000
    601       8.9289      2.00000
    602       8.9290      2.00000
    603       8.9290      2.00000
    604       8.9290      2.00000
    605       8.9290      2.00000
    606       8.9290      2.00000
    607       8.9290      2.00000
    608       8.9290      2.00000
    609       9.8268      2.00000
    610       9.8268      2.00000
    611       9.8268      2.00000
    612       9.8268      2.00000
    613       9.8268      2.00000
    614       9.8268      2.00000
    615       9.8268      2.00000
    616       9.8268      2.00000
    617       9.8268      2.00000
    618       9.8268      2.00000
    619       9.8268      2.00000
    620       9.8268      2.00000
    621       9.8269      2.00000
    622       9.8269      2.00000
    623       9.8269      2.00000
    624       9.8269      2.00000
    625       9.8269      2.00000
    626       9.8269      2.00000
    627       9.8269      2.00000
    628       9.8269      2.00000
    629       9.8269      2.00000
    630       9.8269      2.00000
    631       9.8269      2.00000
    632       9.8269      2.00000
    633       9.8627      2.00000
    634       9.8627      2.00000
    635       9.8627      2.00000
    636       9.8627      2.00000
    637       9.8627      2.00000
    638       9.8627      2.00000
    639       9.8628      2.00000
    640       9.8628      2.00000
    641       9.9870      2.00000
    642       9.9870      2.00000
    643       9.9870      2.00000
    644       9.9870      2.00000
    645       9.9870      2.00000
    646       9.9870      2.00000
    647       9.9870      2.00000
    648       9.9870      2.00000
    649       9.9870      2.00000
    650       9.9870      2.00000
    651       9.9871      2.00000
    652       9.9871      2.00000
    653       9.9871      2.00000
    654       9.9871      2.00000
    655       9.9871      2.00000
    656       9.9871      2.00000
    657       9.9871      2.00000
    658       9.9871      2.00000
    659       9.9871      2.00000
    660       9.9871      2.00000
    661       9.9871      2.00000
    662       9.9871      2.00000
    663       9.9872      2.00000
    664       9.9872      2.00000
    665      10.6458      2.00000
    666      10.6458      2.00000
    667      10.6458      2.00000
    668      10.6458      2.00000
    669      10.6458      2.00000
    670      10.6458      2.00000
    671      10.6459      2.00000
    672      10.6459      2.00000
    673      10.6459      2.00000
    674      10.6459      2.00000
    675      10.6459      2.00000
    676      10.6459      2.00000
    677      10.6459      2.00000
    678      10.6459      2.00000
    679      10.6459      2.00000
    680      10.6459      2.00000
    681      10.6459      2.00000
    682      10.6459      2.00000
    683      10.6459      2.00000
    684      10.6459      2.00000
    685      10.6459      2.00000
    686      10.6459      2.00000
    687      10.6459      2.00000
    688      10.6459      2.00000
    689      10.6571      2.00000
    690      10.6571      2.00000
    691      10.6571      2.00000
    692      10.6571      2.00000
    693      10.6571      2.00000
    694      10.6571      2.00000
    695      10.6571      2.00000
    696      10.6571      2.00000
    697      10.6571      2.00000
    698      10.6571      2.00000
    699      10.6571      2.00000
    700      10.6571      2.00000
    701      10.6571      2.00000
    702      10.6571      2.00000
    703      10.6571      2.00000
    704      10.6571      2.00000
    705      10.9416      2.00000
    706      10.9416      2.00000
    707      10.9416      2.00000
    708      10.9416      2.00000
    709      10.9416      2.00000
    710      10.9416      2.00000
    711      10.9416      2.00000
    712      10.9416      2.00000
    713      10.9416      2.00000
    714      10.9416      2.00000
    715      10.9416      2.00000
    716      10.9416      2.00000
    717      10.9417      2.00000
    718      10.9417      2.00000
    719      10.9417      2.00000
    720      10.9417      2.00000
    721      10.9417      2.00000
    722      10.9417      2.00000
    723      10.9417      2.00000
    724      10.9417      2.00000
    725      10.9417      2.00000
    726      10.9417      2.00000
    727      10.9417      2.00000
    728      10.9417      2.00000
    729      11.1663      2.00093
    730      11.1663      2.00093
    731      11.1663      2.00093
    732      11.1663      2.00093
    733      11.1663      2.00093
    734      11.1663      2.00093
    735      11.1663      2.00093
    736      11.1663      2.00093
    737      11.3653      2.03721
    738      11.3653      2.03721
    739      11.3653      2.03721
    740      11.3653      2.03721
    741      11.3653      2.03722
    742      11.3653      2.03722
    743      11.3653      2.03722
    744      11.3653      2.03722
    745      11.3653      2.03722
    746      11.3653      2.03722
    747      11.3653      2.03723
    748      11.3653      2.03723
    749      11.3653      2.03723
    750      11.3654      2.03724
    751      11.3654      2.03724
    752      11.3654      2.03724
    753      11.3654      2.03724
    754      11.3654      2.03724
    755      11.3654      2.03725
    756      11.3654      2.03725
    757      11.3654      2.03725
    758      11.3654      2.03725
    759      11.3654      2.03726
    760      11.3654      2.03726
    761      11.5140      2.03963
    762      11.5140      2.03963
    763      11.5140      2.03963
    764      11.5140      2.03963
    765      11.5140      2.03962
    766      11.5140      2.03962
    767      11.5140      2.03962
    768      11.5140      2.03962
    769      11.5140      2.03962
    770      11.5140      2.03962
    771      11.5140      2.03962
    772      11.5140      2.03962
    773      11.5140      2.03961
    774      11.5140      2.03961
    775      11.5140      2.03961
    776      11.5140      2.03961
    777      11.9795     -0.06547
    778      11.9795     -0.06546
    779      11.9795     -0.06546
    780      11.9795     -0.06546
    781      11.9795     -0.06546
    782      11.9795     -0.06546
    783      11.9795     -0.06546
    784      11.9795     -0.06546
    785      11.9795     -0.06546
    786      11.9795     -0.06546
    787      11.9795     -0.06545
    788      11.9795     -0.06545
    789      11.9795     -0.06545
    790      11.9796     -0.06545
    791      11.9796     -0.06545
    792      11.9796     -0.06545
    793      11.9796     -0.06545
    794      11.9796     -0.06544
    795      11.9796     -0.06544
    796      11.9796     -0.06544
    797      11.9796     -0.06544
    798      11.9796     -0.06544
    799      11.9796     -0.06544
    800      11.9796     -0.06544
    801      12.2089     -0.00212
    802      12.2089     -0.00212
    803      12.2089     -0.00212
    804      12.2089     -0.00212
    805      12.2089     -0.00212
    806      12.2089     -0.00212
    807      12.2089     -0.00212
    808      12.2089     -0.00212
    809      12.2090     -0.00212
    810      12.2090     -0.00212
    811      12.2090     -0.00212
    812      12.2090     -0.00212
    813      12.2090     -0.00212
    814      12.2090     -0.00212
    815      12.2090     -0.00212
    816      12.2090     -0.00212
    817      12.4590     -0.00000
    818      12.4590     -0.00000
    819      12.4590     -0.00000
    820      12.4590     -0.00000
    821      12.4590     -0.00000
    822      12.4590     -0.00000
    823      12.4590     -0.00000
    824      12.4590     -0.00000
    825      12.4590     -0.00000
    826      12.4590     -0.00000
    827      12.4590     -0.00000
    828      12.4590     -0.00000
    829      12.4590     -0.00000
    830      12.4590     -0.00000
    831      12.4590     -0.00000
    832      12.4590     -0.00000
    833      12.4590     -0.00000
    834      12.4591     -0.00000
    835      12.4591     -0.00000
    836      12.4591     -0.00000
    837      12.4591     -0.00000
    838      12.4591     -0.00000
    839      12.4591     -0.00000
    840      12.4591     -0.00000
    841      12.5494     -0.00000
    842      12.5494     -0.00000
    843      12.5494     -0.00000
    844      12.5494     -0.00000
    845      12.5494     -0.00000
    846      12.5494     -0.00000
    847      12.5494     -0.00000
    848      12.5494     -0.00000
    849      12.5494     -0.00000
    850      12.5494     -0.00000
    851      12.5494     -0.00000
    852      12.5494     -0.00000
    853      12.5494     -0.00000
    854      12.5494     -0.00000
    855      12.5494     -0.00000
    856      12.5494     -0.00000
    857      12.5494     -0.00000
    858      12.5494     -0.00000
    859      12.5494     -0.00000
    860      12.5494     -0.00000
    861      12.5494     -0.00000
    862      12.5494     -0.00000
    863      12.5494     -0.00000
    864      12.5494     -0.00000
    865      12.7714     -0.00000
    866      12.7714     -0.00000
    867      12.7714     -0.00000
    868      12.7714     -0.00000
    869      12.7714     -0.00000
    870      12.7714     -0.00000
    871      12.7714     -0.00000
    872      12.7714     -0.00000
    873      12.7714     -0.00000
    874      12.7714     -0.00000
    875      12.7714     -0.00000
    876      12.7714     -0.00000
    877      12.7714     -0.00000
    878      12.7714     -0.00000
    879      12.7714     -0.00000
    880      12.7714     -0.00000
    881      12.7714     -0.00000
    882      12.7714     -0.00000
    883      12.7714     -0.00000
    884      12.7714     -0.00000
    885      12.7715     -0.00000
    886      12.7715     -0.00000
    887      12.7715     -0.00000
    888      12.7715     -0.00000
    889      14.0718     -0.00000
    890      14.0718     -0.00000
    891      14.0718     -0.00000
    892      14.0718     -0.00000
    893      14.0719     -0.00000
    894      14.0719     -0.00000
    895      14.0719     -0.00000
    896      14.0719     -0.00000
    897      14.2075     -0.00000
    898      14.2076     -0.00000
    899      14.2076     -0.00000
    900      14.2076     -0.00000
    901      14.2076     -0.00000
    902      14.2076     -0.00000
    903      14.2076     -0.00000
    904      14.2076     -0.00000
    905      14.2076     -0.00000
    906      14.2076     -0.00000
    907      14.2076     -0.00000
    908      14.2076     -0.00000
    909      14.2076     -0.00000
    910      14.2076     -0.00000
    911      14.2076     -0.00000
    912      14.2076     -0.00000
    913      14.2076     -0.00000
    914      14.2077     -0.00000
    915      14.2077     -0.00000
    916      14.2077     -0.00000
    917      14.2077     -0.00000
    918      14.2078     -0.00000
    919      14.2080     -0.00000
    920      14.2081     -0.00000
    921      14.6711     -0.00000
    922      14.6829     -0.00000
    923      14.7024     -0.00000
    924      14.7287     -0.00000


--------------------------------------------------------------------------------------------------------


 soft charge-density along one line, spin component            1
         0         1         2         3         4         5         6         7         8         9
 total charge-density along one line
 
 pseudopotential strength for first ion, spin component:            1
 12.325 -23.653   0.000   0.000  -0.000  -0.000  -0.000   0.000
-23.653  11.696   0.000   0.000  -0.000  -0.000  -0.000   0.000
  0.000   0.000  -5.858   0.000  -0.000   4.041  -0.000   0.000
  0.000   0.000   0.000  -5.858  -0.000  -0.000   4.041   0.000
 -0.000  -0.000  -0.000  -0.000  -5.858   0.000   0.000   4.041
 -0.000  -0.000   4.041  -0.000   0.000   9.160   0.000  -0.000
 -0.000  -0.000  -0.000   4.041   0.000   0.000   9.160  -0.000
  0.000   0.000   0.000   0.000   4.041  -0.000  -0.000   9.160
 -0.000  -0.000  -0.000   0.000   0.000   0.000  -0.000  -0.000
  0.000   0.000   0.000   0.000   0.000  -0.000  -0.000  -0.000
 -0.000  -0.000  -0.000   0.000   0.000   0.000  -0.000  -0.000
 -0.000  -0.000   0.000  -0.000   0.000  -0.000   0.000  -0.000
  0.000   0.000  -0.000  -0.000  -0.000   0.000   0.000   0.000
 -0.000  -0.000  -0.000   0.000   0.000   0.000  -0.000  -0.000
  0.000   0.000   0.000   0.000   0.000  -0.000  -0.000  -0.000
 -0.000  -0.000  -0.000   0.000   0.000   0.000  -0.000  -0.000
 -0.000  -0.000   0.000  -0.000   0.000  -0.000   0.000  -0.000
  0.000   0.000  -0.000  -0.000  -0.000   0.000   0.000   0.000
 total augmentation occupancy for first ion, spin component:            1
  2.000  -0.011  -0.000  -0.000   0.000  -0.000  -0.000  -0.000  -0.000  -0.000  -0.000  -0.000   0.000   0.000   0.000   0.000
 -0.011   1.636  -0.000  -0.000  -0.000   0.000   0.000   0.000  -0.000  -0.000  -0.000  -0.000   0.000   0.000   0.000   0.000
 -0.000   0.000   2.000  -0.000  -0.000  -0.010   0.000   0.000  -0.000  -0.000  -0.000  -0.000  -0.000  -0.000  -0.000  -0.000
 -0.000  -0.000  -0.000   2.000  -0.000   0.000  -0.010   0.000   0.000  -0.000   0.000   0.000   0.000  -0.000   0.000  -0.000
  0.000  -0.000  -0.000  -0.000   2.000   0.000   0.000  -0.010  -0.000  -0.000  -0.000  -0.000  -0.000  -0.000   0.000  -0.000
 -0.000   0.000  -0.010   0.000   0.000   0.038  -0.000  -0.000  -0.000  -0.000  -0.000  -0.000   0.000  -0.000   0.000  -0.000
 -0.000   0.000   0.000  -0.010   0.000  -0.000   0.038  -0.000   0.000   0.000  -0.000   0.000  -0.000   0.000   0.000   0.000
 -0.000   0.000   0.000   0.000  -0.010  -0.000  -0.000   0.038   0.000  -0.000  -0.000   0.000   0.000   0.000  -0.000   0.000
 -0.000  -0.000  -0.000   0.000  -0.000  -0.000   0.000   0.000   5.791  -0.000   0.000  -0.000   0.000  -3.169   0.000  -0.000
 -0.000  -0.000  -0.000   0.000   0.000  -0.000   0.000  -0.000  -0.000   5.791  -0.000  -0.000   0.000   0.000  -3.169   0.000
 -0.000  -0.000  -0.000  -0.000   0.000  -0.000   0.000   0.000   0.000  -0.000   6.188  -0.000  -0.000  -0.000   0.000  -3.495
 -0.000  -0.000  -0.000   0.000  -0.000  -0.000   0.000   0.000  -0.000  -0.000  -0.000   5.791  -0.000   0.000   0.000   0.000
  0.000   0.000  -0.000  -0.000  -0.000  -0.000  -0.000   0.000   0.000   0.000  -0.000  -0.000   6.188  -0.000  -0.000   0.000
  0.000   0.000  -0.000   0.000  -0.000  -0.000   0.000  -0.000  -3.169   0.000  -0.000   0.000  -0.000   1.756  -0.000   0.000
  0.000   0.000  -0.000   0.000   0.000   0.000   0.000  -0.000   0.000  -3.169   0.000   0.000  -0.000  -0.000   1.756  -0.000
  0.000  -0.000   0.000   0.000   0.000  -0.000   0.000  -0.000  -0.000   0.000  -3.495   0.000   0.000   0.000  -0.000   1.983
  0.000   0.000  -0.000   0.000  -0.000   0.000  -0.000   0.000   0.000   0.000   0.000  -3.169   0.000  -0.000  -0.000  -0.000
 -0.000  -0.000   0.000  -0.000  -0.000   0.000  -0.000   0.000  -0.000  -0.000   0.000   0.000  -3.495   0.000   0.000  -0.000


------------------------ aborting loop because EDIFF is reached ----------------------------------------


    CHARGE:  cpu time      0.5405: real time      0.3882
    FORLOC:  cpu time      0.0166: real time      0.0030
    FORNL :  cpu time      1.1015: real time      0.8070
    STRESS:  cpu time      2.7421: real time      2.0450
    FORCOR:  cpu time      0.0374: real time      0.0088
    FORHAR:  cpu time      0.0026: real time      0.0025
    MIXING:  cpu time      0.0563: real time      0.0063
    OFIELD:  cpu time      0.0004: real time      0.0000

  FORCE on cell =-STRESS in cart. coord.  units (eV):
  Direction    XX          YY          ZZ          XY          YZ          ZX
  --------------------------------------------------------------------------------------
  Alpha Z  9286.93263  9286.93263  9286.93263
  Ewald  -48476.36938-48476.36911-48476.36924     0.00218     0.00014     0.00212
  Hartree  7756.31582  7756.31535  7756.31557    -0.00011    -0.00001    -0.00011
  E(xc)   -6641.37153 -6641.37154 -6641.37153    -0.00001    -0.00000    -0.00001
  Local    9966.79355  9966.79534  9966.79451     0.00016     0.00001     0.00015
  n-local -2374.32491 -2414.83478 -2456.07338    -0.00036    -0.00001    -0.00036
  augment   163.18424   163.18416   163.18420    -0.00009    -0.00001    -0.00009
  Kinetic 30717.81751 30712.15646 30801.76027     0.00034     0.00001     0.00033
  Fock        0.00000     0.00000     0.00000     0.00000     0.00000     0.00000
  -------------------------------------------------------------------------------------
  Total     384.31982   384.31980   384.31981    -0.00003    -0.00000    -0.00003
  in kB     262.68808   262.68806   262.68807    -0.00002    -0.00000    -0.00002
  external pressure =      262.69 kB  Pullay stress =        0.00 kB


 VOLUME and BASIS-vectors are now :
 -----------------------------------------------------------------------------
  energy-cutoff  :      350.00
  volume of cell :     2344.03
      direct lattice vectors                 reciprocal lattice vectors
    13.283759688 -0.000000484 -0.000000482     0.075279892  0.000000003  0.000000003
    -0.000000493 13.283759239 -0.000000031     0.000000003  0.075279895  0.000000000
    -0.000000469 -0.000000033 13.283759447     0.000000003  0.000000000  0.075279894

  length of vectors
    13.283759688 13.283759239 13.283759447     0.075279892  0.075279895  0.075279894


 FORCES acting on ions
    electron-ion (+dipol)            ewald-force                    non-local-force                 convergence-correction
 -----------------------------------------------------------------------------------------------
   -.249E-03 0.150E-03 0.507E-03   -.447E-03 0.302E-03 0.556E-03   0.246E-20 -.309E-21 -.695E-21   0.770E-04 -.585E-04 -.159E-04
   0.234E-03 -.273E-03 -.974E-04   -.798E-04 -.318E-03 -.215E-03   -.368E-21 0.331E-21 0.708E-21   0.341E-05 0.637E-04 0.237E-04
   -.882E-03 -.242E-02 0.986E-04   -.726E-03 -.154E-02 0.118E-03   -.718E-22 0.110E-20 -.592E-21   0.118E-03 0.794E-04 -.195E-04
   0.147E-02 0.136E-03 0.531E-03   0.121E-02 -.112E-03 0.352E-03   0.125E-21 0.132E-22 -.556E-21   -.109E-03 0.537E-04 -.303E-04
   -.717E-03 0.972E-04 -.178E-03   -.763E-03 0.130E-04 -.131E-04   0.261E-21 0.211E-20 -.232E-21   0.429E-04 -.494E-05 0.783E-05
   -.398E-03 0.398E-04 -.483E-03   -.612E-03 0.729E-04 -.259E-03   -.107E-20 0.966E-21 0.761E-21   0.114E-03 -.126E-04 -.168E-05
   -.141E-02 -.696E-03 -.428E-03   -.121E-02 -.476E-03 -.294E-03   -.251E-22 0.675E-21 -.926E-22   0.105E-03 0.586E-04 -.106E-04
   0.655E-03 0.720E-03 0.723E-03   0.470E-03 0.424E-03 0.432E-03   0.925E-22 -.149E-20 -.847E-21   -.882E-04 -.640E-04 -.180E-04
   0.116E-02 0.457E-03 -.290E-03   0.895E-03 0.438E-03 -.324E-03   0.123E-20 -.113E-20 -.186E-20   -.137E-03 -.648E-04 0.830E-05
   -.427E-03 0.427E-03 0.502E-03   -.152E-03 0.182E-03 0.287E-03   -.180E-20 0.596E-22 0.261E-21   -.903E-05 -.189E-04 -.178E-04
   -.769E-03 -.774E-04 0.359E-04   -.588E-03 -.101E-03 0.786E-04   0.354E-22 0.725E-21 -.142E-21   0.223E-04 0.132E-04 -.212E-04
   -.132E-02 0.338E-03 0.913E-04   -.940E-03 0.524E-03 0.269E-04   -.127E-21 -.182E-20 0.271E-21   0.109E-03 -.438E-04 -.155E-04
   0.144E-02 0.657E-04 0.108E-02   0.743E-03 0.303E-04 0.717E-03   0.282E-21 0.363E-21 0.236E-20   -.889E-04 0.262E-04 -.166E-04
   -.125E-02 -.412E-03 0.172E-03   -.839E-03 -.433E-03 -.117E-03   -.238E-20 0.270E-21 -.453E-21   0.751E-04 0.320E-04 0.479E-05
   0.827E-04 -.513E-03 0.338E-03   -.104E-03 -.340E-03 0.152E-03   0.524E-21 -.101E-20 -.328E-21   -.407E-05 0.699E-04 -.147E-04
   0.770E-04 0.976E-03 0.400E-03   0.293E-03 0.553E-03 0.128E-03   0.163E-20 0.689E-21 -.503E-21   -.229E-04 -.711E-04 -.131E-04
   0.388E-03 0.442E-03 0.166E-03   -.537E-04 0.358E-03 -.107E-04   0.230E-21 -.609E-21 0.143E-20   0.193E-04 -.640E-04 0.419E-05
   -.367E-03 0.584E-04 -.131E-03   -.499E-03 -.817E-04 -.109E-03   -.821E-22 0.134E-20 -.660E-21   0.149E-04 0.241E-04 0.104E-04
   -.226E-03 -.957E-03 -.614E-03   -.531E-04 -.831E-03 -.369E-03   -.708E-21 -.433E-21 -.582E-21   0.743E-04 0.722E-04 -.149E-04
   0.122E-02 -.141E-02 -.377E-03   0.779E-03 -.703E-03 -.330E-03   0.110E-20 -.710E-21 -.170E-20   -.103E-03 0.513E-04 0.121E-04
   -.757E-03 -.160E-02 -.470E-03   -.744E-03 -.102E-02 -.313E-03   -.262E-21 0.715E-21 -.141E-20   0.126E-03 0.733E-04 0.933E-06
   -.185E-02 -.998E-04 -.248E-03   -.142E-02 -.870E-04 -.229E-03   0.580E-21 0.226E-20 -.672E-21   0.124E-03 -.341E-04 0.166E-04
   0.997E-03 0.355E-03 -.506E-04   0.493E-03 0.228E-03 -.253E-04   0.445E-21 0.956E-21 0.662E-22   -.709E-06 -.519E-04 -.109E-04
   0.962E-03 0.258E-03 0.126E-02   0.652E-03 0.286E-03 0.829E-03   -.252E-21 0.179E-20 0.112E-20   -.118E-03 -.177E-04 -.217E-04
   0.941E-03 0.549E-04 -.894E-03   0.908E-03 -.187E-03 -.513E-03   0.599E-22 -.529E-22 -.983E-21   -.134E-03 0.313E-05 0.235E-04
   0.757E-04 0.440E-03 0.723E-03   0.180E-03 0.248E-03 0.546E-03   0.996E-21 0.146E-21 -.786E-21   -.684E-04 0.220E-04 -.208E-04
   0.750E-03 -.368E-04 -.428E-03   0.336E-03 -.124E-04 -.239E-03   -.559E-21 -.114E-20 0.353E-21   0.596E-05 -.544E-05 0.582E-05
   -.125E-02 0.450E-03 0.120E-02   -.987E-03 0.405E-03 0.867E-03   0.376E-21 0.618E-21 0.173E-20   0.130E-03 -.223E-04 -.325E-04
   0.819E-03 -.151E-02 -.657E-03   0.634E-03 -.862E-03 -.443E-03   0.169E-21 0.154E-21 -.750E-21   -.812E-04 0.587E-04 0.175E-04
   0.146E-04 -.158E-02 -.738E-03   0.186E-03 -.105E-02 -.472E-03   -.836E-21 0.710E-21 -.215E-20   -.772E-04 0.728E-04 0.338E-04
   0.452E-03 -.724E-03 -.278E-03   0.392E-03 -.463E-03 0.177E-04   0.112E-21 0.710E-21 0.107E-20   -.153E-04 0.701E-04 -.224E-04
   0.550E-03 -.961E-03 -.185E-03   0.556E-03 -.879E-03 -.344E-03   -.435E-21 -.149E-21 -.636E-21   -.118E-03 0.786E-04 0.176E-04
   0.538E-03 0.162E-02 0.196E-03   0.499E-03 0.979E-03 -.256E-04   0.334E-21 -.142E-20 0.715E-21   -.943E-04 -.526E-04 0.184E-04
   -.202E-03 -.925E-03 -.824E-03   -.261E-03 -.431E-03 -.455E-03   -.320E-21 -.470E-21 0.159E-21   0.905E-04 -.933E-05 0.204E-04
   0.129E-02 -.192E-03 0.907E-04   0.780E-03 -.332E-04 -.247E-04   -.109E-20 -.733E-21 -.946E-21   -.995E-05 -.121E-04 -.680E-05
   -.125E-02 0.451E-04 -.182E-02   -.824E-03 0.198E-03 -.118E-02   -.220E-21 0.211E-20 0.172E-21   0.121E-03 -.204E-04 0.334E-04
   0.907E-03 -.403E-03 -.968E-04   0.675E-03 -.205E-03 0.105E-04   0.218E-20 0.107E-20 -.213E-20   -.912E-04 -.220E-04 -.276E-05
   -.157E-02 0.131E-02 0.216E-03   -.987E-03 0.970E-03 0.195E-03   0.167E-21 0.687E-22 -.147E-20   0.128E-03 -.767E-04 -.212E-04
   -.151E-02 -.521E-03 -.617E-03   -.956E-03 -.493E-03 -.457E-03   -.833E-21 0.176E-20 0.442E-21   0.102E-03 0.598E-04 0.237E-04
   -.194E-02 -.431E-03 -.118E-03   -.115E-02 -.352E-03 -.185E-03   -.100E-22 -.362E-21 -.110E-20   0.146E-03 -.293E-04 0.215E-04
   0.126E-02 -.212E-03 -.102E-02   0.102E-02 -.242E-03 -.853E-03   -.341E-21 0.582E-21 0.516E-21   -.133E-03 0.182E-04 0.302E-04
   -.657E-05 -.135E-02 -.215E-04   -.219E-05 -.865E-03 -.383E-04   -.475E-21 -.543E-21 -.341E-21   -.666E-04 0.550E-04 0.105E-04
   0.134E-02 -.159E-03 0.890E-03   0.844E-03 -.218E-03 0.643E-03   -.130E-20 -.105E-20 0.141E-20   -.983E-04 0.511E-04 -.759E-05
   0.111E-02 0.121E-02 0.206E-03   0.778E-03 0.592E-03 0.272E-03   0.185E-21 0.230E-21 -.973E-21   -.116E-03 0.433E-04 -.212E-04
   -.149E-02 0.172E-03 0.102E-02   -.125E-02 0.316E-03 0.550E-03   0.957E-21 0.400E-21 0.881E-21   0.138E-03 -.293E-04 0.784E-06
   -.301E-03 0.684E-03 -.225E-03   -.240E-03 0.354E-03 -.255E-03   -.286E-21 -.149E-20 -.182E-20   0.835E-04 -.441E-04 0.483E-05
   -.126E-02 -.360E-03 -.697E-03   -.970E-03 -.283E-03 -.394E-03   0.172E-21 -.864E-21 -.232E-20   0.134E-03 -.335E-04 0.170E-04
   -.113E-02 0.797E-03 -.109E-03   -.956E-03 0.392E-03 -.288E-04   -.561E-21 -.152E-21 0.791E-21   0.105E-03 0.918E-05 0.125E-04
   -.738E-03 -.329E-04 -.833E-04   -.459E-03 -.828E-04 0.351E-04   0.178E-20 0.682E-21 0.177E-21   0.136E-04 0.508E-04 -.173E-04
   -.537E-03 -.114E-04 0.251E-03   -.316E-03 0.717E-05 0.234E-03   0.193E-20 0.672E-21 -.206E-20   0.154E-04 0.605E-05 -.532E-05
   0.223E-03 0.444E-03 0.356E-03   0.119E-03 0.249E-03 0.271E-03   -.118E-20 -.169E-21 0.154E-20   0.578E-05 -.493E-04 -.602E-05
   -.621E-03 -.123E-03 -.448E-03   -.698E-03 -.670E-04 -.353E-03   -.135E-20 0.865E-21 0.720E-22   0.941E-04 -.196E-04 0.176E-04
   0.513E-03 0.783E-04 -.342E-03   0.524E-03 0.266E-03 -.186E-03   -.274E-21 -.354E-21 -.868E-21   -.290E-04 -.634E-04 0.179E-04
   0.162E-02 -.105E-02 -.685E-03   0.119E-02 -.592E-03 -.473E-03   -.133E-20 -.880E-21 -.688E-21   -.986E-04 0.653E-04 0.596E-05
   0.120E-02 0.895E-04 -.712E-03   0.714E-03 0.206E-03 -.281E-03   -.986E-21 0.579E-22 -.364E-21   -.901E-04 -.540E-04 -.558E-05
   -.120E-03 -.406E-03 -.308E-03   -.662E-04 -.403E-03 -.212E-03   -.403E-21 0.122E-20 -.711E-22   0.823E-04 0.284E-04 -.277E-07
   -.101E-02 -.470E-03 -.991E-03   -.896E-03 -.520E-03 -.786E-03   -.333E-21 -.278E-21 0.291E-21   0.139E-03 0.293E-04 0.403E-04
   -.172E-02 0.251E-03 -.812E-03   -.111E-02 -.779E-04 -.583E-03   0.539E-21 0.732E-21 -.698E-21   0.137E-03 0.208E-04 0.151E-04
   0.808E-03 0.628E-05 -.342E-03   0.731E-03 0.430E-04 -.256E-03   -.119E-20 -.122E-20 0.170E-21   -.234E-04 0.494E-05 0.228E-04
   -.130E-02 0.106E-02 0.450E-03   -.997E-03 0.863E-03 0.374E-03   -.525E-21 0.224E-21 0.105E-20   0.926E-04 -.724E-04 -.290E-04
   0.316E-03 -.743E-04 0.890E-04   0.506E-03 0.124E-03 0.136E-03   -.534E-21 -.153E-20 0.721E-21   -.111E-03 -.223E-04 -.208E-04
   0.277E-03 0.340E-05 0.859E-03   0.622E-04 -.272E-04 0.475E-03   0.155E-20 0.138E-20 -.662E-23   -.708E-04 0.412E-04 -.262E-04
   0.131E-02 -.106E-03 -.101E-04   0.997E-03 -.986E-04 0.870E-04   -.370E-21 -.898E-21 0.265E-21   -.113E-03 -.272E-04 -.160E-04
   -.961E-03 0.388E-03 0.773E-03   -.767E-03 0.407E-03 0.533E-03   -.930E-21 -.604E-21 -.706E-21   0.946E-04 -.322E-04 -.213E-04
   0.133E-02 0.147E-02 0.599E-03   0.952E-03 0.710E-03 0.236E-03   0.111E-20 -.438E-21 0.460E-21   -.111E-03 -.520E-04 -.467E-05
   0.819E-03 0.332E-03 0.377E-03   0.838E-03 0.415E-03 0.332E-03   0.295E-21 -.146E-20 -.257E-21   -.136E-03 -.336E-05 0.681E-05
   0.989E-03 -.270E-03 -.449E-03   0.810E-03 -.327E-03 -.446E-03   -.135E-21 -.124E-22 -.946E-21   -.127E-03 -.172E-05 0.191E-04
   0.175E-02 0.853E-03 0.400E-03   0.142E-02 0.715E-03 0.934E-04   0.902E-21 -.141E-20 -.500E-21   -.127E-03 -.704E-04 0.896E-05
   -.156E-02 0.267E-03 0.117E-02   -.117E-02 -.737E-04 0.784E-03   0.284E-21 0.133E-20 0.143E-20   0.135E-03 0.191E-04 -.163E-04
   -.511E-03 -.448E-03 0.408E-03   -.425E-03 -.151E-03 0.260E-03   0.112E-20 0.105E-20 -.261E-20   0.269E-04 -.114E-04 -.684E-05
   -.812E-03 -.136E-03 0.150E-02   -.755E-03 -.999E-04 0.923E-03   0.705E-21 0.104E-20 -.662E-21   0.933E-04 0.429E-04 -.311E-04
   0.342E-03 -.605E-03 -.696E-03   0.197E-03 -.407E-03 -.474E-03   -.127E-20 0.115E-20 0.953E-21   -.787E-04 0.503E-04 0.392E-05
   -.153E-02 0.800E-03 0.207E-03   -.102E-02 0.570E-03 -.152E-04   0.556E-21 0.989E-21 0.223E-21   0.130E-03 0.293E-04 0.195E-04
   -.686E-03 0.709E-04 0.192E-03   -.651E-03 0.174E-03 0.213E-03   -.969E-21 -.946E-21 -.129E-20   0.121E-03 0.348E-04 -.991E-06
   0.694E-03 -.133E-02 -.210E-03   0.754E-03 -.807E-03 -.202E-03   -.325E-21 0.816E-21 0.146E-20   -.130E-03 0.263E-04 -.616E-05
   -.374E-03 0.698E-03 -.109E-03   -.484E-03 0.625E-03 0.103E-03   0.252E-21 -.726E-21 -.857E-21   0.813E-04 -.454E-04 -.230E-04
   -.235E-03 0.768E-03 0.468E-03   -.755E-04 0.510E-03 0.266E-03   0.334E-21 0.361E-21 -.122E-20   -.337E-05 -.705E-04 -.177E-04
   0.330E-03 -.129E-03 -.425E-03   0.416E-03 -.208E-03 -.225E-03   0.774E-21 0.103E-20 0.768E-21   -.779E-04 -.251E-04 -.796E-05
   -.920E-03 0.599E-03 -.352E-03   -.743E-03 0.499E-03 -.408E-03   0.133E-21 -.266E-21 -.189E-21   0.846E-04 -.586E-04 0.123E-04
   -.120E-02 0.739E-04 0.142E-03   -.675E-03 0.193E-04 0.121E-03   0.793E-21 0.111E-20 -.190E-20   0.742E-05 -.218E-04 -.163E-04
   0.828E-03 0.162E-03 0.209E-03   0.572E-03 0.820E-04 -.594E-04   0.293E-21 0.895E-21 -.141E-20   -.124E-03 -.474E-04 -.688E-05
   -.788E-03 -.541E-03 -.382E-03   -.681E-03 -.194E-03 -.108E-03   0.744E-21 0.470E-21 0.192E-21   0.210E-04 0.209E-04 0.236E-04
   0.543E-03 0.160E-03 0.949E-04   0.636E-03 0.103E-04 -.531E-04   0.147E-20 -.554E-22 -.926E-21   -.176E-04 0.119E-04 0.371E-05
   0.656E-03 -.250E-03 -.123E-03   0.560E-03 0.667E-04 -.767E-04   -.134E-20 0.205E-21 -.483E-21   -.818E-04 0.262E-04 -.721E-05
   -.261E-03 0.530E-03 -.309E-03   -.400E-03 0.512E-03 -.221E-03   0.124E-20 -.505E-21 -.926E-22   0.261E-04 -.622E-04 0.128E-04
   0.129E-03 0.125E-02 0.560E-03   0.387E-03 0.739E-03 0.295E-03   0.198E-20 0.260E-21 -.150E-20   -.902E-04 -.583E-04 -.112E-05
   -.163E-02 -.397E-03 -.200E-03   -.116E-02 -.385E-03 -.276E-03   -.524E-21 -.938E-21 -.347E-21   0.108E-03 -.586E-05 0.267E-04
   0.694E-03 0.464E-03 0.638E-03   0.666E-03 0.296E-04 0.538E-03   0.958E-23 -.586E-21 -.205E-21   -.124E-03 0.615E-04 -.195E-04
   -.349E-03 0.785E-03 -.796E-03   -.174E-03 0.576E-03 -.547E-03   -.371E-21 0.281E-22 0.629E-21   0.710E-04 0.411E-05 0.270E-04
   0.378E-03 -.688E-03 0.649E-04   0.401E-03 -.571E-03 -.660E-04   -.174E-21 -.659E-21 -.108E-20   -.665E-05 0.622E-04 0.182E-04
   0.102E-02 -.156E-04 0.154E-03   0.507E-03 0.198E-04 0.269E-04   0.259E-21 -.331E-23 0.107E-20   -.837E-04 0.274E-04 -.199E-04
   0.146E-02 0.695E-03 -.301E-03   0.113E-02 0.241E-03 -.186E-03   0.202E-21 0.926E-22 -.389E-21   -.466E-04 -.212E-04 0.171E-04
   0.863E-03 0.479E-03 -.462E-03   0.607E-03 0.327E-03 -.234E-03   -.690E-21 -.675E-21 -.110E-20   -.299E-04 -.254E-04 0.170E-04
   -.988E-04 0.947E-03 0.524E-03   0.432E-04 0.633E-03 0.279E-03   0.149E-20 -.156E-21 0.344E-21   -.649E-04 -.597E-04 -.671E-05
   0.312E-03 0.292E-03 -.982E-03   0.433E-03 0.157E-03 -.558E-03   -.256E-21 -.180E-20 0.275E-21   -.866E-04 -.423E-04 0.103E-04
   0.166E-02 -.107E-02 -.107E-02   0.108E-02 -.721E-03 -.651E-03   -.569E-21 -.311E-21 -.728E-21   -.106E-03 0.605E-04 0.298E-04
   0.168E-02 0.113E-02 -.390E-03   0.103E-02 0.109E-02 -.339E-04   0.685E-21 -.121E-20 -.130E-20   -.143E-03 -.961E-04 0.837E-05
   -.109E-02 -.615E-03 0.148E-02   -.615E-03 -.477E-03 0.908E-03   -.392E-21 -.188E-20 0.384E-21   0.839E-04 0.588E-04 -.290E-04
   0.844E-04 -.850E-03 -.668E-03   -.172E-03 -.522E-03 -.475E-03   0.345E-21 0.130E-21 -.268E-21   0.838E-04 0.510E-04 0.258E-04
   0.575E-03 0.615E-03 0.790E-03   0.510E-03 0.371E-03 0.633E-03   -.111E-20 -.278E-21 0.246E-20   -.799E-04 -.503E-04 -.258E-04
   0.205E-02 0.294E-03 -.452E-03   0.141E-02 0.342E-03 -.245E-03   -.931E-21 0.628E-21 -.225E-20   -.127E-03 -.594E-04 0.147E-04
   -.291E-03 0.405E-03 -.444E-03   0.746E-04 0.342E-03 -.369E-03   0.665E-21 0.966E-22 -.572E-21   -.722E-04 -.515E-04 0.222E-04
   0.140E-02 -.889E-03 -.804E-03   0.111E-02 -.635E-03 -.408E-03   -.697E-22 -.119E-20 0.529E-21   -.109E-03 0.502E-04 0.244E-04
   0.862E-03 -.839E-03 -.637E-05   0.494E-03 -.400E-03 0.821E-04   0.497E-21 -.157E-20 -.106E-20   -.183E-04 0.201E-04 -.109E-04
   0.724E-03 0.547E-04 -.443E-03   0.234E-03 0.105E-03 -.162E-03   0.355E-21 -.926E-21 -.125E-20   0.723E-04 0.343E-04 0.159E-04
   0.144E-02 -.684E-03 0.764E-03   0.942E-03 -.147E-03 0.712E-03   0.112E-21 0.905E-21 -.496E-22   -.134E-03 0.500E-05 -.308E-04
   0.122E-02 0.153E-02 -.428E-04   0.923E-03 0.964E-03 -.857E-04   -.110E-20 -.706E-21 -.278E-21   -.104E-03 -.558E-04 0.118E-04
   0.480E-03 -.825E-03 -.161E-04   0.203E-03 -.619E-03 0.387E-04   0.334E-21 0.397E-21 0.766E-21   -.677E-05 0.645E-04 0.134E-04
   -.732E-03 -.149E-03 0.848E-03   -.473E-03 0.144E-03 0.560E-03   0.413E-21 0.645E-22 0.771E-21   0.923E-04 -.272E-04 -.255E-04
   0.127E-03 0.311E-03 -.573E-03   0.549E-04 0.379E-03 -.212E-03   0.228E-20 -.893E-21 -.245E-21   -.900E-05 -.632E-04 0.130E-04
   0.548E-04 -.303E-03 0.930E-03   0.283E-03 -.340E-03 0.601E-03   -.416E-21 -.805E-21 0.629E-22   -.872E-04 0.602E-04 -.950E-05
   -.157E-02 0.982E-03 0.599E-03   -.112E-02 0.697E-03 0.376E-03   -.685E-21 0.298E-21 0.295E-21   0.140E-03 -.718E-04 -.173E-04
   0.924E-04 -.141E-03 -.670E-03   -.717E-04 -.777E-04 -.519E-03   -.495E-21 -.419E-21 0.145E-20   0.683E-04 -.445E-04 0.325E-04
   -.237E-03 0.924E-03 0.167E-03   -.157E-03 0.588E-03 0.122E-03   0.208E-21 -.482E-21 0.894E-21   0.841E-04 -.598E-04 -.131E-04
   -.117E-02 0.107E-02 0.684E-03   -.108E-02 0.505E-03 0.590E-03   0.431E-21 -.599E-21 0.224E-20   0.133E-03 0.985E-05 -.390E-04
   0.927E-03 -.156E-02 -.515E-03   0.703E-03 -.133E-02 -.450E-03   0.338E-21 0.101E-20 -.483E-21   -.127E-03 0.964E-04 0.232E-04
   -.253E-02 -.376E-03 -.301E-03   -.150E-02 -.131E-03 -.854E-04   -.202E-21 0.867E-21 0.351E-21   0.111E-03 0.462E-04 0.202E-04
   -.143E-02 0.833E-03 0.480E-03   -.103E-02 0.473E-03 0.384E-03   -.265E-21 0.749E-21 0.397E-21   0.123E-03 -.508E-04 -.835E-05
   0.128E-02 -.178E-03 0.399E-03   0.909E-03 -.770E-04 0.119E-03   0.628E-22 -.165E-20 -.920E-21   -.256E-04 0.222E-04 -.231E-04
   -.407E-03 -.162E-03 0.232E-04   -.115E-03 -.106E-03 0.366E-04   -.194E-20 -.136E-20 0.169E-20   0.441E-05 0.488E-04 0.214E-05
   0.881E-03 0.318E-03 -.750E-03   0.578E-03 0.148E-03 -.286E-03   0.682E-21 0.111E-20 0.483E-21   -.958E-04 -.275E-04 0.221E-05
   -.106E-02 0.594E-03 0.740E-03   -.803E-03 0.265E-03 0.625E-03   -.194E-20 -.349E-21 0.493E-21   0.854E-04 0.182E-04 -.101E-04
   -.173E-02 -.776E-03 -.145E-03   -.114E-02 -.657E-03 0.448E-04   0.596E-21 0.408E-21 0.860E-21   0.882E-04 0.455E-04 -.218E-04
   0.942E-03 0.869E-03 0.515E-03   0.802E-03 0.824E-03 0.427E-03   0.760E-21 -.401E-21 0.199E-22   -.131E-03 -.791E-04 -.979E-05
   0.267E-04 -.330E-03 0.271E-04   0.186E-03 -.340E-03 -.170E-05   -.117E-20 -.114E-20 0.834E-21   0.170E-05 0.634E-04 -.307E-05
   -.130E-04 -.655E-03 -.162E-04   0.682E-04 -.654E-03 -.855E-04   -.433E-21 0.108E-20 0.157E-20   0.774E-04 0.449E-04 -.857E-05
   -.945E-03 0.604E-04 0.570E-03   -.617E-03 -.331E-04 0.347E-03   -.425E-21 0.177E-20 0.182E-20   0.990E-04 0.261E-04 -.388E-05
   -.959E-03 0.138E-04 -.167E-04   -.653E-03 0.825E-04 -.128E-03   0.176E-21 0.166E-21 -.705E-21   0.107E-03 -.263E-04 0.206E-04
 -----------------------------------------------------------------------------------------------
   0.137E-08 0.273E-09 0.170E-08   0.145E-11 0.512E-12 0.148E-11   0.236E-20 0.584E-21 -.156E-19   0.234E-11 0.410E-11 0.466E-11
 
 
 POSITION                                       TOTAL-FORCE (eV/Angst)
 -----------------------------------------------------------------------------------
      4.98141     11.62329     11.62329        -0.000000     -0.000000      0.000000
      6.64188      3.32094      9.96282         0.000000      0.000000     -0.000000
      3.32094      3.32094      3.32094        -0.000000     -0.000000     -0.000000
      8.30235      4.98141      1.66047         0.000000      0.000000      0.000000
     -0.00000     13.28376      9.96282        -0.000000      0.000000      0.000000
      3.32094     13.28376      3.32094        -0.000000      0.000000      0.000000
      1.66047      4.98141      1.66047         0.000000      0.000000      0.000000
      8.30235     11.62329      4.98141         0.000000     -0.000000      0.000000
      9.96282      9.96282     -0.00000        -0.000000      0.000000      0.000000
      6.64188     13.28376     13.28376         0.000000      0.000000     -0.000000
      0.00000      6.64188      3.32094        -0.000000      0.000000     -0.000000
      1.66047      8.30235      1.66047         0.000000     -0.000000     -0.000000
      8.30235      1.66047      4.98141        -0.000000      0.000000      0.000000
      4.98141      1.66047      4.98141         0.000000     -0.000000      0.000000
      6.64188      3.32094     13.28376        -0.000000      0.000000     -0.000000
      6.64188      9.96282     13.28376         0.000000     -0.000000      0.000000
     13.28376      9.96282     13.28376        -0.000000      0.000000     -0.000000
      6.64188      6.64188      6.64188         0.000000     -0.000000     -0.000000
      4.98141      4.98141      1.66047         0.000000      0.000000     -0.000000
      8.30235      1.66047     11.62329         0.000000     -0.000000     -0.000000
      3.32094      3.32094      0.00000        -0.000000     -0.000000     -0.000000
      1.66047     11.62329      8.30235        -0.000000      0.000000     -0.000000
     13.28376      9.96282      3.32094         0.000000     -0.000000     -0.000000
      9.96282     13.28376      6.64188        -0.000000     -0.000000      0.000000
      9.96282     13.28376      9.96282        -0.000000     -0.000000      0.000000
     11.62329      1.66047      4.98141        -0.000000      0.000000     -0.000000
     13.28376     -0.00000     -0.00000         0.000000     -0.000000      0.000000
      3.32094     13.28376     13.28376        -0.000000      0.000000     -0.000000
     11.62329      1.66047     11.62329         0.000000     -0.000000      0.000000
      8.30235      4.98141      8.30235        -0.000000     -0.000000      0.000000
      6.64188      3.32094      3.32094        -0.000000      0.000000     -0.000000
      9.96282      3.32094      6.64188        -0.000000     -0.000000      0.000000
      8.30235      8.30235      8.30235         0.000000      0.000000      0.000000
      1.66047      8.30235      8.30235         0.000000     -0.000000     -0.000000
     13.28376     -0.00000      3.32094        -0.000000     -0.000000      0.000000
      3.32094     13.28376      6.64188        -0.000000      0.000000     -0.000000
     11.62329      8.30235      4.98141        -0.000000     -0.000000      0.000000
      3.32094      9.96282      3.32094        -0.000000     -0.000000     -0.000000
      4.98141      4.98141     11.62329        -0.000000     -0.000000     -0.000000
      3.32094      9.96282      9.96282         0.000000      0.000000     -0.000000
      9.96282      6.64188      6.64188        -0.000000      0.000000      0.000000
     11.62329      1.66047      8.30235        -0.000000      0.000000      0.000000
     11.62329      4.98141     11.62329         0.000000      0.000000     -0.000000
      9.96282      3.32094      3.32094        -0.000000     -0.000000      0.000000
      3.32094     13.28376      9.96282        -0.000000     -0.000000     -0.000000
      1.66047     11.62329      4.98141         0.000000     -0.000000     -0.000000
      3.32094      9.96282      6.64188         0.000000     -0.000000     -0.000000
      1.66047      1.66047      8.30235         0.000000      0.000000     -0.000000
      0.00000      3.32094      3.32094        -0.000000      0.000000     -0.000000
     -0.00000      6.64188     13.28376        -0.000000      0.000000      0.000000
     13.28376      9.96282      6.64188         0.000000     -0.000000      0.000000
      4.98141      8.30235     11.62329         0.000000     -0.000000      0.000000
      6.64188      9.96282      9.96282         0.000000     -0.000000      0.000000
      8.30235      4.98141      4.98141         0.000000     -0.000000     -0.000000
      8.30235     11.62329      1.66047         0.000000      0.000000      0.000000
      1.66047      1.66047      4.98141        -0.000000      0.000000     -0.000000
      3.32094      6.64188      9.96282         0.000000     -0.000000     -0.000000
      3.32094      6.64188      0.00000         0.000000     -0.000000     -0.000000
     13.28376      6.64188      9.96282        -0.000000      0.000000      0.000000
      4.98141     11.62329      1.66047        -0.000000     -0.000000     -0.000000
      9.96282     -0.00000      3.32094         0.000000     -0.000000      0.000000
     11.62329      4.98141      1.66047        -0.000000     -0.000000     -0.000000
      8.30235      8.30235      1.66047        -0.000000      0.000000      0.000000
      4.98141      8.30235      4.98141        -0.000000     -0.000000     -0.000000
      8.30235      8.30235     11.62329         0.000000      0.000000      0.000000
      9.96282      6.64188      9.96282        -0.000000     -0.000000      0.000000
      9.96282     -0.00000     -0.00000        -0.000000     -0.000000     -0.000000
      8.30235     11.62329      8.30235         0.000000     -0.000000      0.000000
      3.32094      6.64188      6.64188         0.000000     -0.000000      0.000000
      0.00000      0.00000      6.64188        -0.000000      0.000000     -0.000000
      1.66047      4.98141      4.98141        -0.000000     -0.000000      0.000000
     11.62329      4.98141      4.98141        -0.000000     -0.000000     -0.000000
      3.32094      3.32094      9.96282         0.000000     -0.000000     -0.000000
      3.32094      3.32094      6.64188         0.000000     -0.000000     -0.000000
      9.96282      6.64188      3.32094        -0.000000     -0.000000     -0.000000
      4.98141      8.30235      1.66047         0.000000      0.000000     -0.000000
      6.64188      9.96282      3.32094        -0.000000     -0.000000      0.000000
     11.62329      8.30235      1.66047        -0.000000     -0.000000      0.000000
      4.98141     11.62329      4.98141        -0.000000     -0.000000      0.000000
      6.64188     13.28376      3.32094        -0.000000     -0.000000      0.000000
      9.96282      9.96282      3.32094        -0.000000     -0.000000      0.000000
      6.64188      6.64188      9.96282        -0.000000      0.000000      0.000000
     13.28376      6.64188      6.64188         0.000000      0.000000      0.000000
     11.62329      1.66047      1.66047        -0.000000     -0.000000      0.000000
     -0.00000      9.96282      9.96282         0.000000     -0.000000     -0.000000
     11.62329      8.30235     11.62329        -0.000000      0.000000      0.000000
      4.98141      8.30235      8.30235         0.000000     -0.000000      0.000000
      9.96282      3.32094     13.28376        -0.000000      0.000000      0.000000
      4.98141      1.66047      8.30235         0.000000      0.000000     -0.000000
     13.28376      3.32094      9.96282         0.000000      0.000000     -0.000000
      8.30235      1.66047      1.66047         0.000000     -0.000000      0.000000
      6.64188     13.28376      9.96282         0.000000      0.000000      0.000000
      6.64188     13.28376      6.64188         0.000000     -0.000000     -0.000000
     11.62329     11.62329      8.30235         0.000000      0.000000     -0.000000
     11.62329     11.62329      1.66047         0.000000     -0.000000     -0.000000
     11.62329      4.98141      8.30235         0.000000      0.000000      0.000000
      9.96282      9.96282      9.96282         0.000000      0.000000      0.000000
      4.98141      4.98141      4.98141        -0.000000      0.000000      0.000000
      1.66047      4.98141     11.62329        -0.000000      0.000000     -0.000000
     11.62329     11.62329      4.98141         0.000000     -0.000000      0.000000
      8.30235     11.62329     11.62329         0.000000      0.000000      0.000000
     11.62329     11.62329     11.62329        -0.000000      0.000000     -0.000000
      8.30235      1.66047      8.30235         0.000000      0.000000      0.000000
      6.64188      6.64188     -0.00000         0.000000      0.000000      0.000000
      1.66047      4.98141      8.30235         0.000000      0.000000      0.000000
      9.96282      6.64188     13.28376         0.000000     -0.000000      0.000000
     11.62329      8.30235      8.30235         0.000000      0.000000      0.000000
      6.64188      3.32094      6.64188        -0.000000      0.000000      0.000000
      1.66047      8.30235      4.98141         0.000000      0.000000      0.000000
      6.64188      9.96282      6.64188         0.000000      0.000000     -0.000000
      8.30235      4.98141     11.62329        -0.000000      0.000000      0.000000
      3.32094      9.96282     13.28376        -0.000000      0.000000     -0.000000
      4.98141     11.62329      8.30235         0.000000      0.000000     -0.000000
      1.66047     11.62329      1.66047        -0.000000      0.000000      0.000000
      3.32094      6.64188      3.32094         0.000000      0.000000     -0.000000
      9.96282      3.32094      9.96282        -0.000000      0.000000      0.000000
      4.98141      4.98141      8.30235        -0.000000     -0.000000     -0.000000
      1.66047     11.62329     11.62329         0.000000      0.000000      0.000000
      6.64188      6.64188      3.32094         0.000000      0.000000      0.000000
     -0.00000      3.32094      6.64188        -0.000000     -0.000000     -0.000000
      8.30235      8.30235      4.98141        -0.000000      0.000000      0.000000
      4.98141      1.66047     11.62329        -0.000000      0.000000     -0.000000
      4.98141      1.66047      1.66047         0.000000      0.000000     -0.000000
      9.96282      9.96282      6.64188        -0.000000     -0.000000      0.000000
     13.28376      3.32094     13.28376         0.000000      0.000000      0.000000
      1.66047      1.66047      1.66047        -0.000000     -0.000000     -0.000000
      1.66047      1.66047     11.62329         0.000000      0.000000     -0.000000
      1.66047      8.30235     11.62329         0.000000      0.000000     -0.000000
 -----------------------------------------------------------------------------------
    total drift:                                0.000000      0.000000      0.000000


--------------------------------------------------------------------------------------------------------



  FREE ENERGIE OF THE ION-ELECTRON SYSTEM (eV)
  ---------------------------------------------------
  free  energy   TOTEN  =     -1036.89715808 eV

  energy  without entropy=    -1037.20156494  energy(sigma->0) =    -1036.99862704
 


--------------------------------------------------------------------------------------------------------


    POTLOK:  cpu time      0.1265: real time      0.0213


--------------------------------------------------------------------------------------------------------




--------------------------------------------------------------------------------------------------------


      MLFF:  cpu time      0.0367: real time      0.0368
    WAVPRE:  cpu time      0.3605: real time      0.1409
    FEWALD:  cpu time      0.1926: real time      0.1715
    GENKIN:  cpu time      0.0064: real time      0.0064
    ORTHCH:  cpu time      0.5427: real time      0.5425
     LOOP+:  cpu time     64.5557: real time     60.1407


--------------------------------------- Ionic step        2  -------------------------------------------




--------------------------------------- Iteration      2(   1)  ---------------------------------------


    POTLOK:  cpu time      0.0076: real time      0.0072
    SETDIJ:  cpu time      0.0831: real time      0.0055
     EDDAV:  cpu time      3.2321: real time      3.1799
       DOS:  cpu time      0.0013: real time      0.0013
    CHARGE:  cpu time      0.4540: real time      0.3034
    MIXING:  cpu time      0.0358: real time      0.0034
    --------------------------------------------
      LOOP:  cpu time      3.8140: real time      3.5008

 eigenvalue-minimisations  :  8192
 total energy-change (2. order) :-0.2090623E+04  (-0.6607161E+04)
 number of electron    1536.0000335 magnetization 
 augmentation part       -7.5204049 magnetization 

 Broyden mixing:
  rms(total) = 0.32080E+02    rms(broyden)= 0.32080E+02
  rms(prec ) = 0.35823E+02
  weight for this iteration     100.00

 Free energy of the ion-electron system (eV)
  ---------------------------------------------------
  alpha Z        PSCENC =      6189.11053643
  Ewald energy   TEWEN  =   -127028.02101352
  -Hartree energ DENC   =    -20324.91637573
  -exchange      EXHF   =         0.00000000
  -V(xc)+E(xc)   XCENC  =      5664.47065461
  PAW double counting   =    256973.83400906  -254186.39597971
  entropy T*S    EENTRO =         1.36868202
  eigenvalues    EBANDS =    -34794.88713315
  atomic energy  EATOM  =    164377.91643804
  Solvation  Ediel_sol  =         0.00000000
  ---------------------------------------------------
  free energy    TOTEN  =     -3127.52018196 eV

  energy without entropy =    -3128.88886397  energy(sigma->0) =    -3127.97640930


--------------------------------------------------------------------------------------------------------




--------------------------------------- Iteration      2(   2)  ---------------------------------------


    POTLOK:  cpu time      0.0352: real time      0.0171
    SETDIJ:  cpu time      0.0857: real time      0.0059
     EDDAV:  cpu time      3.6057: real time      3.5511
       DOS:  cpu time      0.0012: real time      0.0012
    CHARGE:  cpu time      0.4568: real time      0.3011
    MIXING:  cpu time      0.0376: real time      0.0035
    --------------------------------------------
      LOOP:  cpu time      4.2221: real time      3.8799

 eigenvalue-minimisations  :  9348
 total energy-change (2. order) : 0.1982283E+04  (-0.9262021E+03)
 number of electron    1536.0004647 magnetization 
 augmentation part     -177.7865668 magnetization 

 Broyden mixing:
  rms(total) = 0.22102E+02    rms(broyden)= 0.22096E+02
  rms(prec ) = 0.22854E+02
  weight for this iteration     100.00

 eigenvalues of (default mixing * dielectric matrix)
  average eigenvalue GAMMA=   0.7210
  0.7210

 Free energy of the ion-electron system (eV)
  ---------------------------------------------------
  alpha Z        PSCENC =      6189.11053643
  Ewald energy   TEWEN  =   -127028.02101352
  -Hartree energ DENC   =    -28759.64029495
  -exchange      EXHF   =         0.00000000
  -V(xc)+E(xc)   XCENC  =      6114.34173553
  PAW double counting   =    271811.13921875  -267646.24905042
  entropy T*S    EENTRO =         0.63115315
  eigenvalues    EBANDS =    -26204.46590680
  atomic energy  EATOM  =    164377.91643804
  Solvation  Ediel_sol  =         0.00000000
  ---------------------------------------------------
  free energy    TOTEN  =     -1145.23718380 eV

  energy without entropy =    -1145.86833696  energy(sigma->0) =    -1145.44756819


--------------------------------------------------------------------------------------------------------




--------------------------------------- Iteration      2(   3)  ---------------------------------------


    POTLOK:  cpu time      0.0388: real time      0.0121
    SETDIJ:  cpu time      0.0839: real time      0.0055
     EDDAV:  cpu time      3.5717: real time      3.5171
       DOS:  cpu time      0.0013: real time      0.0013
    CHARGE:  cpu time      0.4610: real time      0.3043
    MIXING:  cpu time      0.0438: real time      0.0037
    --------------------------------------------
      LOOP:  cpu time      4.2006: real time      3.8441

 eigenvalue-minimisations  :  9304
 total energy-change (2. order) : 0.2234899E+03  (-0.1385472E+03)
 number of electron    1536.0002183 magnetization 
 augmentation part      -83.4201295 magnetization 

 Broyden mixing:
  rms(total) = 0.10527E+02    rms(broyden)= 0.10522E+02
  rms(prec ) = 0.10626E+02
  weight for this iteration     100.00

 eigenvalues of (default mixing * dielectric matrix)
  average eigenvalue GAMMA=   1.0989
  1.0989  1.0989

 Free energy of the ion-electron system (eV)
  ---------------------------------------------------
  alpha Z        PSCENC =      6189.11053643
  Ewald energy   TEWEN  =   -127028.02101352
  -Hartree energ DENC   =    -31208.75127817
  -exchange      EXHF   =         0.00000000
  -V(xc)+E(xc)   XCENC  =      6241.15854317
  PAW double counting   =    234934.72064254  -230231.43457368
  entropy T*S    EENTRO =        -0.03008138
  eigenvalues    EBANDS =    -24196.41648666
  atomic energy  EATOM  =    164377.91643804
  Solvation  Ediel_sol  =         0.00000000
  ---------------------------------------------------
  free energy    TOTEN  =      -921.74727322 eV

  energy without entropy =     -921.71719184  energy(sigma->0) =     -921.73724610


--------------------------------------------------------------------------------------------------------




--------------------------------------- Iteration      2(   4)  ---------------------------------------


    POTLOK:  cpu time      0.0361: real time      0.0137
    SETDIJ:  cpu time      0.0820: real time      0.0055
     EDDAV:  cpu time      3.5265: real time      3.4723
       DOS:  cpu time      0.0013: real time      0.0013
    CHARGE:  cpu time      0.4578: real time      0.3009
    MIXING:  cpu time      0.0452: real time      0.0039
    --------------------------------------------
      LOOP:  cpu time      4.1490: real time      3.7976

 eigenvalue-minimisations  :  9216
 total energy-change (2. order) :-0.5566291E+02  (-0.4612982E+02)
 number of electron    1536.0000390 magnetization 
 augmentation part      -14.4128256 magnetization 

 Broyden mixing:
  rms(total) = 0.51447E+01    rms(broyden)= 0.51320E+01
  rms(prec ) = 0.51745E+01
  weight for this iteration     100.00

 eigenvalues of (default mixing * dielectric matrix)
  average eigenvalue GAMMA=   1.7925
  2.8470  1.0528  1.4778

 Free energy of the ion-electron system (eV)
  ---------------------------------------------------
  alpha Z        PSCENC =      6189.11053643
  Ewald energy   TEWEN  =   -127028.02101352
  -Hartree energ DENC   =    -31580.60257488
  -exchange      EXHF   =         0.00000000
  -V(xc)+E(xc)   XCENC  =      6261.32277971
  PAW double counting   =    199469.19718667  -195334.84368651
  entropy T*S    EENTRO =         0.03721823
  eigenvalues    EBANDS =    -23331.52707027
  atomic energy  EATOM  =    164377.91643804
  Solvation  Ediel_sol  =         0.00000000
  ---------------------------------------------------
  free energy    TOTEN  =      -977.41018611 eV

  energy without entropy =     -977.44740434  energy(sigma->0) =     -977.42259219


--------------------------------------------------------------------------------------------------------




--------------------------------------- Iteration      2(   5)  ---------------------------------------


    POTLOK:  cpu time      0.0410: real time      0.0221
    SETDIJ:  cpu time      0.0824: real time      0.0055
     EDDAV:  cpu time      3.6502: real time      3.5949
       DOS:  cpu time      0.0013: real time      0.0013
    CHARGE:  cpu time      0.4551: real time      0.3036
    MIXING:  cpu time      0.0491: real time      0.0041
    --------------------------------------------
      LOOP:  cpu time      4.2791: real time      3.9315

 eigenvalue-minimisations  :  9600
 total energy-change (2. order) :-0.6907777E+02  (-0.2034110E+02)
 number of electron    1535.9999190 magnetization 
 augmentation part       31.8103687 magnetization 

 Broyden mixing:
  rms(total) = 0.70876E+00    rms(broyden)= 0.66965E+00
  rms(prec ) = 0.72761E+00
  weight for this iteration     100.00

 eigenvalues of (default mixing * dielectric matrix)
  average eigenvalue GAMMA=   1.5770
  2.7981  0.9848  1.2626  1.2626

 Free energy of the ion-electron system (eV)
  ---------------------------------------------------
  alpha Z        PSCENC =      6189.11053643
  Ewald energy   TEWEN  =   -127028.02101352
  -Hartree energ DENC   =    -29972.59864555
  -exchange      EXHF   =         0.00000000
  -V(xc)+E(xc)   XCENC  =      6184.80009676
  PAW double counting   =    151520.02328994  -149230.05953018
  entropy T*S    EENTRO =         0.06747824
  eigenvalues    EBANDS =    -23087.72660414
  atomic energy  EATOM  =    164377.91643804
  Solvation  Ediel_sol  =         0.00000000
  ---------------------------------------------------
  free energy    TOTEN  =     -1046.48795397 eV

  energy without entropy =    -1046.55543221  energy(sigma->0) =    -1046.51044672


--------------------------------------------------------------------------------------------------------




--------------------------------------- Iteration      2(   6)  ---------------------------------------


    POTLOK:  cpu time      0.0390: real time      0.0155
    SETDIJ:  cpu time      0.0826: real time      0.0056
     EDDAV:  cpu time      3.1171: real time      3.0653
       DOS:  cpu time      0.0013: real time      0.0013
    CHARGE:  cpu time      0.4522: real time      0.3011
    MIXING:  cpu time      0.0545: real time      0.0045
    --------------------------------------------
      LOOP:  cpu time      3.7468: real time      3.3933

 eigenvalue-minimisations  :  7864
 total energy-change (2. order) :-0.1459926E+01  (-0.4032302E+00)
 number of electron    1535.9999206 magnetization 
 augmentation part       31.1349642 magnetization 

 Broyden mixing:
  rms(total) = 0.31186E+00    rms(broyden)= 0.30917E+00
  rms(prec ) = 0.31888E+00
  weight for this iteration     100.00

 eigenvalues of (default mixing * dielectric matrix)
  average eigenvalue GAMMA=   1.4868
  2.2984  1.0106  1.0106  1.6352  1.4791

 Free energy of the ion-electron system (eV)
  ---------------------------------------------------
  alpha Z        PSCENC =      6189.11053643
  Ewald energy   TEWEN  =   -127028.02101352
  -Hartree energ DENC   =    -30186.49363470
  -exchange      EXHF   =         0.00000000
  -V(xc)+E(xc)   XCENC  =      6195.45858664
  PAW double counting   =    151801.79182803  -149423.06012591
  entropy T*S    EENTRO =         0.08561623
  eigenvalues    EBANDS =    -22974.73611152
  atomic energy  EATOM  =    164377.91643804
  Solvation  Ediel_sol  =         0.00000000
  ---------------------------------------------------
  free energy    TOTEN  =     -1047.94788028 eV

  energy without entropy =    -1048.03349651  energy(sigma->0) =    -1047.97641903


--------------------------------------------------------------------------------------------------------




--------------------------------------- Iteration      2(   7)  ---------------------------------------


    POTLOK:  cpu time      0.0377: real time      0.0163
    SETDIJ:  cpu time      0.0861: real time      0.0057
     EDDAV:  cpu time      3.6467: real time      3.5916
       DOS:  cpu time      0.0014: real time      0.0013
    CHARGE:  cpu time      0.4555: real time      0.3031
    MIXING:  cpu time      0.0586: real time      0.0048
    --------------------------------------------
      LOOP:  cpu time      4.2860: real time      3.9228

 eigenvalue-minimisations  :  9608
 total energy-change (2. order) :-0.3509391E+00  (-0.4719587E-01)
 number of electron    1535.9999238 magnetization 
 augmentation part       29.8614816 magnetization 

 Broyden mixing:
  rms(total) = 0.13866E+00    rms(broyden)= 0.13864E+00
  rms(prec ) = 0.14576E+00
  weight for this iteration     100.00

 eigenvalues of (default mixing * dielectric matrix)
  average eigenvalue GAMMA=   1.8256
  3.8473  2.4486  1.3258  1.3258  0.9890  1.0172

 Free energy of the ion-electron system (eV)
  ---------------------------------------------------
  alpha Z        PSCENC =      6189.11053643
  Ewald energy   TEWEN  =   -127028.02101352
  -Hartree energ DENC   =    -30335.08773990
  -exchange      EXHF   =         0.00000000
  -V(xc)+E(xc)   XCENC  =      6202.56294990
  PAW double counting   =    154609.05860715  -152111.86103249
  entropy T*S    EENTRO =         0.08924453
  eigenvalues    EBANDS =    -22952.06680950
  atomic energy  EATOM  =    164377.91643804
  Solvation  Ediel_sol  =         0.00000000
  ---------------------------------------------------
  free energy    TOTEN  =     -1048.29881936 eV

  energy without entropy =    -1048.38806389  energy(sigma->0) =    -1048.32856754


--------------------------------------------------------------------------------------------------------




--------------------------------------- Iteration      2(   8)  ---------------------------------------


    POTLOK:  cpu time      0.0364: real time      0.0199
    SETDIJ:  cpu time      0.0833: real time      0.0055
     EDDAV:  cpu time      3.4826: real time      3.4285
       DOS:  cpu time      0.0013: real time      0.0013
    CHARGE:  cpu time      0.4627: real time      0.3043
    MIXING:  cpu time      0.0645: real time      0.0052
    --------------------------------------------
      LOOP:  cpu time      4.1307: real time      3.7648

 eigenvalue-minimisations  :  9080
 total energy-change (2. order) :-0.7047692E-02  (-0.3571092E-02)
 number of electron    1535.9999245 magnetization 
 augmentation part       29.5843604 magnetization 

 Broyden mixing:
  rms(total) = 0.79927E-01    rms(broyden)= 0.79924E-01
  rms(prec ) = 0.83240E-01
  weight for this iteration     100.00

 eigenvalues of (default mixing * dielectric matrix)
  average eigenvalue GAMMA=   1.5426
  2.3419  2.3419  1.5586  0.9325  1.2659  1.2659  1.0918

 Free energy of the ion-electron system (eV)
  ---------------------------------------------------
  alpha Z        PSCENC =      6189.11053643
  Ewald energy   TEWEN  =   -127028.02101352
  -Hartree energ DENC   =    -30288.55558085
  -exchange      EXHF   =         0.00000000
  -V(xc)+E(xc)   XCENC  =      6200.54167058
  PAW double counting   =    154187.38507761  -151738.11755865
  entropy T*S    EENTRO =         0.08971014
  eigenvalues    EBANDS =    -22948.65514683
  atomic energy  EATOM  =    164377.91643804
  Solvation  Ediel_sol  =         0.00000000
  ---------------------------------------------------
  free energy    TOTEN  =     -1048.30586705 eV

  energy without entropy =    -1048.39557719  energy(sigma->0) =    -1048.33577043


--------------------------------------------------------------------------------------------------------




--------------------------------------- Iteration      2(   9)  ---------------------------------------


    POTLOK:  cpu time      0.0389: real time      0.0145
    SETDIJ:  cpu time      0.0801: real time      0.0050
     EDDAV:  cpu time      3.3854: real time      3.3318
       DOS:  cpu time      0.0014: real time      0.0014
    CHARGE:  cpu time      0.4540: real time      0.3020
    MIXING:  cpu time      0.0648: real time      0.0053
    --------------------------------------------
      LOOP:  cpu time      4.0247: real time      3.6600

 eigenvalue-minimisations  :  8728
 total energy-change (2. order) : 0.2870361E-02  (-0.2902369E-03)
 number of electron    1535.9999244 magnetization 
 augmentation part       29.6358063 magnetization 

 Broyden mixing:
  rms(total) = 0.15788E-01    rms(broyden)= 0.15786E-01
  rms(prec ) = 0.16363E-01
  weight for this iteration     100.00

 eigenvalues of (default mixing * dielectric matrix)
  average eigenvalue GAMMA=   1.5795
  2.4428  2.4428  2.3110  1.2711  1.2711  1.0784  0.9094  0.9094

 Free energy of the ion-electron system (eV)
  ---------------------------------------------------
  alpha Z        PSCENC =      6189.11053643
  Ewald energy   TEWEN  =   -127028.02101352
  -Hartree energ DENC   =    -30300.39799194
  -exchange      EXHF   =         0.00000000
  -V(xc)+E(xc)   XCENC  =      6201.04243492
  PAW double counting   =    154252.33162007  -151789.58412269
  entropy T*S    EENTRO =         0.08937376
  eigenvalues    EBANDS =    -22950.79027175
  atomic energy  EATOM  =    164377.91643804
  Solvation  Ediel_sol  =         0.00000000
  ---------------------------------------------------
  free energy    TOTEN  =     -1048.30299669 eV

  energy without entropy =    -1048.39237045  energy(sigma->0) =    -1048.33278794


--------------------------------------------------------------------------------------------------------




--------------------------------------- Iteration      2(  10)  ---------------------------------------


    POTLOK:  cpu time      0.0364: real time      0.0234
    SETDIJ:  cpu time      0.0819: real time      0.0055
     EDDAV:  cpu time      3.7139: real time      3.6582
       DOS:  cpu time      0.0013: real time      0.0013
    CHARGE:  cpu time      0.4540: real time      0.3034
    MIXING:  cpu time      0.0630: real time      0.0057
    --------------------------------------------
      LOOP:  cpu time      4.3505: real time      3.9976

 eigenvalue-minimisations  :  9824
 total energy-change (2. order) : 0.1994661E-04  (-0.4126868E-04)
 number of electron    1535.9999243 magnetization 
 augmentation part       29.6889383 magnetization 

 Broyden mixing:
  rms(total) = 0.16706E-02    rms(broyden)= 0.16549E-02
  rms(prec ) = 0.17178E-02
  weight for this iteration     100.00

 eigenvalues of (default mixing * dielectric matrix)
  average eigenvalue GAMMA=   1.6210
  3.2841  2.4065  2.0092  1.5132  1.2474  1.2474  1.0608  0.9102  0.9102

 Free energy of the ion-electron system (eV)
  ---------------------------------------------------
  alpha Z        PSCENC =      6189.11053643
  Ewald energy   TEWEN  =   -127028.02101352
  -Hartree energ DENC   =    -30303.14800681
  -exchange      EXHF   =         0.00000000
  -V(xc)+E(xc)   XCENC  =      6201.16897821
  PAW double counting   =    154261.78140522  -151796.14094043
  entropy T*S    EENTRO =         0.08934008
  eigenvalues    EBANDS =    -22951.05971397
  atomic energy  EATOM  =    164377.91643804
  Solvation  Ediel_sol  =         0.00000000
  ---------------------------------------------------
  free energy    TOTEN  =     -1048.30297674 eV

  energy without entropy =    -1048.39231682  energy(sigma->0) =    -1048.33275677


--------------------------------------------------------------------------------------------------------




--------------------------------------- Iteration      2(  11)  ---------------------------------------


    POTLOK:  cpu time      0.0379: real time      0.0115
    SETDIJ:  cpu time      0.0813: real time      0.0054
     EDDAV:  cpu time      2.6773: real time      2.6284
       DOS:  cpu time      0.0013: real time      0.0013
    CHARGE:  cpu time      0.4625: real time      0.3022
    MIXING:  cpu time      0.0658: real time      0.0060
    --------------------------------------------
      LOOP:  cpu time      3.3260: real time      2.9548

 eigenvalue-minimisations  :  6296
 total energy-change (2. order) : 0.2246368E-04  (-0.1325767E-05)
 number of electron    1535.9999242 magnetization 
 augmentation part       29.6939629 magnetization 

 Broyden mixing:
  rms(total) = 0.57580E-03    rms(broyden)= 0.57304E-03
  rms(prec ) = 0.58614E-03
  weight for this iteration     100.00

 eigenvalues of (default mixing * dielectric matrix)
  average eigenvalue GAMMA=   1.6369
  3.1769  2.4421  2.4421  1.7565  1.2471  1.1830  1.1830  0.9431  0.9975  0.9975

 Free energy of the ion-electron system (eV)
  ---------------------------------------------------
  alpha Z        PSCENC =      6189.11053643
  Ewald energy   TEWEN  =   -127028.02101352
  -Hartree energ DENC   =    -30302.87690218
  -exchange      EXHF   =         0.00000000
  -V(xc)+E(xc)   XCENC  =      6201.15772868
  PAW double counting   =    154256.12467176  -151790.67906054
  entropy T*S    EENTRO =         0.08933070
  eigenvalues    EBANDS =    -22951.12468365
  atomic energy  EATOM  =    164377.91643804
  Solvation  Ediel_sol  =         0.00000000
  ---------------------------------------------------
  free energy    TOTEN  =     -1048.30295428 eV

  energy without entropy =    -1048.39228498  energy(sigma->0) =    -1048.33273118


--------------------------------------------------------------------------------------------------------




--------------------------------------- Iteration      2(  12)  ---------------------------------------


    POTLOK:  cpu time      0.0362: real time      0.0139
    SETDIJ:  cpu time      0.0820: real time      0.0056
     EDDAV:  cpu time      2.3173: real time      2.2708
       DOS:  cpu time      0.0013: real time      0.0013
    CHARGE:  cpu time      0.4497: real time      0.3024
    MIXING:  cpu time      0.0650: real time      0.0071
    --------------------------------------------
      LOOP:  cpu time      2.9516: real time      2.6012

 eigenvalue-minimisations  :  5056
 total energy-change (2. order) : 0.2020337E-04  (-0.4317881E-06)
 number of electron    1535.9999242 magnetization 
 augmentation part       29.6996896 magnetization 

 Broyden mixing:
  rms(total) = 0.27889E-03    rms(broyden)= 0.27680E-03
  rms(prec ) = 0.28104E-03
  weight for this iteration     100.00

 eigenvalues of (default mixing * dielectric matrix)
  average eigenvalue GAMMA=   1.6200
  2.7266  2.7266  2.3137  2.3137  1.3278  1.2103  1.2103  1.0686  0.9798  0.9798
  0.9624

 Free energy of the ion-electron system (eV)
  ---------------------------------------------------
  alpha Z        PSCENC =      6189.11053643
  Ewald energy   TEWEN  =   -127028.02101352
  -Hartree energ DENC   =    -30302.69090787
  -exchange      EXHF   =         0.00000000
  -V(xc)+E(xc)   XCENC  =      6201.14894757
  PAW double counting   =    154251.13879516  -151785.83588517
  entropy T*S    EENTRO =         0.08932809
  eigenvalues    EBANDS =    -22951.15917282
  atomic energy  EATOM  =    164377.91643804
  Solvation  Ediel_sol  =         0.00000000
  ---------------------------------------------------
  free energy    TOTEN  =     -1048.30293408 eV

  energy without entropy =    -1048.39226217  energy(sigma->0) =    -1048.33271011


--------------------------------------------------------------------------------------------------------




--------------------------------------- Iteration      2(  13)  ---------------------------------------


    POTLOK:  cpu time      0.0411: real time      0.0193
    SETDIJ:  cpu time      0.0833: real time      0.0052
     EDDAV:  cpu time      2.0139: real time      1.9696
       DOS:  cpu time      0.0014: real time      0.0014
    CHARGE:  cpu time      0.4485: real time      0.3030
    MIXING:  cpu time      0.0655: real time      0.0073
    --------------------------------------------
      LOOP:  cpu time      2.6537: real time      2.3058

 eigenvalue-minimisations  :  4024
 total energy-change (2. order) :-0.2749526E-05  (-0.2723400E-07)
 number of electron    1535.9999242 magnetization 
 augmentation part       29.6993725 magnetization 

 Broyden mixing:
  rms(total) = 0.10287E-03    rms(broyden)= 0.10275E-03
  rms(prec ) = 0.10734E-03
  weight for this iteration     100.00

 eigenvalues of (default mixing * dielectric matrix)
  average eigenvalue GAMMA=   1.5579
  2.7579  2.7579  2.3253  2.3253  1.3478  1.2329  1.2329  1.0944  0.9553  0.9768
  0.9768  0.7113

 Free energy of the ion-electron system (eV)
  ---------------------------------------------------
  alpha Z        PSCENC =      6189.11053643
  Ewald energy   TEWEN  =   -127028.02101352
  -Hartree energ DENC   =    -30302.71570617
  -exchange      EXHF   =         0.00000000
  -V(xc)+E(xc)   XCENC  =      6201.15020908
  PAW double counting   =    154252.27862956  -151786.96415192
  entropy T*S    EENTRO =         0.08933018
  eigenvalues    EBANDS =    -22951.14720850
  atomic energy  EATOM  =    164377.91643804
  Solvation  Ediel_sol  =         0.00000000
  ---------------------------------------------------
  free energy    TOTEN  =     -1048.30293683 eV

  energy without entropy =    -1048.39226700  energy(sigma->0) =    -1048.33271355


--------------------------------------------------------------------------------------------------------




--------------------------------------- Iteration      2(  14)  ---------------------------------------


    POTLOK:  cpu time      0.0413: real time      0.0134
    SETDIJ:  cpu time      0.0832: real time      0.0052
     EDDAV:  cpu time      1.9919: real time      1.9479
       DOS:  cpu time      0.0013: real time      0.0013
    --------------------------------------------
      LOOP:  cpu time      2.1179: real time      1.9681

 eigenvalue-minimisations  :  3944
 total energy-change (2. order) : 0.2688903E-06  (-0.1172698E-07)
 number of electron    1535.9999242 magnetization 
 augmentation part       29.6993725 magnetization 

 Free energy of the ion-electron system (eV)
  ---------------------------------------------------
  alpha Z        PSCENC =      6189.11053643
  Ewald energy   TEWEN  =   -127028.02101352
  -Hartree energ DENC   =    -30302.70095792
  -exchange      EXHF   =         0.00000000
  -V(xc)+E(xc)   XCENC  =      6201.14955673
  PAW double counting   =    154252.28405165  -151786.98323732
  entropy T*S    EENTRO =         0.08932996
  eigenvalues    EBANDS =    -22951.14764062
  atomic energy  EATOM  =    164377.91643804
  Solvation  Ediel_sol  =         0.00000000
  ---------------------------------------------------
  free energy    TOTEN  =     -1048.30293656 eV

  energy without entropy =    -1048.39226652  energy(sigma->0) =    -1048.33271321


--------------------------------------------------------------------------------------------------------




 average (electrostatic) potential at core
  the test charge radii are     1.0638
  (the norm of the test charge is              1.0000)
       1 -76.7624       2 -76.7623       3 -76.7622       4 -76.7623       5 -76.7620
       6 -76.7621       7 -76.7622       8 -76.7623       9 -76.7622      10 -76.7623
      11 -76.7621      12 -76.7622      13 -76.7622      14 -76.7622      15 -76.7623
      16 -76.7624      17 -76.7621      18 -76.7624      19 -76.7624      20 -76.7623
      21 -76.7622      22 -76.7621      23 -76.7621      24 -76.7621      25 -76.7620
      26 -76.7621      27 -76.7620      28 -76.7621      29 -76.7621      30 -76.7624
      31 -76.7623      32 -76.7621      33 -76.7624      34 -76.7621      35 -76.7621
      36 -76.7622      37 -76.7622      38 -76.7622      39 -76.7623      40 -76.7623
      41 -76.7623      42 -76.7620      43 -76.7622      44 -76.7621      45 -76.7623
      46 -76.7621      47 -76.7622      48 -76.7621      49 -76.7621      50 -76.7622
      51 -76.7621      52 -76.7624      53 -76.7624      54 -76.7623      55 -76.7623
      56 -76.7621      57 -76.7622      58 -76.7623      59 -76.7622      60 -76.7622
      61 -76.7622      62 -76.7621      63 -76.7623      64 -76.7623      65 -76.7624
      66 -76.7624      67 -76.7622      68 -76.7622      69 -76.7622      70 -76.7620
      71 -76.7622      72 -76.7621      73 -76.7622      74 -76.7622      75 -76.7622
      76 -76.7624      77 -76.7624      78 -76.7622      79 -76.7622      80 -76.7623
      81 -76.7622      82 -76.7624      83 -76.7621      84 -76.7621      85 -76.7621
      86 -76.7622      87 -76.7623      88 -76.7622      89 -76.7623      90 -76.7621
      91 -76.7623      92 -76.7623      93 -76.7623      94 -76.7620      95 -76.7621
      96 -76.7622      97 -76.7622      98 -76.7624      99 -76.7622     100 -76.7621
     101 -76.7622     102 -76.7620     103 -76.7622     104 -76.7624     105 -76.7621
     106 -76.7622     107 -76.7622     108 -76.7623     109 -76.7621     110 -76.7623
     111 -76.7624     112 -76.7623     113 -76.7624     114 -76.7621     115 -76.7624
     116 -76.7622     117 -76.7623     118 -76.7621     119 -76.7624     120 -76.7621
     121 -76.7623     122 -76.7623     123 -76.7622     124 -76.7622     125 -76.7621
     126 -76.7621     127 -76.7621     128 -76.7622
 
 
 
 E-fermi :   7.0330     XC(G=0): -10.3493     alpha+bet :-13.5042

 val. band max:        7.0209771790   @ k =   0.0000   0.0000   0.0000
 cond. band min:       7.0409085000   @ k =   0.0000   0.0000   0.0000
 fundamental gap:      0.0199313210
 Fermi energy:         7.0329731531

 k-point     1 :       0.0000    0.0000    0.0000
  band No.  band energies     occupation 
      1     -41.8451      2.00000
      2     -41.8254      2.00000
      3     -41.8254      2.00000
      4     -41.8254      2.00000
      5     -41.8254      2.00000
      6     -41.8254      2.00000
      7     -41.8254      2.00000
      8     -41.8098      2.00000
      9     -41.8098      2.00000
     10     -41.8097      2.00000
     11     -41.8097      2.00000
     12     -41.8097      2.00000
     13     -41.8097      2.00000
     14     -41.8097      2.00000
     15     -41.8097      2.00000
     16     -41.8097      2.00000
     17     -41.8097      2.00000
     18     -41.8097      2.00000
     19     -41.8097      2.00000
     20     -41.7972      2.00000
     21     -41.7972      2.00000
     22     -41.7972      2.00000
     23     -41.7972      2.00000
     24     -41.7972      2.00000
     25     -41.7972      2.00000
     26     -41.7972      2.00000
     27     -41.7972      2.00000
     28     -41.7774      2.00000
     29     -41.7774      2.00000
     30     -41.7774      2.00000
     31     -41.7774      2.00000
     32     -41.7774      2.00000
     33     -41.7774      2.00000
     34     -41.7746      2.00000
     35     -41.7746      2.00000
     36     -41.7746      2.00000
     37     -41.7746      2.00000
     38     -41.7746      2.00000
     39     -41.7746      2.00000
     40     -41.7746      2.00000
     41     -41.7746      2.00000
     42     -41.7746      2.00000
     43     -41.7746      2.00000
     44     -41.7746      2.00000
     45     -41.7746      2.00000
     46     -41.7746      2.00000
     47     -41.7746      2.00000
     48     -41.7746      2.00000
     49     -41.7746      2.00000
     50     -41.7746      2.00000
     51     -41.7746      2.00000
     52     -41.7746      2.00000
     53     -41.7746      2.00000
     54     -41.7746      2.00000
     55     -41.7746      2.00000
     56     -41.7746      2.00000
     57     -41.7746      2.00000
     58     -41.7723      2.00000
     59     -41.7723      2.00000
     60     -41.7723      2.00000
     61     -41.7723      2.00000
     62     -41.7723      2.00000
     63     -41.7723      2.00000
     64     -41.7722      2.00000
     65     -41.7722      2.00000
     66     -41.7722      2.00000
     67     -41.7722      2.00000
     68     -41.7722      2.00000
     69     -41.7722      2.00000
     70     -41.7722      2.00000
     71     -41.7722      2.00000
     72     -41.7722      2.00000
     73     -41.7722      2.00000
     74     -41.7722      2.00000
     75     -41.7722      2.00000
     76     -41.7722      2.00000
     77     -41.7722      2.00000
     78     -41.7722      2.00000
     79     -41.7722      2.00000
     80     -41.7722      2.00000
     81     -41.7722      2.00000
     82     -41.7722      2.00000
     83     -41.7722      2.00000
     84     -41.7722      2.00000
     85     -41.7722      2.00000
     86     -41.7722      2.00000
     87     -41.7722      2.00000
     88     -41.7698      2.00000
     89     -41.7698      2.00000
     90     -41.7698      2.00000
     91     -41.7698      2.00000
     92     -41.7698      2.00000
     93     -41.7698      2.00000
     94     -41.7698      2.00000
     95     -41.7698      2.00000
     96     -41.7698      2.00000
     97     -41.7698      2.00000
     98     -41.7698      2.00000
     99     -41.7697      2.00000
    100     -41.7672      2.00000
    101     -41.7672      2.00000
    102     -41.7514      2.00000
    103     -41.7514      2.00000
    104     -41.7514      2.00000
    105     -41.7514      2.00000
    106     -41.7514      2.00000
    107     -41.7514      2.00000
    108     -41.7514      2.00000
    109     -41.7514      2.00000
    110     -41.7446      2.00000
    111     -41.7446      2.00000
    112     -41.7446      2.00000
    113     -41.7446      2.00000
    114     -41.7446      2.00000
    115     -41.7446      2.00000
    116     -41.7446      2.00000
    117     -41.7446      2.00000
    118     -41.7446      2.00000
    119     -41.7446      2.00000
    120     -41.7446      2.00000
    121     -41.7446      2.00000
    122     -41.7335      2.00000
    123     -41.7335      2.00000
    124     -41.7335      2.00000
    125     -41.7334      2.00000
    126     -41.7334      2.00000
    127     -41.7334      2.00000
    128     -41.7169      2.00000
    129     -20.1114      2.00000
    130     -20.1114      2.00000
    131     -20.1114      2.00000
    132     -20.1114      2.00000
    133     -20.1114      2.00000
    134     -20.1114      2.00000
    135     -20.0306      2.00000
    136     -20.0306      2.00000
    137     -20.0306      2.00000
    138     -20.0306      2.00000
    139     -20.0305      2.00000
    140     -20.0305      2.00000
    141     -20.0305      2.00000
    142     -20.0305      2.00000
    143     -20.0305      2.00000
    144     -20.0305      2.00000
    145     -20.0305      2.00000
    146     -20.0305      2.00000
    147     -20.0291      2.00000
    148     -20.0291      2.00000
    149     -20.0291      2.00000
    150     -20.0291      2.00000
    151     -20.0291      2.00000
    152     -20.0291      2.00000
    153     -20.0291      2.00000
    154     -20.0291      2.00000
    155     -20.0291      2.00000
    156     -20.0291      2.00000
    157     -20.0291      2.00000
    158     -20.0291      2.00000
    159     -20.0145      2.00000
    160     -20.0145      2.00000
    161     -20.0145      2.00000
    162     -20.0145      2.00000
    163     -20.0145      2.00000
    164     -20.0145      2.00000
    165     -20.0145      2.00000
    166     -20.0145      2.00000
    167     -20.0145      2.00000
    168     -20.0145      2.00000
    169     -20.0145      2.00000
    170     -20.0145      2.00000
    171     -20.0145      2.00000
    172     -20.0145      2.00000
    173     -20.0145      2.00000
    174     -20.0145      2.00000
    175     -20.0144      2.00000
    176     -20.0144      2.00000
    177     -20.0144      2.00000
    178     -20.0144      2.00000
    179     -20.0144      2.00000
    180     -20.0144      2.00000
    181     -20.0144      2.00000
    182     -20.0144      2.00000
    183     -20.0103      2.00000
    184     -20.0103      2.00000
    185     -20.0103      2.00000
    186     -20.0103      2.00000
    187     -20.0102      2.00000
    188     -20.0102      2.00000
    189     -20.0102      2.00000
    190     -20.0102      2.00000
    191     -20.0102      2.00000
    192     -20.0102      2.00000
    193     -20.0102      2.00000
    194     -20.0102      2.00000
    195     -20.0102      2.00000
    196     -20.0102      2.00000
    197     -20.0102      2.00000
    198     -20.0102      2.00000
    199     -20.0102      2.00000
    200     -20.0102      2.00000
    201     -20.0102      2.00000
    202     -20.0102      2.00000
    203     -20.0102      2.00000
    204     -20.0102      2.00000
    205     -20.0102      2.00000
    206     -20.0102      2.00000
    207     -19.9592      2.00000
    208     -19.9592      2.00000
    209     -19.9592      2.00000
    210     -19.9592      2.00000
    211     -19.9592      2.00000
    212     -19.9592      2.00000
    213     -19.9592      2.00000
    214     -19.9592      2.00000
    215     -19.9592      2.00000
    216     -19.9592      2.00000
    217     -19.9592      2.00000
    218     -19.9592      2.00000
    219     -19.9592      2.00000
    220     -19.9592      2.00000
    221     -19.9592      2.00000
    222     -19.9592      2.00000
    223     -19.9482      2.00000
    224     -19.9482      2.00000
    225     -19.9482      2.00000
    226     -19.9385      2.00000
    227     -19.9385      2.00000
    228     -19.9385      2.00000
    229     -19.9385      2.00000
    230     -19.9385      2.00000
    231     -19.9385      2.00000
    232     -19.9210      2.00000
    233     -19.9210      2.00000
    234     -19.9210      2.00000
    235     -19.9210      2.00000
    236     -19.9210      2.00000
    237     -19.9210      2.00000
    238     -19.9210      2.00000
    239     -19.9210      2.00000
    240     -19.8884      2.00000
    241     -19.8884      2.00000
    242     -19.8884      2.00000
    243     -19.8884      2.00000
    244     -19.8884      2.00000
    245     -19.8884      2.00000
    246     -19.8884      2.00000
    247     -19.8884      2.00000
    248     -19.8884      2.00000
    249     -19.8884      2.00000
    250     -19.8884      2.00000
    251     -19.8884      2.00000
    252     -19.8490      2.00000
    253     -19.8490      2.00000
    254     -19.8490      2.00000
    255     -19.8490      2.00000
    256     -19.8490      2.00000
    257     -19.8490      2.00000
    258     -19.8443      2.00000
    259     -19.8443      2.00000
    260     -19.8443      2.00000
    261     -19.8442      2.00000
    262     -19.8442      2.00000
    263     -19.8442      2.00000
    264     -19.8442      2.00000
    265     -19.8442      2.00000
    266     -19.8442      2.00000
    267     -19.8442      2.00000
    268     -19.8442      2.00000
    269     -19.8442      2.00000
    270     -19.8399      2.00000
    271     -19.8399      2.00000
    272     -19.8399      2.00000
    273     -19.8399      2.00000
    274     -19.8399      2.00000
    275     -19.8399      2.00000
    276     -19.8399      2.00000
    277     -19.8399      2.00000
    278     -19.8399      2.00000
    279     -19.8399      2.00000
    280     -19.8399      2.00000
    281     -19.8399      2.00000
    282     -19.8315      2.00000
    283     -19.8315      2.00000
    284     -19.8315      2.00000
    285     -19.8315      2.00000
    286     -19.8315      2.00000
    287     -19.8315      2.00000
    288     -19.7894      2.00000
    289     -19.7894      2.00000
    290     -19.7894      2.00000
    291     -19.7894      2.00000
    292     -19.7894      2.00000
    293     -19.7894      2.00000
    294     -19.7894      2.00000
    295     -19.7894      2.00000
    296     -19.7894      2.00000
    297     -19.7894      2.00000
    298     -19.7894      2.00000
    299     -19.7894      2.00000
    300     -19.7894      2.00000
    301     -19.7894      2.00000
    302     -19.7894      2.00000
    303     -19.7894      2.00000
    304     -19.7894      2.00000
    305     -19.7894      2.00000
    306     -19.7894      2.00000
    307     -19.7894      2.00000
    308     -19.7894      2.00000
    309     -19.7894      2.00000
    310     -19.7894      2.00000
    311     -19.7894      2.00000
    312     -19.7849      2.00000
    313     -19.7849      2.00000
    314     -19.7849      2.00000
    315     -19.7849      2.00000
    316     -19.7849      2.00000
    317     -19.7849      2.00000
    318     -19.7849      2.00000
    319     -19.7849      2.00000
    320     -19.7849      2.00000
    321     -19.7849      2.00000
    322     -19.7849      2.00000
    323     -19.7849      2.00000
    324     -19.7563      2.00000
    325     -19.7563      2.00000
    326     -19.7563      2.00000
    327     -19.7563      2.00000
    328     -19.7563      2.00000
    329     -19.7563      2.00000
    330     -19.7563      2.00000
    331     -19.7563      2.00000
    332     -19.7563      2.00000
    333     -19.7563      2.00000
    334     -19.7563      2.00000
    335     -19.7563      2.00000
    336     -19.7471      2.00000
    337     -19.7471      2.00000
    338     -19.7471      2.00000
    339     -19.7471      2.00000
    340     -19.7471      2.00000
    341     -19.7471      2.00000
    342     -19.7471      2.00000
    343     -19.7471      2.00000
    344     -19.7471      2.00000
    345     -19.7471      2.00000
    346     -19.7471      2.00000
    347     -19.7471      2.00000
    348     -19.7424      2.00000
    349     -19.7424      2.00000
    350     -19.7424      2.00000
    351     -19.7424      2.00000
    352     -19.7424      2.00000
    353     -19.7424      2.00000
    354     -19.7424      2.00000
    355     -19.7424      2.00000
    356     -19.7424      2.00000
    357     -19.7424      2.00000
    358     -19.7424      2.00000
    359     -19.7424      2.00000
    360     -19.7424      2.00000
    361     -19.7424      2.00000
    362     -19.7424      2.00000
    363     -19.7424      2.00000
    364     -19.7424      2.00000
    365     -19.7424      2.00000
    366     -19.7424      2.00000
    367     -19.7424      2.00000
    368     -19.7424      2.00000
    369     -19.7424      2.00000
    370     -19.7424      2.00000
    371     -19.7424      2.00000
    372     -19.7377      2.00000
    373     -19.7377      2.00000
    374     -19.7377      2.00000
    375     -19.7377      2.00000
    376     -19.7377      2.00000
    377     -19.7377      2.00000
    378     -19.6642      2.00000
    379     -19.6642      2.00000
    380     -19.6642      2.00000
    381     -19.6642      2.00000
    382     -19.6642      2.00000
    383     -19.6642      2.00000
    384     -19.6642      2.00000
    385     -19.6642      2.00000
    386     -19.6627      2.00000
    387     -19.6627      2.00000
    388     -19.6627      2.00000
    389     -19.6627      2.00000
    390     -19.6627      2.00000
    391     -19.6627      2.00000
    392     -19.6476      2.00000
    393     -19.6476      2.00000
    394     -19.6476      2.00000
    395     -19.6476      2.00000
    396     -19.6476      2.00000
    397     -19.6476      2.00000
    398     -19.6476      2.00000
    399     -19.6476      2.00000
    400     -19.6476      2.00000
    401     -19.6476      2.00000
    402     -19.6476      2.00000
    403     -19.6476      2.00000
    404     -19.6367      2.00000
    405     -19.6367      2.00000
    406     -19.6367      2.00000
    407     -19.6367      2.00000
    408     -19.6367      2.00000
    409     -19.6367      2.00000
    410     -19.6367      2.00000
    411     -19.6367      2.00000
    412     -19.6367      2.00000
    413     -19.6367      2.00000
    414     -19.6367      2.00000
    415     -19.6367      2.00000
    416     -19.6235      2.00000
    417     -19.6235      2.00000
    418     -19.6235      2.00000
    419     -19.6235      2.00000
    420     -19.6235      2.00000
    421     -19.6235      2.00000
    422     -19.6235      2.00000
    423     -19.6235      2.00000
    424     -19.6235      2.00000
    425     -19.6235      2.00000
    426     -19.6235      2.00000
    427     -19.6235      2.00000
    428     -19.6235      2.00000
    429     -19.6235      2.00000
    430     -19.6235      2.00000
    431     -19.6235      2.00000
    432     -19.6179      2.00000
    433     -19.6179      2.00000
    434     -19.6179      2.00000
    435     -19.6179      2.00000
    436     -19.6179      2.00000
    437     -19.6179      2.00000
    438     -19.6179      2.00000
    439     -19.6179      2.00000
    440     -19.6179      2.00000
    441     -19.6179      2.00000
    442     -19.6179      2.00000
    443     -19.6179      2.00000
    444     -19.6179      2.00000
    445     -19.6179      2.00000
    446     -19.6179      2.00000
    447     -19.6179      2.00000
    448     -19.6179      2.00000
    449     -19.6179      2.00000
    450     -19.6179      2.00000
    451     -19.6179      2.00000
    452     -19.6179      2.00000
    453     -19.6179      2.00000
    454     -19.6179      2.00000
    455     -19.6179      2.00000
    456     -19.6133      2.00000
    457     -19.6133      2.00000
    458     -19.6133      2.00000
    459     -19.6133      2.00000
    460     -19.6133      2.00000
    461     -19.6133      2.00000
    462     -19.6133      2.00000
    463     -19.6133      2.00000
    464     -19.6133      2.00000
    465     -19.6133      2.00000
    466     -19.6133      2.00000
    467     -19.6133      2.00000
    468     -19.6133      2.00000
    469     -19.6133      2.00000
    470     -19.6133      2.00000
    471     -19.6133      2.00000
    472     -19.6133      2.00000
    473     -19.6133      2.00000
    474     -19.6133      2.00000
    475     -19.6133      2.00000
    476     -19.6133      2.00000
    477     -19.6133      2.00000
    478     -19.6132      2.00000
    479     -19.6132      2.00000
    480     -19.6106      2.00000
    481     -19.6106      2.00000
    482     -19.6105      2.00000
    483     -19.6105      2.00000
    484     -19.6105      2.00000
    485     -19.6105      2.00000
    486     -19.6105      2.00000
    487     -19.6105      2.00000
    488     -19.6105      2.00000
    489     -19.6105      2.00000
    490     -19.6105      2.00000
    491     -19.6105      2.00000
    492     -19.5569      2.00000
    493     -19.5569      2.00000
    494     -19.5569      2.00000
    495     -19.5569      2.00000
    496     -19.5569      2.00000
    497     -19.5569      2.00000
    498     -19.5561      2.00000
    499     -19.5561      2.00000
    500     -19.5561      2.00000
    501     -19.5561      2.00000
    502     -19.5561      2.00000
    503     -19.5561      2.00000
    504     -19.5561      2.00000
    505     -19.5561      2.00000
    506     -19.5561      2.00000
    507     -19.5561      2.00000
    508     -19.5561      2.00000
    509     -19.5561      2.00000
    510     -19.5556      2.00000
    511     -19.5556      2.00000
    512     -19.5556      2.00000
    513       2.0106      2.00000
    514       2.8569      2.00000
    515       2.8569      2.00000
    516       2.8569      2.00000
    517       2.8570      2.00000
    518       2.8570      2.00000
    519       2.8570      2.00000
    520       3.5354      2.00000
    521       3.5354      2.00000
    522       3.5354      2.00000
    523       3.5354      2.00000
    524       3.5354      2.00000
    525       3.5354      2.00000
    526       3.5354      2.00000
    527       3.5354      2.00000
    528       3.5354      2.00000
    529       3.5354      2.00000
    530       3.5354      2.00000
    531       3.5354      2.00000
    532       4.2362      2.00000
    533       4.2362      2.00000
    534       4.2363      2.00000
    535       4.2363      2.00000
    536       4.2363      2.00000
    537       4.2363      2.00000
    538       4.2363      2.00000
    539       4.2363      2.00000
    540       4.6764      2.00000
    541       4.6764      2.00000
    542       4.6764      2.00000
    543       4.6764      2.00000
    544       4.6764      2.00000
    545       4.6764      2.00000
    546       4.7643      2.00000
    547       4.7643      2.00000
    548       4.7643      2.00000
    549       4.7643      2.00000
    550       4.7643      2.00000
    551       4.7643      2.00000
    552       4.8541      2.00000
    553       4.8541      2.00000
    554       4.8541      2.00000
    555       4.8541      2.00000
    556       4.8541      2.00000
    557       4.8541      2.00000
    558       4.8541      2.00000
    559       4.8541      2.00000
    560       4.8541      2.00000
    561       4.8541      2.00000
    562       4.8541      2.00000
    563       4.8541      2.00000
    564       4.8541      2.00000
    565       4.8541      2.00000
    566       4.8541      2.00000
    567       4.8541      2.00000
    568       4.8541      2.00000
    569       4.8541      2.00000
    570       4.8542      2.00000
    571       4.8542      2.00000
    572       4.8542      2.00000
    573       4.8542      2.00000
    574       4.8542      2.00000
    575       4.8542      2.00000
    576       5.0886      2.00000
    577       5.0886      2.00000
    578       5.3913      2.00000
    579       5.3913      2.00000
    580       5.3913      2.00000
    581       5.3913      2.00000
    582       5.3913      2.00000
    583       5.3913      2.00000
    584       5.3913      2.00000
    585       5.3913      2.00000
    586       5.3913      2.00000
    587       5.3913      2.00000
    588       5.3913      2.00000
    589       5.3913      2.00000
    590       5.3913      2.00000
    591       5.3913      2.00000
    592       5.3913      2.00000
    593       5.3913      2.00000
    594       5.3913      2.00000
    595       5.3913      2.00000
    596       5.3913      2.00000
    597       5.3913      2.00000
    598       5.3913      2.00000
    599       5.3913      2.00000
    600       5.3913      2.00000
    601       5.3913      2.00000
    602       5.4700      2.00000
    603       5.4701      2.00000
    604       5.4701      2.00000
    605       5.4701      2.00000
    606       5.4701      2.00000
    607       5.4701      2.00000
    608       5.4701      2.00000
    609       5.4701      2.00000
    610       5.4701      2.00000
    611       5.4701      2.00000
    612       5.4701      2.00000
    613       5.4701      2.00000
    614       5.4829      2.00000
    615       5.4829      2.00000
    616       5.4829      2.00000
    617       5.4829      2.00000
    618       5.4829      2.00000
    619       5.4829      2.00000
    620       5.5881      2.00000
    621       5.5881      2.00000
    622       5.5881      2.00000
    623       5.5881      2.00000
    624       5.5881      2.00000
    625       5.5881      2.00000
    626       5.5881      2.00000
    627       5.5881      2.00000
    628       5.5881      2.00000
    629       5.5881      2.00000
    630       5.5881      2.00000
    631       5.5881      2.00000
    632       5.5940      2.00000
    633       5.5940      2.00000
    634       5.5940      2.00000
    635       5.5940      2.00000
    636       5.5940      2.00000
    637       5.5940      2.00000
    638       6.1560      2.00000
    639       6.1560      2.00000
    640       6.1560      2.00000
    641       6.1560      2.00000
    642       6.1560      2.00000
    643       6.1560      2.00000
    644       6.1560      2.00000
    645       6.1561      2.00000
    646       6.1561      2.00000
    647       6.1561      2.00000
    648       6.1561      2.00000
    649       6.1561      2.00000
    650       6.2858      2.00000
    651       6.2858      2.00000
    652       6.2858      2.00000
    653       6.2858      2.00000
    654       6.2858      2.00000
    655       6.2858      2.00000
    656       6.2858      2.00000
    657       6.2858      2.00000
    658       6.2858      2.00000
    659       6.2858      2.00000
    660       6.2858      2.00000
    661       6.2858      2.00000
    662       6.2858      2.00000
    663       6.2858      2.00000
    664       6.2858      2.00000
    665       6.2858      2.00000
    666       6.4261      2.00015
    667       6.4261      2.00015
    668       6.4261      2.00015
    669       6.4261      2.00015
    670       6.4261      2.00015
    671       6.4261      2.00015
    672       6.4261      2.00015
    673       6.4261      2.00015
    674       6.4261      2.00015
    675       6.4261      2.00015
    676       6.4261      2.00015
    677       6.4261      2.00015
    678       6.5058      2.00123
    679       6.5058      2.00123
    680       6.5058      2.00124
    681       6.5058      2.00124
    682       6.5058      2.00124
    683       6.5058      2.00124
    684       6.5058      2.00124
    685       6.5058      2.00124
    686       6.5058      2.00124
    687       6.5058      2.00124
    688       6.5058      2.00124
    689       6.5058      2.00124
    690       6.5058      2.00124
    691       6.5058      2.00124
    692       6.5058      2.00124
    693       6.5058      2.00124
    694       6.5058      2.00124
    695       6.5058      2.00124
    696       6.5058      2.00124
    697       6.5058      2.00124
    698       6.5058      2.00124
    699       6.5058      2.00124
    700       6.5058      2.00124
    701       6.5058      2.00124
    702       6.5161      2.00158
    703       6.5161      2.00158
    704       6.5161      2.00158
    705       6.5161      2.00158
    706       6.5161      2.00158
    707       6.5161      2.00158
    708       6.5840      2.00670
    709       6.5840      2.00670
    710       6.5840      2.00670
    711       6.5840      2.00670
    712       6.5840      2.00670
    713       6.5840      2.00670
    714       6.6265      2.01439
    715       6.6265      2.01439
    716       6.6265      2.01439
    717       6.6265      2.01439
    718       6.6265      2.01439
    719       6.6265      2.01439
    720       6.6265      2.01439
    721       6.6265      2.01439
    722       6.8851      1.94589
    723       6.8851      1.94589
    724       6.8851      1.94588
    725       6.8851      1.94588
    726       6.8851      1.94588
    727       6.8851      1.94588
    728       6.8851      1.94588
    729       6.8851      1.94588
    730       6.8851      1.94586
    731       6.8851      1.94586
    732       6.8851      1.94586
    733       6.8851      1.94586
    734       6.8851      1.94585
    735       6.8851      1.94585
    736       6.8851      1.94585
    737       6.8851      1.94585
    738       7.0040      1.24219
    739       7.0040      1.24219
    740       7.0040      1.24217
    741       7.0040      1.24216
    742       7.0040      1.24216
    743       7.0040      1.24215
    744       7.0040      1.24214
    745       7.0040      1.24214
    746       7.0040      1.24213
    747       7.0040      1.24213
    748       7.0040      1.24212
    749       7.0040      1.24210
    750       7.0040      1.24210
    751       7.0040      1.24209
    752       7.0040      1.24208
    753       7.0040      1.24207
    754       7.0040      1.24207
    755       7.0040      1.24206
    756       7.0040      1.24205
    757       7.0040      1.24205
    758       7.0040      1.24205
    759       7.0040      1.24204
    760       7.0040      1.24202
    761       7.0040      1.24201
    762       7.0210      1.10132
    763       7.0210      1.10132
    764       7.0210      1.10132
    765       7.0210      1.10132
    766       7.0210      1.10132
    767       7.0210      1.10132
    768       7.0409      0.93290
    769       7.0409      0.93289
    770       7.0409      0.93289
    771       7.0409      0.93288
    772       7.0409      0.93286
    773       7.0409      0.93286
    774       7.0409      0.93285
    775       7.0409      0.93285
    776       7.0409      0.93284
    777       7.0409      0.93284
    778       7.0409      0.93283
    779       7.0409      0.93282
    780       7.0409      0.93281
    781       7.0409      0.93281
    782       7.0409      0.93281
    783       7.0409      0.93280
    784       7.0409      0.93280
    785       7.0409      0.93279
    786       7.0409      0.93277
    787       7.0409      0.93277
    788       7.0409      0.93276
    789       7.0409      0.93275
    790       7.0409      0.93275
    791       7.0409      0.93274
    792       7.1680      0.09831
    793       7.1680      0.09831
    794       7.1680      0.09831
    795       7.1680      0.09830
    796       7.1680      0.09829
    797       7.1680      0.09829
    798       7.1680      0.09828
    799       7.1680      0.09828
    800       7.1680      0.09827
    801       7.1680      0.09827
    802       7.1680      0.09826
    803       7.1680      0.09826
    804       7.1680      0.09826
    805       7.1680      0.09825
    806       7.1680      0.09825
    807       7.1680      0.09824
    808       7.1680      0.09824
    809       7.1680      0.09824
    810       7.1680      0.09823
    811       7.1680      0.09823
    812       7.1680      0.09822
    813       7.1680      0.09822
    814       7.1680      0.09821
    815       7.1680      0.09821
    816       7.2204     -0.03461
    817       7.2204     -0.03461
    818       7.2204     -0.03461
    819       7.2204     -0.03461
    820       7.2204     -0.03462
    821       7.2204     -0.03462
    822       7.2204     -0.03462
    823       7.2204     -0.03462
    824       7.2204     -0.03462
    825       7.2204     -0.03462
    826       7.2204     -0.03463
    827       7.2204     -0.03463
    828       7.3150     -0.06278
    829       7.3150     -0.06278
    830       7.3150     -0.06278
    831       7.3150     -0.06278
    832       7.3150     -0.06278
    833       7.3150     -0.06278
    834       7.3150     -0.06278
    835       7.3150     -0.06278
    836       7.3150     -0.06277
    837       7.3150     -0.06277
    838       7.3150     -0.06277
    839       7.3151     -0.06277
    840       7.4370     -0.01496
    841       7.4370     -0.01496
    842       7.4370     -0.01496
    843       7.4370     -0.01496
    844       7.4370     -0.01496
    845       7.4370     -0.01496
    846       7.4370     -0.01496
    847       7.4370     -0.01496
    848       7.4370     -0.01496
    849       7.4371     -0.01496
    850       7.4371     -0.01496
    851       7.4371     -0.01496
    852       7.9491     -0.00000
    853       7.9491     -0.00000
    854       7.9491     -0.00000
    855       7.9491     -0.00000
    856       7.9491     -0.00000
    857       7.9491     -0.00000
    858       7.9491     -0.00000
    859       7.9491     -0.00000
    860       7.9491     -0.00000
    861       7.9491     -0.00000
    862       7.9491     -0.00000
    863       7.9491     -0.00000
    864       8.0222     -0.00000
    865       8.0222     -0.00000
    866       8.0222     -0.00000
    867       8.0664     -0.00000
    868       8.0664     -0.00000
    869       8.0664     -0.00000
    870       8.0664     -0.00000
    871       8.0664     -0.00000
    872       8.0664     -0.00000
    873       8.2212     -0.00000
    874       8.2212     -0.00000
    875       8.2212     -0.00000
    876       8.2212     -0.00000
    877       8.2212     -0.00000
    878       8.2212     -0.00000
    879       8.2212     -0.00000
    880       8.2212     -0.00000
    881       8.2212     -0.00000
    882       8.2212     -0.00000
    883       8.2212     -0.00000
    884       8.2212     -0.00000
    885       8.2987     -0.00000
    886       8.2987     -0.00000
    887       8.2987     -0.00000
    888       8.2987     -0.00000
    889       8.2987     -0.00000
    890       8.2987     -0.00000
    891       8.2987     -0.00000
    892       8.2987     -0.00000
    893       8.2987     -0.00000
    894       8.2987     -0.00000
    895       8.2987     -0.00000
    896       8.2987     -0.00000
    897       8.4295     -0.00000
    898       8.4295     -0.00000
    899       8.4295     -0.00000
    900       8.4295     -0.00000
    901       8.4295     -0.00000
    902       8.4295     -0.00000
    903       8.7284     -0.00000
    904       8.7284     -0.00000
    905       8.7284     -0.00000
    906       8.7284     -0.00000
    907       8.7284     -0.00000
    908       8.7284     -0.00000
    909       8.7284     -0.00000
    910       8.7284     -0.00000
    911       8.7284     -0.00000
    912       8.7284     -0.00000
    913       8.7284     -0.00000
    914       8.7284     -0.00000
    915       8.9559     -0.00000
    916       8.9559     -0.00000
    917       8.9559     -0.00000
    918       8.9559     -0.00000
    919       8.9559     -0.00000
    920       8.9559     -0.00000
    921       9.2676     -0.00000
    922       9.2676     -0.00000
    923       9.2676     -0.00000
    924       9.2676     -0.00000

 k-point     2 :       0.5000    0.0000    0.0000
  band No.  band energies     occupation 
      1     -41.8406      2.00000
      2     -41.8405      2.00000
      3     -41.8213      2.00000
      4     -41.8213      2.00000
      5     -41.8213      2.00000
      6     -41.8213      2.00000
      7     -41.8212      2.00000
      8     -41.8212      2.00000
      9     -41.8212      2.00000
     10     -41.8212      2.00000
     11     -41.8065      2.00000
     12     -41.8065      2.00000
     13     -41.8065      2.00000
     14     -41.8065      2.00000
     15     -41.8064      2.00000
     16     -41.8064      2.00000
     17     -41.8063      2.00000
     18     -41.8063      2.00000
     19     -41.8028      2.00000
     20     -41.8028      2.00000
     21     -41.7929      2.00000
     22     -41.7929      2.00000
     23     -41.7929      2.00000
     24     -41.7929      2.00000
     25     -41.7929      2.00000
     26     -41.7929      2.00000
     27     -41.7929      2.00000
     28     -41.7929      2.00000
     29     -41.7852      2.00000
     30     -41.7852      2.00000
     31     -41.7852      2.00000
     32     -41.7852      2.00000
     33     -41.7852      2.00000
     34     -41.7852      2.00000
     35     -41.7852      2.00000
     36     -41.7852      2.00000
     37     -41.7764      2.00000
     38     -41.7764      2.00000
     39     -41.7764      2.00000
     40     -41.7764      2.00000
     41     -41.7763      2.00000
     42     -41.7763      2.00000
     43     -41.7763      2.00000
     44     -41.7762      2.00000
     45     -41.7741      2.00000
     46     -41.7741      2.00000
     47     -41.7741      2.00000
     48     -41.7741      2.00000
     49     -41.7741      2.00000
     50     -41.7741      2.00000
     51     -41.7741      2.00000
     52     -41.7741      2.00000
     53     -41.7740      2.00000
     54     -41.7740      2.00000
     55     -41.7740      2.00000
     56     -41.7740      2.00000
     57     -41.7740      2.00000
     58     -41.7740      2.00000
     59     -41.7740      2.00000
     60     -41.7740      2.00000
     61     -41.7732      2.00000
     62     -41.7732      2.00000
     63     -41.7732      2.00000
     64     -41.7732      2.00000
     65     -41.7730      2.00000
     66     -41.7730      2.00000
     67     -41.7730      2.00000
     68     -41.7730      2.00000
     69     -41.7714      2.00000
     70     -41.7714      2.00000
     71     -41.7713      2.00000
     72     -41.7713      2.00000
     73     -41.7705      2.00000
     74     -41.7705      2.00000
     75     -41.7705      2.00000
     76     -41.7705      2.00000
     77     -41.7705      2.00000
     78     -41.7705      2.00000
     79     -41.7705      2.00000
     80     -41.7705      2.00000
     81     -41.7704      2.00000
     82     -41.7703      2.00000
     83     -41.7703      2.00000
     84     -41.7703      2.00000
     85     -41.7703      2.00000
     86     -41.7703      2.00000
     87     -41.7703      2.00000
     88     -41.7703      2.00000
     89     -41.7681      2.00000
     90     -41.7681      2.00000
     91     -41.7680      2.00000
     92     -41.7680      2.00000
     93     -41.7605      2.00000
     94     -41.7605      2.00000
     95     -41.7605      2.00000
     96     -41.7605      2.00000
     97     -41.7605      2.00000
     98     -41.7605      2.00000
     99     -41.7605      2.00000
    100     -41.7605      2.00000
    101     -41.7579      2.00000
    102     -41.7579      2.00000
    103     -41.7579      2.00000
    104     -41.7579      2.00000
    105     -41.7579      2.00000
    106     -41.7579      2.00000
    107     -41.7579      2.00000
    108     -41.7579      2.00000
    109     -41.7530      2.00000
    110     -41.7530      2.00000
    111     -41.7466      2.00000
    112     -41.7466      2.00000
    113     -41.7466      2.00000
    114     -41.7466      2.00000
    115     -41.7465      2.00000
    116     -41.7465      2.00000
    117     -41.7465      2.00000
    118     -41.7465      2.00000
    119     -41.7361      2.00000
    120     -41.7361      2.00000
    121     -41.7361      2.00000
    122     -41.7361      2.00000
    123     -41.7360      2.00000
    124     -41.7360      2.00000
    125     -41.7359      2.00000
    126     -41.7359      2.00000
    127     -41.7208      2.00000
    128     -41.7206      2.00000
    129     -20.0901      2.00000
    130     -20.0901      2.00000
    131     -20.0899      2.00000
    132     -20.0899      2.00000
    133     -20.0855      2.00000
    134     -20.0855      2.00000
    135     -20.0855      2.00000
    136     -20.0855      2.00000
    137     -20.0854      2.00000
    138     -20.0854      2.00000
    139     -20.0854      2.00000
    140     -20.0854      2.00000
    141     -20.0441      2.00000
    142     -20.0441      2.00000
    143     -20.0441      2.00000
    144     -20.0441      2.00000
    145     -20.0441      2.00000
    146     -20.0441      2.00000
    147     -20.0441      2.00000
    148     -20.0440      2.00000
    149     -20.0212      2.00000
    150     -20.0212      2.00000
    151     -20.0212      2.00000
    152     -20.0212      2.00000
    153     -20.0212      2.00000
    154     -20.0212      2.00000
    155     -20.0212      2.00000
    156     -20.0212      2.00000
    157     -20.0211      2.00000
    158     -20.0211      2.00000
    159     -20.0211      2.00000
    160     -20.0211      2.00000
    161     -20.0211      2.00000
    162     -20.0211      2.00000
    163     -20.0211      2.00000
    164     -20.0211      2.00000
    165     -20.0120      2.00000
    166     -20.0120      2.00000
    167     -20.0120      2.00000
    168     -20.0120      2.00000
    169     -20.0119      2.00000
    170     -20.0119      2.00000
    171     -20.0119      2.00000
    172     -20.0119      2.00000
    173     -20.0113      2.00000
    174     -20.0113      2.00000
    175     -20.0113      2.00000
    176     -20.0113      2.00000
    177     -20.0113      2.00000
    178     -20.0113      2.00000
    179     -20.0113      2.00000
    180     -20.0113      2.00000
    181     -20.0112      2.00000
    182     -20.0112      2.00000
    183     -20.0112      2.00000
    184     -20.0112      2.00000
    185     -20.0112      2.00000
    186     -20.0112      2.00000
    187     -20.0112      2.00000
    188     -20.0112      2.00000
    189     -20.0036      2.00000
    190     -20.0036      2.00000
    191     -20.0036      2.00000
    192     -20.0036      2.00000
    193     -20.0036      2.00000
    194     -20.0036      2.00000
    195     -20.0036      2.00000
    196     -20.0036      2.00000
    197     -19.9850      2.00000
    198     -19.9850      2.00000
    199     -19.9850      2.00000
    200     -19.9850      2.00000
    201     -19.9850      2.00000
    202     -19.9850      2.00000
    203     -19.9850      2.00000
    204     -19.9850      2.00000
    205     -19.9780      2.00000
    206     -19.9780      2.00000
    207     -19.9780      2.00000
    208     -19.9780      2.00000
    209     -19.9780      2.00000
    210     -19.9780      2.00000
    211     -19.9780      2.00000
    212     -19.9780      2.00000
    213     -19.9473      2.00000
    214     -19.9471      2.00000
    215     -19.9419      2.00000
    216     -19.9419      2.00000
    217     -19.9419      2.00000
    218     -19.9419      2.00000
    219     -19.9419      2.00000
    220     -19.9419      2.00000
    221     -19.9419      2.00000
    222     -19.9419      2.00000
    223     -19.9382      2.00000
    224     -19.9382      2.00000
    225     -19.9382      2.00000
    226     -19.9382      2.00000
    227     -19.9326      2.00000
    228     -19.9326      2.00000
    229     -19.9325      2.00000
    230     -19.9325      2.00000
    231     -19.9185      2.00000
    232     -19.9185      2.00000
    233     -19.9185      2.00000
    234     -19.9185      2.00000
    235     -19.9185      2.00000
    236     -19.9185      2.00000
    237     -19.9185      2.00000
    238     -19.9185      2.00000
    239     -19.9091      2.00000
    240     -19.9091      2.00000
    241     -19.8923      2.00000
    242     -19.8923      2.00000
    243     -19.8923      2.00000
    244     -19.8923      2.00000
    245     -19.8922      2.00000
    246     -19.8922      2.00000
    247     -19.8922      2.00000
    248     -19.8922      2.00000
    249     -19.8809      2.00000
    250     -19.8809      2.00000
    251     -19.8809      2.00000
    252     -19.8809      2.00000
    253     -19.8809      2.00000
    254     -19.8809      2.00000
    255     -19.8809      2.00000
    256     -19.8809      2.00000
    257     -19.8769      2.00000
    258     -19.8769      2.00000
    259     -19.8769      2.00000
    260     -19.8768      2.00000
    261     -19.8767      2.00000
    262     -19.8767      2.00000
    263     -19.8767      2.00000
    264     -19.8767      2.00000
    265     -19.8647      2.00000
    266     -19.8647      2.00000
    267     -19.8647      2.00000
    268     -19.8647      2.00000
    269     -19.8646      2.00000
    270     -19.8646      2.00000
    271     -19.8646      2.00000
    272     -19.8646      2.00000
    273     -19.8328      2.00000
    274     -19.8328      2.00000
    275     -19.8328      2.00000
    276     -19.8328      2.00000
    277     -19.8328      2.00000
    278     -19.8328      2.00000
    279     -19.8328      2.00000
    280     -19.8328      2.00000
    281     -19.8230      2.00000
    282     -19.8230      2.00000
    283     -19.8230      2.00000
    284     -19.8230      2.00000
    285     -19.8180      2.00000
    286     -19.8180      2.00000
    287     -19.8179      2.00000
    288     -19.8179      2.00000
    289     -19.7967      2.00000
    290     -19.7967      2.00000
    291     -19.7967      2.00000
    292     -19.7967      2.00000
    293     -19.7967      2.00000
    294     -19.7967      2.00000
    295     -19.7967      2.00000
    296     -19.7967      2.00000
    297     -19.7918      2.00000
    298     -19.7918      2.00000
    299     -19.7918      2.00000
    300     -19.7918      2.00000
    301     -19.7918      2.00000
    302     -19.7918      2.00000
    303     -19.7918      2.00000
    304     -19.7918      2.00000
    305     -19.7917      2.00000
    306     -19.7917      2.00000
    307     -19.7917      2.00000
    308     -19.7917      2.00000
    309     -19.7917      2.00000
    310     -19.7917      2.00000
    311     -19.7917      2.00000
    312     -19.7917      2.00000
    313     -19.7620      2.00000
    314     -19.7620      2.00000
    315     -19.7620      2.00000
    316     -19.7620      2.00000
    317     -19.7620      2.00000
    318     -19.7620      2.00000
    319     -19.7620      2.00000
    320     -19.7620      2.00000
    321     -19.7619      2.00000
    322     -19.7619      2.00000
    323     -19.7619      2.00000
    324     -19.7619      2.00000
    325     -19.7619      2.00000
    326     -19.7619      2.00000
    327     -19.7619      2.00000
    328     -19.7619      2.00000
    329     -19.7606      2.00000
    330     -19.7606      2.00000
    331     -19.7517      2.00000
    332     -19.7517      2.00000
    333     -19.7515      2.00000
    334     -19.7515      2.00000
    335     -19.7458      2.00000
    336     -19.7458      2.00000
    337     -19.7458      2.00000
    338     -19.7458      2.00000
    339     -19.7456      2.00000
    340     -19.7456      2.00000
    341     -19.7456      2.00000
    342     -19.7456      2.00000
    343     -19.7392      2.00000
    344     -19.7392      2.00000
    345     -19.7392      2.00000
    346     -19.7392      2.00000
    347     -19.7390      2.00000
    348     -19.7390      2.00000
    349     -19.7390      2.00000
    350     -19.7390      2.00000
    351     -19.7329      2.00000
    352     -19.7329      2.00000
    353     -19.7329      2.00000
    354     -19.7329      2.00000
    355     -19.7328      2.00000
    356     -19.7328      2.00000
    357     -19.7328      2.00000
    358     -19.7328      2.00000
    359     -19.7257      2.00000
    360     -19.7257      2.00000
    361     -19.7257      2.00000
    362     -19.7257      2.00000
    363     -19.7156      2.00000
    364     -19.7156      2.00000
    365     -19.7156      2.00000
    366     -19.7156      2.00000
    367     -19.7155      2.00000
    368     -19.7155      2.00000
    369     -19.7155      2.00000
    370     -19.7155      2.00000
    371     -19.6991      2.00000
    372     -19.6991      2.00000
    373     -19.6991      2.00000
    374     -19.6991      2.00000
    375     -19.6991      2.00000
    376     -19.6991      2.00000
    377     -19.6991      2.00000
    378     -19.6991      2.00000
    379     -19.6902      2.00000
    380     -19.6902      2.00000
    381     -19.6902      2.00000
    382     -19.6902      2.00000
    383     -19.6902      2.00000
    384     -19.6902      2.00000
    385     -19.6902      2.00000
    386     -19.6902      2.00000
    387     -19.6882      2.00000
    388     -19.6882      2.00000
    389     -19.6882      2.00000
    390     -19.6882      2.00000
    391     -19.6882      2.00000
    392     -19.6882      2.00000
    393     -19.6882      2.00000
    394     -19.6882      2.00000
    395     -19.6820      2.00000
    396     -19.6820      2.00000
    397     -19.6820      2.00000
    398     -19.6820      2.00000
    399     -19.6820      2.00000
    400     -19.6820      2.00000
    401     -19.6820      2.00000
    402     -19.6819      2.00000
    403     -19.6726      2.00000
    404     -19.6726      2.00000
    405     -19.6726      2.00000
    406     -19.6726      2.00000
    407     -19.6391      2.00000
    408     -19.6391      2.00000
    409     -19.6391      2.00000
    410     -19.6391      2.00000
    411     -19.6391      2.00000
    412     -19.6391      2.00000
    413     -19.6390      2.00000
    414     -19.6390      2.00000
    415     -19.6296      2.00000
    416     -19.6296      2.00000
    417     -19.6296      2.00000
    418     -19.6296      2.00000
    419     -19.6296      2.00000
    420     -19.6296      2.00000
    421     -19.6296      2.00000
    422     -19.6296      2.00000
    423     -19.6268      2.00000
    424     -19.6268      2.00000
    425     -19.6268      2.00000
    426     -19.6268      2.00000
    427     -19.6268      2.00000
    428     -19.6268      2.00000
    429     -19.6268      2.00000
    430     -19.6268      2.00000
    431     -19.6267      2.00000
    432     -19.6267      2.00000
    433     -19.6267      2.00000
    434     -19.6267      2.00000
    435     -19.6267      2.00000
    436     -19.6267      2.00000
    437     -19.6267      2.00000
    438     -19.6267      2.00000
    439     -19.6201      2.00000
    440     -19.6201      2.00000
    441     -19.6201      2.00000
    442     -19.6201      2.00000
    443     -19.6200      2.00000
    444     -19.6200      2.00000
    445     -19.6200      2.00000
    446     -19.6200      2.00000
    447     -19.6128      2.00000
    448     -19.6128      2.00000
    449     -19.6128      2.00000
    450     -19.6128      2.00000
    451     -19.6128      2.00000
    452     -19.6128      2.00000
    453     -19.6128      2.00000
    454     -19.6128      2.00000
    455     -19.6127      2.00000
    456     -19.6127      2.00000
    457     -19.6127      2.00000
    458     -19.6127      2.00000
    459     -19.6127      2.00000
    460     -19.6127      2.00000
    461     -19.6127      2.00000
    462     -19.6127      2.00000
    463     -19.6127      2.00000
    464     -19.6127      2.00000
    465     -19.6127      2.00000
    466     -19.6127      2.00000
    467     -19.6127      2.00000
    468     -19.6127      2.00000
    469     -19.6127      2.00000
    470     -19.6127      2.00000
    471     -19.5852      2.00000
    472     -19.5851      2.00000
    473     -19.5777      2.00000
    474     -19.5777      2.00000
    475     -19.5775      2.00000
    476     -19.5775      2.00000
    477     -19.5738      2.00000
    478     -19.5738      2.00000
    479     -19.5738      2.00000
    480     -19.5738      2.00000
    481     -19.5738      2.00000
    482     -19.5738      2.00000
    483     -19.5738      2.00000
    484     -19.5737      2.00000
    485     -19.5736      2.00000
    486     -19.5736      2.00000
    487     -19.5736      2.00000
    488     -19.5736      2.00000
    489     -19.5735      2.00000
    490     -19.5735      2.00000
    491     -19.5735      2.00000
    492     -19.5735      2.00000
    493     -19.5730      2.00000
    494     -19.5730      2.00000
    495     -19.5730      2.00000
    496     -19.5730      2.00000
    497     -19.5730      2.00000
    498     -19.5730      2.00000
    499     -19.5730      2.00000
    500     -19.5730      2.00000
    501     -19.5725      2.00000
    502     -19.5725      2.00000
    503     -19.5725      2.00000
    504     -19.5725      2.00000
    505     -19.5724      2.00000
    506     -19.5724      2.00000
    507     -19.5724      2.00000
    508     -19.5724      2.00000
    509     -19.5698      2.00000
    510     -19.5698      2.00000
    511     -19.5697      2.00000
    512     -19.5697      2.00000
    513       2.2312      2.00000
    514       2.2313      2.00000
    515       3.0394      2.00000
    516       3.0395      2.00000
    517       3.0395      2.00000
    518       3.0395      2.00000
    519       3.0396      2.00000
    520       3.0396      2.00000
    521       3.0396      2.00000
    522       3.0396      2.00000
    523       3.7267      2.00000
    524       3.7267      2.00000
    525       3.7267      2.00000
    526       3.7267      2.00000
    527       3.7269      2.00000
    528       3.7269      2.00000
    529       3.7269      2.00000
    530       3.7269      2.00000
    531       3.7749      2.00000
    532       3.7749      2.00000
    533       4.2001      2.00000
    534       4.2001      2.00000
    535       4.2001      2.00000
    536       4.2001      2.00000
    537       4.2001      2.00000
    538       4.2001      2.00000
    539       4.2001      2.00000
    540       4.2001      2.00000
    541       4.7424      2.00000
    542       4.7424      2.00000
    543       4.7424      2.00000
    544       4.7424      2.00000
    545       4.7425      2.00000
    546       4.7425      2.00000
    547       4.7425      2.00000
    548       4.7425      2.00000
    549       4.8285      2.00000
    550       4.8285      2.00000
    551       4.8285      2.00000
    552       4.8285      2.00000
    553       4.8287      2.00000
    554       4.8287      2.00000
    555       4.8287      2.00000
    556       4.8287      2.00000
    557       4.8624      2.00000
    558       4.8624      2.00000
    559       4.8624      2.00000
    560       4.8624      2.00000
    561       4.8624      2.00000
    562       4.8624      2.00000
    563       4.8624      2.00000
    564       4.8624      2.00000
    565       4.8918      2.00000
    566       4.8918      2.00000
    567       4.8919      2.00000
    568       4.8919      2.00000
    569       5.0301      2.00000
    570       5.0301      2.00000
    571       5.0301      2.00000
    572       5.0301      2.00000
    573       5.0301      2.00000
    574       5.0301      2.00000
    575       5.0301      2.00000
    576       5.0301      2.00000
    577       5.0302      2.00000
    578       5.0302      2.00000
    579       5.0303      2.00000
    580       5.0303      2.00000
    581       5.0303      2.00000
    582       5.0303      2.00000
    583       5.0303      2.00000
    584       5.0303      2.00000
    585       5.2161      2.00000
    586       5.2162      2.00000
    587       5.2230      2.00000
    588       5.2231      2.00000
    589       5.3592      2.00000
    590       5.3592      2.00000
    591       5.3592      2.00000
    592       5.3592      2.00000
    593       5.3592      2.00000
    594       5.3592      2.00000
    595       5.3592      2.00000
    596       5.3592      2.00000
    597       5.4343      2.00000
    598       5.4343      2.00000
    599       5.4984      2.00000
    600       5.4984      2.00000
    601       5.4984      2.00000
    602       5.4984      2.00000
    603       5.4984      2.00000
    604       5.4984      2.00000
    605       5.4984      2.00000
    606       5.4984      2.00000
    607       5.4985      2.00000
    608       5.4985      2.00000
    609       5.4985      2.00000
    610       5.4985      2.00000
    611       5.4985      2.00000
    612       5.4985      2.00000
    613       5.4985      2.00000
    614       5.4985      2.00000
    615       5.5655      2.00000
    616       5.5655      2.00000
    617       5.5655      2.00000
    618       5.5655      2.00000
    619       5.5656      2.00000
    620       5.5656      2.00000
    621       5.5656      2.00000
    622       5.5656      2.00000
    623       5.7241      2.00000
    624       5.7241      2.00000
    625       5.7241      2.00000
    626       5.7241      2.00000
    627       5.7242      2.00000
    628       5.7242      2.00000
    629       5.7242      2.00000
    630       5.7242      2.00000
    631       5.7940      2.00000
    632       5.7940      2.00000
    633       5.7940      2.00000
    634       5.7940      2.00000
    635       5.7941      2.00000
    636       5.7941      2.00000
    637       5.7942      2.00000
    638       5.7942      2.00000
    639       5.8937      2.00000
    640       5.8937      2.00000
    641       5.8937      2.00000
    642       5.8937      2.00000
    643       5.8937      2.00000
    644       5.8937      2.00000
    645       5.8937      2.00000
    646       5.8937      2.00000
    647       6.1694      2.00000
    648       6.1694      2.00000
    649       6.1695      2.00000
    650       6.1695      2.00000
    651       6.1932      2.00000
    652       6.1932      2.00000
    653       6.1932      2.00000
    654       6.1932      2.00000
    655       6.1933      2.00000
    656       6.1933      2.00000
    657       6.1933      2.00000
    658       6.1933      2.00000
    659       6.2064      2.00000
    660       6.2064      2.00000
    661       6.3909      2.00005
    662       6.3909      2.00005
    663       6.3909      2.00005
    664       6.3909      2.00005
    665       6.3936      2.00006
    666       6.3936      2.00006
    667       6.3936      2.00006
    668       6.3936      2.00006
    669       6.3936      2.00006
    670       6.3936      2.00006
    671       6.3936      2.00006
    672       6.3936      2.00006
    673       6.4919      2.00088
    674       6.4919      2.00088
    675       6.4919      2.00088
    676       6.4919      2.00088
    677       6.4919      2.00088
    678       6.4919      2.00088
    679       6.4919      2.00088
    680       6.4919      2.00088
    681       6.4920      2.00088
    682       6.4920      2.00088
    683       6.4920      2.00088
    684       6.4920      2.00088
    685       6.4920      2.00088
    686       6.4920      2.00088
    687       6.4921      2.00088
    688       6.4921      2.00088
    689       6.5297      2.00215
    690       6.5297      2.00215
    691       6.5299      2.00216
    692       6.5299      2.00216
    693       6.6471      2.01994
    694       6.6471      2.01994
    695       6.6471      2.01994
    696       6.6471      2.01995
    697       6.6471      2.01995
    698       6.6471      2.01995
    699       6.6471      2.01995
    700       6.6471      2.01995
    701       6.6617      2.02473
    702       6.6617      2.02473
    703       6.6617      2.02473
    704       6.6617      2.02473
    705       6.6617      2.02473
    706       6.6617      2.02473
    707       6.6617      2.02473
    708       6.6617      2.02473
    709       6.7342      2.05587
    710       6.7342      2.05587
    711       6.7342      2.05587
    712       6.7342      2.05587
    713       6.7344      2.05593
    714       6.7344      2.05593
    715       6.7344      2.05593
    716       6.7344      2.05593
    717       6.7432      2.05973
    718       6.7432      2.05973
    719       6.7432      2.05973
    720       6.7432      2.05973
    721       6.7432      2.05973
    722       6.7432      2.05973
    723       6.7432      2.05973
    724       6.7432      2.05973
    725       6.7433      2.05974
    726       6.7433      2.05974
    727       6.7433      2.05975
    728       6.7433      2.05975
    729       6.7433      2.05975
    730       6.7433      2.05975
    731       6.7433      2.05975
    732       6.7433      2.05975
    733       6.8187      2.06208
    734       6.8187      2.06208
    735       6.8187      2.06208
    736       6.8187      2.06208
    737       6.8187      2.06208
    738       6.8187      2.06208
    739       6.8187      2.06208
    740       6.8187      2.06207
    741       6.8352      2.04790
    742       6.8352      2.04790
    743       6.8352      2.04790
    744       6.8352      2.04790
    745       6.8973      1.90436
    746       6.8973      1.90436
    747       6.8973      1.90436
    748       6.8973      1.90436
    749       6.8973      1.90402
    750       6.8973      1.90402
    751       6.8973      1.90402
    752       6.8973      1.90402
    753       6.9118      1.84540
    754       6.9118      1.84540
    755       6.9118      1.84540
    756       6.9118      1.84539
    757       6.9118      1.84539
    758       6.9118      1.84539
    759       6.9118      1.84538
    760       6.9118      1.84537
    761       7.0618      0.75916
    762       7.0618      0.75914
    763       7.0618      0.75913
    764       7.0618      0.75912
    765       7.0618      0.75911
    766       7.0618      0.75911
    767       7.0618      0.75910
    768       7.0618      0.75909
    769       7.0643      0.73875
    770       7.0643      0.73873
    771       7.0643      0.73872
    772       7.0643      0.73871
    773       7.0643      0.73871
    774       7.0643      0.73870
    775       7.0643      0.73869
    776       7.0643      0.73867
    777       7.0644      0.73786
    778       7.0644      0.73784
    779       7.0644      0.73782
    780       7.0644      0.73781
    781       7.0644      0.73781
    782       7.0644      0.73781
    783       7.0644      0.73778
    784       7.0644      0.73777
    785       7.1160      0.36015
    786       7.1160      0.36014
    787       7.1160      0.36013
    788       7.1160      0.36013
    789       7.1161      0.35944
    790       7.1161      0.35943
    791       7.1161      0.35942
    792       7.1161      0.35942
    793       7.2064     -0.01062
    794       7.2064     -0.01063
    795       7.2064     -0.01063
    796       7.2064     -0.01064
    797       7.2064     -0.01066
    798       7.2064     -0.01067
    799       7.2064     -0.01067
    800       7.2065     -0.01067
    801       7.2065     -0.01071
    802       7.2065     -0.01071
    803       7.2065     -0.01071
    804       7.2065     -0.01072
    805       7.2065     -0.01074
    806       7.2065     -0.01074
    807       7.2065     -0.01075
    808       7.2065     -0.01075
    809       7.2112     -0.01973
    810       7.2112     -0.01974
    811       7.2112     -0.01974
    812       7.2112     -0.01974
    813       7.2113     -0.01991
    814       7.2113     -0.01992
    815       7.2113     -0.01992
    816       7.2113     -0.01992
    817       7.2633     -0.06910
    818       7.2633     -0.06910
    819       7.2633     -0.06910
    820       7.2633     -0.06910
    821       7.2633     -0.06910
    822       7.2633     -0.06910
    823       7.2633     -0.06910
    824       7.2633     -0.06910
    825       7.4287     -0.01712
    826       7.4287     -0.01712
    827       7.4287     -0.01712
    828       7.4287     -0.01712
    829       7.4287     -0.01712
    830       7.4287     -0.01712
    831       7.4287     -0.01712
    832       7.4287     -0.01712
    833       7.5594     -0.00126
    834       7.5594     -0.00126
    835       7.5594     -0.00126
    836       7.5594     -0.00126
    837       7.5594     -0.00126
    838       7.5594     -0.00126
    839       7.5594     -0.00126
    840       7.5594     -0.00126
    841       7.5893     -0.00060
    842       7.5893     -0.00060
    843       7.5893     -0.00060
    844       7.5893     -0.00060
    845       7.5893     -0.00060
    846       7.5893     -0.00060
    847       7.5893     -0.00060
    848       7.5893     -0.00060
    849       7.6495     -0.00012
    850       7.6495     -0.00012
    851       7.6495     -0.00012
    852       7.6495     -0.00012
    853       7.6496     -0.00012
    854       7.6496     -0.00012
    855       7.6496     -0.00012
    856       7.6496     -0.00012
    857       7.7241     -0.00001
    858       7.7241     -0.00001
    859       7.7241     -0.00001
    860       7.7241     -0.00001
    861       7.7242     -0.00001
    862       7.7242     -0.00001
    863       7.7242     -0.00001
    864       7.7242     -0.00001
    865       7.8131     -0.00000
    866       7.8131     -0.00000
    867       7.8131     -0.00000
    868       7.8131     -0.00000
    869       7.8132     -0.00000
    870       7.8132     -0.00000
    871       7.8132     -0.00000
    872       7.8132     -0.00000
    873       7.8222     -0.00000
    874       7.8222     -0.00000
    875       7.8223     -0.00000
    876       7.8223     -0.00000
    877       7.9761     -0.00000
    878       7.9761     -0.00000
    879       7.9898     -0.00000
    880       7.9898     -0.00000
    881       7.9899     -0.00000
    882       7.9899     -0.00000
    883       8.0176     -0.00000
    884       8.0176     -0.00000
    885       8.0176     -0.00000
    886       8.0176     -0.00000
    887       8.1255     -0.00000
    888       8.1256     -0.00000
    889       8.6459     -0.00000
    890       8.6459     -0.00000
    891       8.6459     -0.00000
    892       8.6459     -0.00000
    893       8.6460     -0.00000
    894       8.6460     -0.00000
    895       8.6460     -0.00000
    896       8.6460     -0.00000
    897       8.8522     -0.00000
    898       8.8522     -0.00000
    899       8.8522     -0.00000
    900       8.8522     -0.00000
    901       8.8585     -0.00000
    902       8.8585     -0.00000
    903       8.8585     -0.00000
    904       8.8585     -0.00000
    905       8.8585     -0.00000
    906       8.8585     -0.00000
    907       8.8585     -0.00000
    908       8.8585     -0.00000
    909       8.8936     -0.00000
    910       8.8936     -0.00000
    911       8.8936     -0.00000
    912       8.8936     -0.00000
    913       8.8936     -0.00000
    914       8.8937     -0.00000
    915       8.8937     -0.00000
    916       8.8937     -0.00000
    917       8.9143     -0.00000
    918       8.9143     -0.00000
    919       9.0762     -0.00000
    920       9.0763     -0.00000
    921       9.0781     -0.00000
    922       9.0800     -0.00000
    923       9.0983     -0.00000
    924       9.1003     -0.00000

 k-point     3 :       0.5000    0.5000    0.0000
  band No.  band energies     occupation 
      1     -41.8359      2.00000
      2     -41.8358      2.00000
      3     -41.8357      2.00000
      4     -41.8357      2.00000
      5     -41.8174      2.00000
      6     -41.8174      2.00000
      7     -41.8173      2.00000
      8     -41.8173      2.00000
      9     -41.8172      2.00000
     10     -41.8172      2.00000
     11     -41.8172      2.00000
     12     -41.8172      2.00000
     13     -41.8000      2.00000
     14     -41.8000      2.00000
     15     -41.8000      2.00000
     16     -41.8000      2.00000
     17     -41.7999      2.00000
     18     -41.7999      2.00000
     19     -41.7999      2.00000
     20     -41.7999      2.00000
     21     -41.7908      2.00000
     22     -41.7908      2.00000
     23     -41.7907      2.00000
     24     -41.7907      2.00000
     25     -41.7907      2.00000
     26     -41.7907      2.00000
     27     -41.7907      2.00000
     28     -41.7907      2.00000
     29     -41.7907      2.00000
     30     -41.7907      2.00000
     31     -41.7907      2.00000
     32     -41.7907      2.00000
     33     -41.7906      2.00000
     34     -41.7906      2.00000
     35     -41.7906      2.00000
     36     -41.7906      2.00000
     37     -41.7831      2.00000
     38     -41.7831      2.00000
     39     -41.7831      2.00000
     40     -41.7831      2.00000
     41     -41.7780      2.00000
     42     -41.7780      2.00000
     43     -41.7780      2.00000
     44     -41.7780      2.00000
     45     -41.7780      2.00000
     46     -41.7780      2.00000
     47     -41.7780      2.00000
     48     -41.7779      2.00000
     49     -41.7760      2.00000
     50     -41.7760      2.00000
     51     -41.7759      2.00000
     52     -41.7759      2.00000
     53     -41.7758      2.00000
     54     -41.7758      2.00000
     55     -41.7758      2.00000
     56     -41.7758      2.00000
     57     -41.7722      2.00000
     58     -41.7722      2.00000
     59     -41.7722      2.00000
     60     -41.7722      2.00000
     61     -41.7721      2.00000
     62     -41.7721      2.00000
     63     -41.7721      2.00000
     64     -41.7721      2.00000
     65     -41.7721      2.00000
     66     -41.7721      2.00000
     67     -41.7721      2.00000
     68     -41.7721      2.00000
     69     -41.7720      2.00000
     70     -41.7720      2.00000
     71     -41.7720      2.00000
     72     -41.7720      2.00000
     73     -41.7688      2.00000
     74     -41.7688      2.00000
     75     -41.7687      2.00000
     76     -41.7687      2.00000
     77     -41.7686      2.00000
     78     -41.7686      2.00000
     79     -41.7686      2.00000
     80     -41.7686      2.00000
     81     -41.7646      2.00000
     82     -41.7645      2.00000
     83     -41.7645      2.00000
     84     -41.7645      2.00000
     85     -41.7645      2.00000
     86     -41.7645      2.00000
     87     -41.7645      2.00000
     88     -41.7645      2.00000
     89     -41.7643      2.00000
     90     -41.7643      2.00000
     91     -41.7643      2.00000
     92     -41.7643      2.00000
     93     -41.7585      2.00000
     94     -41.7585      2.00000
     95     -41.7585      2.00000
     96     -41.7585      2.00000
     97     -41.7585      2.00000
     98     -41.7585      2.00000
     99     -41.7585      2.00000
    100     -41.7585      2.00000
    101     -41.7585      2.00000
    102     -41.7585      2.00000
    103     -41.7584      2.00000
    104     -41.7584      2.00000
    105     -41.7584      2.00000
    106     -41.7584      2.00000
    107     -41.7584      2.00000
    108     -41.7584      2.00000
    109     -41.7542      2.00000
    110     -41.7542      2.00000
    111     -41.7541      2.00000
    112     -41.7541      2.00000
    113     -41.7541      2.00000
    114     -41.7541      2.00000
    115     -41.7540      2.00000
    116     -41.7540      2.00000
    117     -41.7388      2.00000
    118     -41.7388      2.00000
    119     -41.7388      2.00000
    120     -41.7388      2.00000
    121     -41.7387      2.00000
    122     -41.7387      2.00000
    123     -41.7386      2.00000
    124     -41.7386      2.00000
    125     -41.7248      2.00000
    126     -41.7247      2.00000
    127     -41.7247      2.00000
    128     -41.7246      2.00000
    129     -20.0879      2.00000
    130     -20.0879      2.00000
    131     -20.0879      2.00000
    132     -20.0879      2.00000
    133     -20.0681      2.00000
    134     -20.0681      2.00000
    135     -20.0681      2.00000
    136     -20.0681      2.00000
    137     -20.0681      2.00000
    138     -20.0681      2.00000
    139     -20.0681      2.00000
    140     -20.0681      2.00000
    141     -20.0680      2.00000
    142     -20.0680      2.00000
    143     -20.0680      2.00000
    144     -20.0680      2.00000
    145     -20.0680      2.00000
    146     -20.0679      2.00000
    147     -20.0679      2.00000
    148     -20.0679      2.00000
    149     -20.0332      2.00000
    150     -20.0332      2.00000
    151     -20.0332      2.00000
    152     -20.0332      2.00000
    153     -20.0305      2.00000
    154     -20.0305      2.00000
    155     -20.0305      2.00000
    156     -20.0305      2.00000
    157     -20.0305      2.00000
    158     -20.0305      2.00000
    159     -20.0305      2.00000
    160     -20.0305      2.00000
    161     -20.0304      2.00000
    162     -20.0304      2.00000
    163     -20.0304      2.00000
    164     -20.0304      2.00000
    165     -20.0304      2.00000
    166     -20.0304      2.00000
    167     -20.0304      2.00000
    168     -20.0304      2.00000
    169     -20.0087      2.00000
    170     -20.0087      2.00000
    171     -20.0087      2.00000
    172     -20.0087      2.00000
    173     -20.0087      2.00000
    174     -20.0087      2.00000
    175     -20.0087      2.00000
    176     -20.0087      2.00000
    177     -20.0082      2.00000
    178     -20.0082      2.00000
    179     -20.0082      2.00000
    180     -20.0082      2.00000
    181     -20.0082      2.00000
    182     -20.0082      2.00000
    183     -20.0082      2.00000
    184     -20.0082      2.00000
    185     -19.9859      2.00000
    186     -19.9859      2.00000
    187     -19.9859      2.00000
    188     -19.9859      2.00000
    189     -19.9858      2.00000
    190     -19.9858      2.00000
    191     -19.9858      2.00000
    192     -19.9858      2.00000
    193     -19.9725      2.00000
    194     -19.9725      2.00000
    195     -19.9725      2.00000
    196     -19.9724      2.00000
    197     -19.9697      2.00000
    198     -19.9697      2.00000
    199     -19.9697      2.00000
    200     -19.9697      2.00000
    201     -19.9696      2.00000
    202     -19.9696      2.00000
    203     -19.9696      2.00000
    204     -19.9696      2.00000
    205     -19.9643      2.00000
    206     -19.9643      2.00000
    207     -19.9643      2.00000
    208     -19.9643      2.00000
    209     -19.9643      2.00000
    210     -19.9643      2.00000
    211     -19.9642      2.00000
    212     -19.9642      2.00000
    213     -19.9515      2.00000
    214     -19.9515      2.00000
    215     -19.9515      2.00000
    216     -19.9515      2.00000
    217     -19.9515      2.00000
    218     -19.9515      2.00000
    219     -19.9515      2.00000
    220     -19.9515      2.00000
    221     -19.9514      2.00000
    222     -19.9514      2.00000
    223     -19.9514      2.00000
    224     -19.9514      2.00000
    225     -19.9514      2.00000
    226     -19.9514      2.00000
    227     -19.9514      2.00000
    228     -19.9514      2.00000
    229     -19.9475      2.00000
    230     -19.9475      2.00000
    231     -19.9474      2.00000
    232     -19.9474      2.00000
    233     -19.9474      2.00000
    234     -19.9474      2.00000
    235     -19.9474      2.00000
    236     -19.9474      2.00000
    237     -19.9181      2.00000
    238     -19.9180      2.00000
    239     -19.9179      2.00000
    240     -19.9179      2.00000
    241     -19.9093      2.00000
    242     -19.9093      2.00000
    243     -19.9093      2.00000
    244     -19.9093      2.00000
    245     -19.9093      2.00000
    246     -19.9093      2.00000
    247     -19.9093      2.00000
    248     -19.9092      2.00000
    249     -19.8927      2.00000
    250     -19.8927      2.00000
    251     -19.8927      2.00000
    252     -19.8927      2.00000
    253     -19.8601      2.00000
    254     -19.8601      2.00000
    255     -19.8601      2.00000
    256     -19.8601      2.00000
    257     -19.8601      2.00000
    258     -19.8601      2.00000
    259     -19.8601      2.00000
    260     -19.8601      2.00000
    261     -19.8341      2.00000
    262     -19.8341      2.00000
    263     -19.8341      2.00000
    264     -19.8341      2.00000
    265     -19.8341      2.00000
    266     -19.8341      2.00000
    267     -19.8341      2.00000
    268     -19.8341      2.00000
    269     -19.8335      2.00000
    270     -19.8335      2.00000
    271     -19.8335      2.00000
    272     -19.8335      2.00000
    273     -19.8335      2.00000
    274     -19.8335      2.00000
    275     -19.8335      2.00000
    276     -19.8335      2.00000
    277     -19.8335      2.00000
    278     -19.8335      2.00000
    279     -19.8335      2.00000
    280     -19.8335      2.00000
    281     -19.8335      2.00000
    282     -19.8335      2.00000
    283     -19.8335      2.00000
    284     -19.8335      2.00000
    285     -19.8192      2.00000
    286     -19.8192      2.00000
    287     -19.8192      2.00000
    288     -19.8192      2.00000
    289     -19.8192      2.00000
    290     -19.8192      2.00000
    291     -19.8192      2.00000
    292     -19.8192      2.00000
    293     -19.8161      2.00000
    294     -19.8161      2.00000
    295     -19.8160      2.00000
    296     -19.8160      2.00000
    297     -19.8160      2.00000
    298     -19.8160      2.00000
    299     -19.8160      2.00000
    300     -19.8160      2.00000
    301     -19.7814      2.00000
    302     -19.7814      2.00000
    303     -19.7813      2.00000
    304     -19.7813      2.00000
    305     -19.7813      2.00000
    306     -19.7813      2.00000
    307     -19.7813      2.00000
    308     -19.7813      2.00000
    309     -19.7772      2.00000
    310     -19.7772      2.00000
    311     -19.7772      2.00000
    312     -19.7772      2.00000
    313     -19.7772      2.00000
    314     -19.7772      2.00000
    315     -19.7771      2.00000
    316     -19.7771      2.00000
    317     -19.7692      2.00000
    318     -19.7692      2.00000
    319     -19.7692      2.00000
    320     -19.7692      2.00000
    321     -19.7622      2.00000
    322     -19.7622      2.00000
    323     -19.7622      2.00000
    324     -19.7622      2.00000
    325     -19.7621      2.00000
    326     -19.7621      2.00000
    327     -19.7621      2.00000
    328     -19.7621      2.00000
    329     -19.7595      2.00000
    330     -19.7595      2.00000
    331     -19.7595      2.00000
    332     -19.7595      2.00000
    333     -19.7595      2.00000
    334     -19.7595      2.00000
    335     -19.7595      2.00000
    336     -19.7595      2.00000
    337     -19.7554      2.00000
    338     -19.7554      2.00000
    339     -19.7554      2.00000
    340     -19.7554      2.00000
    341     -19.7553      2.00000
    342     -19.7553      2.00000
    343     -19.7553      2.00000
    344     -19.7553      2.00000
    345     -19.7552      2.00000
    346     -19.7552      2.00000
    347     -19.7552      2.00000
    348     -19.7552      2.00000
    349     -19.7552      2.00000
    350     -19.7552      2.00000
    351     -19.7552      2.00000
    352     -19.7552      2.00000
    353     -19.7271      2.00000
    354     -19.7271      2.00000
    355     -19.7271      2.00000
    356     -19.7271      2.00000
    357     -19.7270      2.00000
    358     -19.7270      2.00000
    359     -19.7270      2.00000
    360     -19.7270      2.00000
    361     -19.7115      2.00000
    362     -19.7115      2.00000
    363     -19.7115      2.00000
    364     -19.7115      2.00000
    365     -19.6930      2.00000
    366     -19.6930      2.00000
    367     -19.6930      2.00000
    368     -19.6930      2.00000
    369     -19.6930      2.00000
    370     -19.6930      2.00000
    371     -19.6930      2.00000
    372     -19.6930      2.00000
    373     -19.6929      2.00000
    374     -19.6929      2.00000
    375     -19.6929      2.00000
    376     -19.6929      2.00000
    377     -19.6929      2.00000
    378     -19.6929      2.00000
    379     -19.6929      2.00000
    380     -19.6929      2.00000
    381     -19.6860      2.00000
    382     -19.6860      2.00000
    383     -19.6860      2.00000
    384     -19.6860      2.00000
    385     -19.6860      2.00000
    386     -19.6860      2.00000
    387     -19.6859      2.00000
    388     -19.6859      2.00000
    389     -19.6770      2.00000
    390     -19.6770      2.00000
    391     -19.6770      2.00000
    392     -19.6770      2.00000
    393     -19.6769      2.00000
    394     -19.6769      2.00000
    395     -19.6769      2.00000
    396     -19.6769      2.00000
    397     -19.6578      2.00000
    398     -19.6578      2.00000
    399     -19.6578      2.00000
    400     -19.6578      2.00000
    401     -19.6578      2.00000
    402     -19.6578      2.00000
    403     -19.6578      2.00000
    404     -19.6578      2.00000
    405     -19.6578      2.00000
    406     -19.6578      2.00000
    407     -19.6578      2.00000
    408     -19.6578      2.00000
    409     -19.6577      2.00000
    410     -19.6577      2.00000
    411     -19.6577      2.00000
    412     -19.6577      2.00000
    413     -19.6554      2.00000
    414     -19.6554      2.00000
    415     -19.6554      2.00000
    416     -19.6554      2.00000
    417     -19.6554      2.00000
    418     -19.6554      2.00000
    419     -19.6554      2.00000
    420     -19.6554      2.00000
    421     -19.6402      2.00000
    422     -19.6402      2.00000
    423     -19.6402      2.00000
    424     -19.6402      2.00000
    425     -19.6328      2.00000
    426     -19.6328      2.00000
    427     -19.6328      2.00000
    428     -19.6328      2.00000
    429     -19.6328      2.00000
    430     -19.6328      2.00000
    431     -19.6328      2.00000
    432     -19.6328      2.00000
    433     -19.6216      2.00000
    434     -19.6216      2.00000
    435     -19.6216      2.00000
    436     -19.6216      2.00000
    437     -19.6215      2.00000
    438     -19.6215      2.00000
    439     -19.6215      2.00000
    440     -19.6215      2.00000
    441     -19.6204      2.00000
    442     -19.6204      2.00000
    443     -19.6204      2.00000
    444     -19.6204      2.00000
    445     -19.6204      2.00000
    446     -19.6204      2.00000
    447     -19.6204      2.00000
    448     -19.6204      2.00000
    449     -19.6161      2.00000
    450     -19.6161      2.00000
    451     -19.6161      2.00000
    452     -19.6161      2.00000
    453     -19.6143      2.00000
    454     -19.6143      2.00000
    455     -19.6143      2.00000
    456     -19.6143      2.00000
    457     -19.6143      2.00000
    458     -19.6143      2.00000
    459     -19.6143      2.00000
    460     -19.6143      2.00000
    461     -19.5863      2.00000
    462     -19.5863      2.00000
    463     -19.5863      2.00000
    464     -19.5863      2.00000
    465     -19.5862      2.00000
    466     -19.5862      2.00000
    467     -19.5862      2.00000
    468     -19.5862      2.00000
    469     -19.5862      2.00000
    470     -19.5862      2.00000
    471     -19.5862      2.00000
    472     -19.5862      2.00000
    473     -19.5861      2.00000
    474     -19.5861      2.00000
    475     -19.5861      2.00000
    476     -19.5861      2.00000
    477     -19.5840      2.00000
    478     -19.5840      2.00000
    479     -19.5840      2.00000
    480     -19.5840      2.00000
    481     -19.5840      2.00000
    482     -19.5840      2.00000
    483     -19.5840      2.00000
    484     -19.5840      2.00000
    485     -19.5839      2.00000
    486     -19.5839      2.00000
    487     -19.5839      2.00000
    488     -19.5839      2.00000
    489     -19.5839      2.00000
    490     -19.5839      2.00000
    491     -19.5839      2.00000
    492     -19.5839      2.00000
    493     -19.5828      2.00000
    494     -19.5827      2.00000
    495     -19.5827      2.00000
    496     -19.5826      2.00000
    497     -19.5756      2.00000
    498     -19.5756      2.00000
    499     -19.5756      2.00000
    500     -19.5756      2.00000
    501     -19.5756      2.00000
    502     -19.5756      2.00000
    503     -19.5755      2.00000
    504     -19.5755      2.00000
    505     -19.5567      2.00000
    506     -19.5567      2.00000
    507     -19.5567      2.00000
    508     -19.5567      2.00000
    509     -19.5557      2.00000
    510     -19.5557      2.00000
    511     -19.5557      2.00000
    512     -19.5557      2.00000
    513       2.4429      2.00000
    514       2.4429      2.00000
    515       2.4430      2.00000
    516       2.4431      2.00000
    517       3.2250      2.00000
    518       3.2250      2.00000
    519       3.2250      2.00000
    520       3.2250      2.00000
    521       3.2251      2.00000
    522       3.2251      2.00000
    523       3.2252      2.00000
    524       3.2252      2.00000
    525       3.9037      2.00000
    526       3.9037      2.00000
    527       3.9037      2.00000
    528       3.9037      2.00000
    529       3.9038      2.00000
    530       3.9038      2.00000
    531       3.9038      2.00000
    532       3.9038      2.00000
    533       4.3892      2.00000
    534       4.3892      2.00000
    535       4.3892      2.00000
    536       4.3892      2.00000
    537       4.3892      2.00000
    538       4.3892      2.00000
    539       4.3892      2.00000
    540       4.3892      2.00000
    541       4.3893      2.00000
    542       4.3893      2.00000
    543       4.3893      2.00000
    544       4.3893      2.00000
    545       4.3893      2.00000
    546       4.3893      2.00000
    547       4.3893      2.00000
    548       4.3893      2.00000
    549       4.4887      2.00000
    550       4.4887      2.00000
    551       4.4887      2.00000
    552       4.4887      2.00000
    553       4.9282      2.00000
    554       4.9282      2.00000
    555       4.9282      2.00000
    556       4.9282      2.00000
    557       4.9283      2.00000
    558       4.9283      2.00000
    559       4.9284      2.00000
    560       4.9284      2.00000
    561       4.9521      2.00000
    562       4.9521      2.00000
    563       4.9521      2.00000
    564       4.9521      2.00000
    565       4.9521      2.00000
    566       4.9521      2.00000
    567       4.9521      2.00000
    568       4.9521      2.00000
    569       4.9522      2.00000
    570       4.9522      2.00000
    571       4.9522      2.00000
    572       4.9522      2.00000
    573       4.9522      2.00000
    574       4.9522      2.00000
    575       4.9522      2.00000
    576       4.9522      2.00000
    577       5.0409      2.00000
    578       5.0409      2.00000
    579       5.0409      2.00000
    580       5.0409      2.00000
    581       5.2982      2.00000
    582       5.2982      2.00000
    583       5.2982      2.00000
    584       5.2982      2.00000
    585       5.2982      2.00000
    586       5.2982      2.00000
    587       5.2982      2.00000
    588       5.2982      2.00000
    589       5.3259      2.00000
    590       5.3260      2.00000
    591       5.3260      2.00000
    592       5.3261      2.00000
    593       5.3669      2.00000
    594       5.3670      2.00000
    595       5.3671      2.00000
    596       5.3671      2.00000
    597       5.4880      2.00000
    598       5.4880      2.00000
    599       5.4880      2.00000
    600       5.4880      2.00000
    601       5.4881      2.00000
    602       5.4881      2.00000
    603       5.4881      2.00000
    604       5.4881      2.00000
    605       5.5516      2.00000
    606       5.5516      2.00000
    607       5.5516      2.00000
    608       5.5516      2.00000
    609       5.5516      2.00000
    610       5.5516      2.00000
    611       5.5516      2.00000
    612       5.5516      2.00000
    613       5.5517      2.00000
    614       5.5517      2.00000
    615       5.5517      2.00000
    616       5.5517      2.00000
    617       5.5517      2.00000
    618       5.5517      2.00000
    619       5.5517      2.00000
    620       5.5517      2.00000
    621       5.7067      2.00000
    622       5.7067      2.00000
    623       5.7067      2.00000
    624       5.7067      2.00000
    625       5.7067      2.00000
    626       5.7067      2.00000
    627       5.7067      2.00000
    628       5.7067      2.00000
    629       5.7391      2.00000
    630       5.7391      2.00000
    631       5.7392      2.00000
    632       5.7392      2.00000
    633       5.7393      2.00000
    634       5.7393      2.00000
    635       5.7393      2.00000
    636       5.7393      2.00000
    637       5.7764      2.00000
    638       5.7764      2.00000
    639       5.7765      2.00000
    640       5.7765      2.00000
    641       5.7765      2.00000
    642       5.7765      2.00000
    643       5.7766      2.00000
    644       5.7766      2.00000
    645       6.0275      2.00000
    646       6.0275      2.00000
    647       6.0275      2.00000
    648       6.0275      2.00000
    649       6.0275      2.00000
    650       6.0275      2.00000
    651       6.0275      2.00000
    652       6.0275      2.00000
    653       6.2512      2.00000
    654       6.2512      2.00000
    655       6.2512      2.00000
    656       6.2512      2.00000
    657       6.2513      2.00000
    658       6.2513      2.00000
    659       6.2513      2.00000
    660       6.2513      2.00000
    661       6.4837      2.00072
    662       6.4837      2.00072
    663       6.4837      2.00072
    664       6.4837      2.00072
    665       6.4837      2.00072
    666       6.4837      2.00072
    667       6.4837      2.00072
    668       6.4837      2.00072
    669       6.5375      2.00256
    670       6.5375      2.00256
    671       6.5375      2.00256
    672       6.5375      2.00256
    673       6.5375      2.00256
    674       6.5376      2.00256
    675       6.5376      2.00256
    676       6.5376      2.00256
    677       6.5461      2.00309
    678       6.5461      2.00309
    679       6.5461      2.00309
    680       6.5461      2.00309
    681       6.5462      2.00309
    682       6.5462      2.00309
    683       6.5462      2.00309
    684       6.5462      2.00309
    685       6.5462      2.00310
    686       6.5462      2.00310
    687       6.5462      2.00310
    688       6.5462      2.00310
    689       6.5462      2.00310
    690       6.5462      2.00310
    691       6.5462      2.00310
    692       6.5463      2.00310
    693       6.5645      2.00455
    694       6.5645      2.00455
    695       6.5645      2.00455
    696       6.5645      2.00455
    697       6.5645      2.00455
    698       6.5645      2.00455
    699       6.5645      2.00455
    700       6.5645      2.00455
    701       6.6460      2.01962
    702       6.6460      2.01962
    703       6.6460      2.01962
    704       6.6460      2.01962
    705       6.6460      2.01963
    706       6.6460      2.01963
    707       6.6461      2.01964
    708       6.6461      2.01964
    709       6.6461      2.01965
    710       6.6461      2.01965
    711       6.6461      2.01966
    712       6.6461      2.01966
    713       6.6462      2.01967
    714       6.6462      2.01967
    715       6.6462      2.01967
    716       6.6462      2.01967
    717       6.7305      2.05418
    718       6.7305      2.05418
    719       6.7305      2.05421
    720       6.7305      2.05421
    721       6.7306      2.05424
    722       6.7306      2.05424
    723       6.7307      2.05426
    724       6.7307      2.05426
    725       6.7471      2.06131
    726       6.7471      2.06131
    727       6.7472      2.06133
    728       6.7472      2.06133
    729       6.7472      2.06134
    730       6.7472      2.06134
    731       6.7473      2.06136
    732       6.7473      2.06136
    733       6.7580      2.06529
    734       6.7580      2.06529
    735       6.7580      2.06529
    736       6.7580      2.06529
    737       6.7813      2.07058
    738       6.7813      2.07058
    739       6.7813      2.07058
    740       6.7813      2.07058
    741       6.7813      2.07058
    742       6.7813      2.07058
    743       6.7813      2.07058
    744       6.7813      2.07058
    745       6.9054      1.87275
    746       6.9054      1.87274
    747       6.9054      1.87273
    748       6.9054      1.87272
    749       6.9054      1.87269
    750       6.9054      1.87268
    751       6.9054      1.87267
    752       6.9054      1.87266
    753       6.9054      1.87259
    754       6.9054      1.87258
    755       6.9054      1.87256
    756       6.9054      1.87256
    757       6.9054      1.87253
    758       6.9054      1.87252
    759       6.9054      1.87250
    760       6.9054      1.87250
    761       6.9524      1.62438
    762       6.9524      1.62435
    763       6.9524      1.62434
    764       6.9524      1.62434
    765       6.9524      1.62431
    766       6.9524      1.62430
    767       6.9524      1.62429
    768       6.9524      1.62425
    769       7.0074      1.21424
    770       7.0074      1.21417
    771       7.0074      1.21415
    772       7.0074      1.21410
    773       7.1138      0.37411
    774       7.1138      0.37410
    775       7.1138      0.37410
    776       7.1138      0.37409
    777       7.1138      0.37403
    778       7.1138      0.37402
    779       7.1138      0.37401
    780       7.1138      0.37401
    781       7.1138      0.37387
    782       7.1138      0.37387
    783       7.1138      0.37386
    784       7.1138      0.37386
    785       7.1138      0.37379
    786       7.1138      0.37378
    787       7.1138      0.37377
    788       7.1138      0.37377
    789       7.2469     -0.06183
    790       7.2469     -0.06183
    791       7.2469     -0.06183
    792       7.2469     -0.06183
    793       7.2469     -0.06183
    794       7.2469     -0.06184
    795       7.2469     -0.06184
    796       7.2469     -0.06184
    797       7.2469     -0.06185
    798       7.2469     -0.06185
    799       7.2469     -0.06185
    800       7.2469     -0.06185
    801       7.2469     -0.06186
    802       7.2469     -0.06186
    803       7.2469     -0.06186
    804       7.2469     -0.06186
    805       7.2849     -0.07056
    806       7.2849     -0.07056
    807       7.2849     -0.07056
    808       7.2849     -0.07056
    809       7.4452     -0.01307
    810       7.4452     -0.01307
    811       7.4452     -0.01306
    812       7.4452     -0.01306
    813       7.4452     -0.01306
    814       7.4452     -0.01306
    815       7.4452     -0.01306
    816       7.4452     -0.01306
    817       7.4474     -0.01257
    818       7.4474     -0.01257
    819       7.4474     -0.01257
    820       7.4474     -0.01257
    821       7.4475     -0.01256
    822       7.4475     -0.01256
    823       7.4475     -0.01256
    824       7.4475     -0.01256
    825       7.4633     -0.00950
    826       7.4633     -0.00950
    827       7.4634     -0.00949
    828       7.4634     -0.00949
    829       7.4634     -0.00949
    830       7.4634     -0.00949
    831       7.4634     -0.00949
    832       7.4634     -0.00949
    833       7.4700     -0.00840
    834       7.4700     -0.00840
    835       7.4700     -0.00840
    836       7.4700     -0.00840
    837       7.4701     -0.00839
    838       7.4701     -0.00839
    839       7.4701     -0.00839
    840       7.4701     -0.00839
    841       7.4701     -0.00838
    842       7.4701     -0.00838
    843       7.4701     -0.00838
    844       7.4701     -0.00838
    845       7.4702     -0.00838
    846       7.4702     -0.00838
    847       7.4702     -0.00838
    848       7.4702     -0.00838
    849       7.4815     -0.00676
    850       7.4815     -0.00676
    851       7.4815     -0.00676
    852       7.4815     -0.00676
    853       7.5844     -0.00068
    854       7.5844     -0.00068
    855       7.5844     -0.00068
    856       7.5844     -0.00068
    857       7.5845     -0.00068
    858       7.5845     -0.00068
    859       7.5845     -0.00068
    860       7.5845     -0.00068
    861       7.6116     -0.00034
    862       7.6116     -0.00034
    863       7.6116     -0.00034
    864       7.6116     -0.00033
    865       7.6116     -0.00033
    866       7.6116     -0.00033
    867       7.6117     -0.00033
    868       7.6117     -0.00033
    869       7.7638     -0.00000
    870       7.7638     -0.00000
    871       7.7638     -0.00000
    872       7.7638     -0.00000
    873       7.9049     -0.00000
    874       7.9049     -0.00000
    875       7.9050     -0.00000
    876       7.9050     -0.00000
    877       8.1539     -0.00000
    878       8.1539     -0.00000
    879       8.1539     -0.00000
    880       8.1539     -0.00000
    881       8.1539     -0.00000
    882       8.1539     -0.00000
    883       8.1539     -0.00000
    884       8.1539     -0.00000
    885       8.3113     -0.00000
    886       8.3113     -0.00000
    887       8.3113     -0.00000
    888       8.3113     -0.00000
    889       8.3113     -0.00000
    890       8.3113     -0.00000
    891       8.3114     -0.00000
    892       8.3114     -0.00000
    893       8.4336     -0.00000
    894       8.4336     -0.00000
    895       8.4336     -0.00000
    896       8.4336     -0.00000
    897       8.7526     -0.00000
    898       8.7526     -0.00000
    899       8.7526     -0.00000
    900       8.7526     -0.00000
    901       8.7526     -0.00000
    902       8.7526     -0.00000
    903       8.7526     -0.00000
    904       8.7526     -0.00000
    905       8.7815     -0.00000
    906       8.7815     -0.00000
    907       8.7816     -0.00000
    908       8.7816     -0.00000
    909       8.7816     -0.00000
    910       8.7816     -0.00000
    911       8.7816     -0.00000
    912       8.7816     -0.00000
    913       8.8669     -0.00000
    914       8.8669     -0.00000
    915       8.8669     -0.00000
    916       8.8669     -0.00000
    917       8.8669     -0.00000
    918       8.8669     -0.00000
    919       8.8669     -0.00000
    920       8.8669     -0.00000
    921       9.2679     -0.00000
    922       9.2710     -0.00000
    923       9.2745     -0.00000
    924       9.2917     -0.00000

 k-point     4 :       0.5000    0.5000    0.5000
  band No.  band energies     occupation 
      1     -41.8310      2.00000
      2     -41.8309      2.00000
      3     -41.8309      2.00000
      4     -41.8309      2.00000
      5     -41.8308      2.00000
      6     -41.8308      2.00000
      7     -41.8308      2.00000
      8     -41.8308      2.00000
      9     -41.7976      2.00000
     10     -41.7976      2.00000
     11     -41.7975      2.00000
     12     -41.7975      2.00000
     13     -41.7975      2.00000
     14     -41.7975      2.00000
     15     -41.7975      2.00000
     16     -41.7975      2.00000
     17     -41.7975      2.00000
     18     -41.7975      2.00000
     19     -41.7975      2.00000
     20     -41.7975      2.00000
     21     -41.7974      2.00000
     22     -41.7974      2.00000
     23     -41.7974      2.00000
     24     -41.7974      2.00000
     25     -41.7974      2.00000
     26     -41.7974      2.00000
     27     -41.7974      2.00000
     28     -41.7974      2.00000
     29     -41.7974      2.00000
     30     -41.7974      2.00000
     31     -41.7974      2.00000
     32     -41.7974      2.00000
     33     -41.7817      2.00000
     34     -41.7817      2.00000
     35     -41.7817      2.00000
     36     -41.7817      2.00000
     37     -41.7817      2.00000
     38     -41.7817      2.00000
     39     -41.7817      2.00000
     40     -41.7817      2.00000
     41     -41.7817      2.00000
     42     -41.7817      2.00000
     43     -41.7816      2.00000
     44     -41.7816      2.00000
     45     -41.7816      2.00000
     46     -41.7816      2.00000
     47     -41.7816      2.00000
     48     -41.7816      2.00000
     49     -41.7816      2.00000
     50     -41.7816      2.00000
     51     -41.7816      2.00000
     52     -41.7816      2.00000
     53     -41.7816      2.00000
     54     -41.7816      2.00000
     55     -41.7816      2.00000
     56     -41.7816      2.00000
     57     -41.7730      2.00000
     58     -41.7730      2.00000
     59     -41.7730      2.00000
     60     -41.7730      2.00000
     61     -41.7730      2.00000
     62     -41.7729      2.00000
     63     -41.7729      2.00000
     64     -41.7729      2.00000
     65     -41.7657      2.00000
     66     -41.7657      2.00000
     67     -41.7657      2.00000
     68     -41.7657      2.00000
     69     -41.7657      2.00000
     70     -41.7657      2.00000
     71     -41.7657      2.00000
     72     -41.7657      2.00000
     73     -41.7642      2.00000
     74     -41.7642      2.00000
     75     -41.7642      2.00000
     76     -41.7642      2.00000
     77     -41.7642      2.00000
     78     -41.7642      2.00000
     79     -41.7642      2.00000
     80     -41.7642      2.00000
     81     -41.7642      2.00000
     82     -41.7642      2.00000
     83     -41.7642      2.00000
     84     -41.7642      2.00000
     85     -41.7642      2.00000
     86     -41.7642      2.00000
     87     -41.7642      2.00000
     88     -41.7642      2.00000
     89     -41.7642      2.00000
     90     -41.7642      2.00000
     91     -41.7641      2.00000
     92     -41.7641      2.00000
     93     -41.7641      2.00000
     94     -41.7641      2.00000
     95     -41.7641      2.00000
     96     -41.7641      2.00000
     97     -41.7553      2.00000
     98     -41.7553      2.00000
     99     -41.7552      2.00000
    100     -41.7552      2.00000
    101     -41.7552      2.00000
    102     -41.7552      2.00000
    103     -41.7552      2.00000
    104     -41.7552      2.00000
    105     -41.7552      2.00000
    106     -41.7552      2.00000
    107     -41.7552      2.00000
    108     -41.7552      2.00000
    109     -41.7551      2.00000
    110     -41.7551      2.00000
    111     -41.7551      2.00000
    112     -41.7551      2.00000
    113     -41.7551      2.00000
    114     -41.7551      2.00000
    115     -41.7551      2.00000
    116     -41.7551      2.00000
    117     -41.7551      2.00000
    118     -41.7551      2.00000
    119     -41.7551      2.00000
    120     -41.7551      2.00000
    121     -41.7284      2.00000
    122     -41.7283      2.00000
    123     -41.7283      2.00000
    124     -41.7283      2.00000
    125     -41.7282      2.00000
    126     -41.7282      2.00000
    127     -41.7282      2.00000
    128     -41.7281      2.00000
    129     -20.0673      2.00000
    130     -20.0673      2.00000
    131     -20.0673      2.00000
    132     -20.0673      2.00000
    133     -20.0673      2.00000
    134     -20.0673      2.00000
    135     -20.0673      2.00000
    136     -20.0673      2.00000
    137     -20.0673      2.00000
    138     -20.0673      2.00000
    139     -20.0673      2.00000
    140     -20.0673      2.00000
    141     -20.0673      2.00000
    142     -20.0673      2.00000
    143     -20.0673      2.00000
    144     -20.0673      2.00000
    145     -20.0673      2.00000
    146     -20.0673      2.00000
    147     -20.0672      2.00000
    148     -20.0672      2.00000
    149     -20.0672      2.00000
    150     -20.0672      2.00000
    151     -20.0672      2.00000
    152     -20.0672      2.00000
    153     -20.0258      2.00000
    154     -20.0258      2.00000
    155     -20.0258      2.00000
    156     -20.0258      2.00000
    157     -20.0258      2.00000
    158     -20.0258      2.00000
    159     -20.0257      2.00000
    160     -20.0257      2.00000
    161     -20.0257      2.00000
    162     -20.0257      2.00000
    163     -20.0257      2.00000
    164     -20.0257      2.00000
    165     -20.0257      2.00000
    166     -20.0257      2.00000
    167     -20.0257      2.00000
    168     -20.0257      2.00000
    169     -20.0257      2.00000
    170     -20.0257      2.00000
    171     -20.0257      2.00000
    172     -20.0257      2.00000
    173     -20.0257      2.00000
    174     -20.0257      2.00000
    175     -20.0257      2.00000
    176     -20.0257      2.00000
    177     -19.9890      2.00000
    178     -19.9890      2.00000
    179     -19.9890      2.00000
    180     -19.9890      2.00000
    181     -19.9890      2.00000
    182     -19.9890      2.00000
    183     -19.9890      2.00000
    184     -19.9890      2.00000
    185     -19.9860      2.00000
    186     -19.9860      2.00000
    187     -19.9860      2.00000
    188     -19.9860      2.00000
    189     -19.9860      2.00000
    190     -19.9860      2.00000
    191     -19.9860      2.00000
    192     -19.9860      2.00000
    193     -19.9860      2.00000
    194     -19.9860      2.00000
    195     -19.9860      2.00000
    196     -19.9859      2.00000
    197     -19.9859      2.00000
    198     -19.9859      2.00000
    199     -19.9859      2.00000
    200     -19.9859      2.00000
    201     -19.9859      2.00000
    202     -19.9859      2.00000
    203     -19.9859      2.00000
    204     -19.9859      2.00000
    205     -19.9859      2.00000
    206     -19.9859      2.00000
    207     -19.9859      2.00000
    208     -19.9859      2.00000
    209     -19.9560      2.00000
    210     -19.9560      2.00000
    211     -19.9560      2.00000
    212     -19.9560      2.00000
    213     -19.9560      2.00000
    214     -19.9560      2.00000
    215     -19.9560      2.00000
    216     -19.9560      2.00000
    217     -19.9560      2.00000
    218     -19.9559      2.00000
    219     -19.9559      2.00000
    220     -19.9559      2.00000
    221     -19.9559      2.00000
    222     -19.9559      2.00000
    223     -19.9559      2.00000
    224     -19.9559      2.00000
    225     -19.9214      2.00000
    226     -19.9214      2.00000
    227     -19.9214      2.00000
    228     -19.9214      2.00000
    229     -19.9214      2.00000
    230     -19.9214      2.00000
    231     -19.9214      2.00000
    232     -19.9214      2.00000
    233     -19.9214      2.00000
    234     -19.9214      2.00000
    235     -19.9214      2.00000
    236     -19.9214      2.00000
    237     -19.9214      2.00000
    238     -19.9214      2.00000
    239     -19.9214      2.00000
    240     -19.9214      2.00000
    241     -19.8725      2.00000
    242     -19.8725      2.00000
    243     -19.8725      2.00000
    244     -19.8725      2.00000
    245     -19.8725      2.00000
    246     -19.8725      2.00000
    247     -19.8725      2.00000
    248     -19.8725      2.00000
    249     -19.8725      2.00000
    250     -19.8725      2.00000
    251     -19.8725      2.00000
    252     -19.8725      2.00000
    253     -19.8725      2.00000
    254     -19.8725      2.00000
    255     -19.8725      2.00000
    256     -19.8725      2.00000
    257     -19.8725      2.00000
    258     -19.8725      2.00000
    259     -19.8724      2.00000
    260     -19.8724      2.00000
    261     -19.8724      2.00000
    262     -19.8724      2.00000
    263     -19.8724      2.00000
    264     -19.8724      2.00000
    265     -19.8448      2.00000
    266     -19.8448      2.00000
    267     -19.8448      2.00000
    268     -19.8448      2.00000
    269     -19.8448      2.00000
    270     -19.8448      2.00000
    271     -19.8448      2.00000
    272     -19.8448      2.00000
    273     -19.8400      2.00000
    274     -19.8400      2.00000
    275     -19.8400      2.00000
    276     -19.8400      2.00000
    277     -19.8400      2.00000
    278     -19.8400      2.00000
    279     -19.8400      2.00000
    280     -19.8400      2.00000
    281     -19.8400      2.00000
    282     -19.8400      2.00000
    283     -19.8400      2.00000
    284     -19.8400      2.00000
    285     -19.8400      2.00000
    286     -19.8400      2.00000
    287     -19.8400      2.00000
    288     -19.8400      2.00000
    289     -19.8400      2.00000
    290     -19.8400      2.00000
    291     -19.8400      2.00000
    292     -19.8400      2.00000
    293     -19.8400      2.00000
    294     -19.8400      2.00000
    295     -19.8400      2.00000
    296     -19.8400      2.00000
    297     -19.7982      2.00000
    298     -19.7982      2.00000
    299     -19.7982      2.00000
    300     -19.7982      2.00000
    301     -19.7982      2.00000
    302     -19.7982      2.00000
    303     -19.7982      2.00000
    304     -19.7981      2.00000
    305     -19.7981      2.00000
    306     -19.7981      2.00000
    307     -19.7981      2.00000
    308     -19.7981      2.00000
    309     -19.7981      2.00000
    310     -19.7981      2.00000
    311     -19.7981      2.00000
    312     -19.7981      2.00000
    313     -19.7981      2.00000
    314     -19.7981      2.00000
    315     -19.7981      2.00000
    316     -19.7981      2.00000
    317     -19.7981      2.00000
    318     -19.7981      2.00000
    319     -19.7981      2.00000
    320     -19.7981      2.00000
    321     -19.7181      2.00000
    322     -19.7181      2.00000
    323     -19.7181      2.00000
    324     -19.7181      2.00000
    325     -19.7181      2.00000
    326     -19.7181      2.00000
    327     -19.7181      2.00000
    328     -19.7181      2.00000
    329     -19.7181      2.00000
    330     -19.7181      2.00000
    331     -19.7181      2.00000
    332     -19.7181      2.00000
    333     -19.7180      2.00000
    334     -19.7180      2.00000
    335     -19.7180      2.00000
    336     -19.7180      2.00000
    337     -19.7180      2.00000
    338     -19.7180      2.00000
    339     -19.7180      2.00000
    340     -19.7180      2.00000
    341     -19.7180      2.00000
    342     -19.7180      2.00000
    343     -19.7180      2.00000
    344     -19.7180      2.00000
    345     -19.7179      2.00000
    346     -19.7179      2.00000
    347     -19.7179      2.00000
    348     -19.7179      2.00000
    349     -19.7179      2.00000
    350     -19.7179      2.00000
    351     -19.7179      2.00000
    352     -19.7179      2.00000
    353     -19.7179      2.00000
    354     -19.7179      2.00000
    355     -19.7179      2.00000
    356     -19.7179      2.00000
    357     -19.7179      2.00000
    358     -19.7179      2.00000
    359     -19.7179      2.00000
    360     -19.7179      2.00000
    361     -19.7163      2.00000
    362     -19.7163      2.00000
    363     -19.7163      2.00000
    364     -19.7163      2.00000
    365     -19.7163      2.00000
    366     -19.7163      2.00000
    367     -19.7163      2.00000
    368     -19.7163      2.00000
    369     -19.7163      2.00000
    370     -19.7163      2.00000
    371     -19.7163      2.00000
    372     -19.7163      2.00000
    373     -19.7162      2.00000
    374     -19.7162      2.00000
    375     -19.7162      2.00000
    376     -19.7162      2.00000
    377     -19.7162      2.00000
    378     -19.7162      2.00000
    379     -19.7162      2.00000
    380     -19.7162      2.00000
    381     -19.7162      2.00000
    382     -19.7162      2.00000
    383     -19.7162      2.00000
    384     -19.7162      2.00000
    385     -19.6874      2.00000
    386     -19.6874      2.00000
    387     -19.6874      2.00000
    388     -19.6874      2.00000
    389     -19.6874      2.00000
    390     -19.6874      2.00000
    391     -19.6873      2.00000
    392     -19.6873      2.00000
    393     -19.6803      2.00000
    394     -19.6803      2.00000
    395     -19.6803      2.00000
    396     -19.6803      2.00000
    397     -19.6803      2.00000
    398     -19.6803      2.00000
    399     -19.6803      2.00000
    400     -19.6803      2.00000
    401     -19.6803      2.00000
    402     -19.6803      2.00000
    403     -19.6803      2.00000
    404     -19.6803      2.00000
    405     -19.6803      2.00000
    406     -19.6803      2.00000
    407     -19.6803      2.00000
    408     -19.6803      2.00000
    409     -19.6803      2.00000
    410     -19.6803      2.00000
    411     -19.6803      2.00000
    412     -19.6803      2.00000
    413     -19.6803      2.00000
    414     -19.6803      2.00000
    415     -19.6803      2.00000
    416     -19.6803      2.00000
    417     -19.6474      2.00000
    418     -19.6474      2.00000
    419     -19.6474      2.00000
    420     -19.6474      2.00000
    421     -19.6474      2.00000
    422     -19.6474      2.00000
    423     -19.6474      2.00000
    424     -19.6474      2.00000
    425     -19.6134      2.00000
    426     -19.6134      2.00000
    427     -19.6134      2.00000
    428     -19.6134      2.00000
    429     -19.6134      2.00000
    430     -19.6134      2.00000
    431     -19.6134      2.00000
    432     -19.6134      2.00000
    433     -19.6134      2.00000
    434     -19.6134      2.00000
    435     -19.6134      2.00000
    436     -19.6134      2.00000
    437     -19.6134      2.00000
    438     -19.6134      2.00000
    439     -19.6133      2.00000
    440     -19.6133      2.00000
    441     -19.6133      2.00000
    442     -19.6133      2.00000
    443     -19.6133      2.00000
    444     -19.6133      2.00000
    445     -19.6133      2.00000
    446     -19.6133      2.00000
    447     -19.6133      2.00000
    448     -19.6133      2.00000
    449     -19.6060      2.00000
    450     -19.6060      2.00000
    451     -19.6060      2.00000
    452     -19.6059      2.00000
    453     -19.6059      2.00000
    454     -19.6059      2.00000
    455     -19.6059      2.00000
    456     -19.6059      2.00000
    457     -19.6059      2.00000
    458     -19.6059      2.00000
    459     -19.6059      2.00000
    460     -19.6059      2.00000
    461     -19.6059      2.00000
    462     -19.6059      2.00000
    463     -19.6059      2.00000
    464     -19.6059      2.00000
    465     -19.6059      2.00000
    466     -19.6059      2.00000
    467     -19.6059      2.00000
    468     -19.6059      2.00000
    469     -19.6059      2.00000
    470     -19.6059      2.00000
    471     -19.6059      2.00000
    472     -19.6059      2.00000
    473     -19.5765      2.00000
    474     -19.5765      2.00000
    475     -19.5765      2.00000
    476     -19.5765      2.00000
    477     -19.5764      2.00000
    478     -19.5764      2.00000
    479     -19.5764      2.00000
    480     -19.5764      2.00000
    481     -19.5764      2.00000
    482     -19.5764      2.00000
    483     -19.5764      2.00000
    484     -19.5764      2.00000
    485     -19.5764      2.00000
    486     -19.5764      2.00000
    487     -19.5764      2.00000
    488     -19.5764      2.00000
    489     -19.5764      2.00000
    490     -19.5764      2.00000
    491     -19.5764      2.00000
    492     -19.5764      2.00000
    493     -19.5763      2.00000
    494     -19.5763      2.00000
    495     -19.5763      2.00000
    496     -19.5763      2.00000
    497     -19.5709      2.00000
    498     -19.5709      2.00000
    499     -19.5709      2.00000
    500     -19.5709      2.00000
    501     -19.5709      2.00000
    502     -19.5709      2.00000
    503     -19.5709      2.00000
    504     -19.5708      2.00000
    505     -19.5708      2.00000
    506     -19.5708      2.00000
    507     -19.5708      2.00000
    508     -19.5708      2.00000
    509     -19.5708      2.00000
    510     -19.5708      2.00000
    511     -19.5708      2.00000
    512     -19.5708      2.00000
    513       2.6487      2.00000
    514       2.6487      2.00000
    515       2.6488      2.00000
    516       2.6488      2.00000
    517       2.6488      2.00000
    518       2.6489      2.00000
    519       2.6489      2.00000
    520       2.6489      2.00000
    521       4.0495      2.00000
    522       4.0495      2.00000
    523       4.0495      2.00000
    524       4.0495      2.00000
    525       4.0495      2.00000
    526       4.0495      2.00000
    527       4.0496      2.00000
    528       4.0496      2.00000
    529       4.0496      2.00000
    530       4.0496      2.00000
    531       4.0496      2.00000
    532       4.0496      2.00000
    533       4.0496      2.00000
    534       4.0496      2.00000
    535       4.0496      2.00000
    536       4.0496      2.00000
    537       4.0496      2.00000
    538       4.0496      2.00000
    539       4.0497      2.00000
    540       4.0497      2.00000
    541       4.0497      2.00000
    542       4.0497      2.00000
    543       4.0497      2.00000
    544       4.0497      2.00000
    545       4.7065      2.00000
    546       4.7065      2.00000
    547       4.7065      2.00000
    548       4.7065      2.00000
    549       4.7065      2.00000
    550       4.7065      2.00000
    551       4.7065      2.00000
    552       4.7065      2.00000
    553       4.7065      2.00000
    554       4.7065      2.00000
    555       4.7065      2.00000
    556       4.7065      2.00000
    557       4.7066      2.00000
    558       4.7066      2.00000
    559       4.7066      2.00000
    560       4.7066      2.00000
    561       4.7066      2.00000
    562       4.7066      2.00000
    563       4.7066      2.00000
    564       4.7066      2.00000
    565       4.7066      2.00000
    566       4.7066      2.00000
    567       4.7066      2.00000
    568       4.7066      2.00000
    569       5.2375      2.00000
    570       5.2375      2.00000
    571       5.2375      2.00000
    572       5.2375      2.00000
    573       5.2375      2.00000
    574       5.2375      2.00000
    575       5.2375      2.00000
    576       5.2375      2.00000
    577       5.2375      2.00000
    578       5.2375      2.00000
    579       5.2375      2.00000
    580       5.2375      2.00000
    581       5.2376      2.00000
    582       5.2376      2.00000
    583       5.2376      2.00000
    584       5.2376      2.00000
    585       5.2376      2.00000
    586       5.2376      2.00000
    587       5.2376      2.00000
    588       5.2376      2.00000
    589       5.2376      2.00000
    590       5.2376      2.00000
    591       5.2376      2.00000
    592       5.2376      2.00000
    593       5.4723      2.00000
    594       5.4723      2.00000
    595       5.4724      2.00000
    596       5.4724      2.00000
    597       5.4724      2.00000
    598       5.4724      2.00000
    599       5.4724      2.00000
    600       5.4724      2.00000
    601       5.4725      2.00000
    602       5.4725      2.00000
    603       5.4725      2.00000
    604       5.4725      2.00000
    605       5.4725      2.00000
    606       5.4725      2.00000
    607       5.4726      2.00000
    608       5.4726      2.00000
    609       5.6051      2.00000
    610       5.6051      2.00000
    611       5.6051      2.00000
    612       5.6051      2.00000
    613       5.6052      2.00000
    614       5.6052      2.00000
    615       5.6052      2.00000
    616       5.6052      2.00000
    617       5.6052      2.00000
    618       5.6052      2.00000
    619       5.6052      2.00000
    620       5.6052      2.00000
    621       5.6052      2.00000
    622       5.6052      2.00000
    623       5.6052      2.00000
    624       5.6052      2.00000
    625       5.6053      2.00000
    626       5.6053      2.00000
    627       5.6053      2.00000
    628       5.6053      2.00000
    629       5.6053      2.00000
    630       5.6053      2.00000
    631       5.6053      2.00000
    632       5.6053      2.00000
    633       5.9664      2.00000
    634       5.9664      2.00000
    635       5.9664      2.00000
    636       5.9664      2.00000
    637       5.9664      2.00000
    638       5.9664      2.00000
    639       5.9664      2.00000
    640       5.9664      2.00000
    641       5.9970      2.00000
    642       5.9970      2.00000
    643       5.9970      2.00000
    644       5.9970      2.00000
    645       5.9970      2.00000
    646       5.9970      2.00000
    647       5.9970      2.00000
    648       5.9970      2.00000
    649       6.2346      2.00000
    650       6.2346      2.00000
    651       6.2346      2.00000
    652       6.2346      2.00000
    653       6.2346      2.00000
    654       6.2346      2.00000
    655       6.2346      2.00000
    656       6.2346      2.00000
    657       6.2347      2.00000
    658       6.2347      2.00000
    659       6.2347      2.00000
    660       6.2347      2.00000
    661       6.2347      2.00000
    662       6.2347      2.00000
    663       6.2347      2.00000
    664       6.2347      2.00000
    665       6.2347      2.00000
    666       6.2347      2.00000
    667       6.2347      2.00000
    668       6.2347      2.00000
    669       6.2347      2.00000
    670       6.2348      2.00000
    671       6.2348      2.00000
    672       6.2348      2.00000
    673       6.4415      2.00024
    674       6.4415      2.00024
    675       6.4415      2.00024
    676       6.4415      2.00024
    677       6.4415      2.00024
    678       6.4415      2.00024
    679       6.4415      2.00024
    680       6.4415      2.00024
    681       6.4415      2.00024
    682       6.4415      2.00024
    683       6.4415      2.00024
    684       6.4415      2.00024
    685       6.4415      2.00024
    686       6.4415      2.00024
    687       6.4415      2.00024
    688       6.4415      2.00024
    689       6.6757      2.02991
    690       6.6757      2.02991
    691       6.6757      2.02991
    692       6.6757      2.02991
    693       6.6757      2.02991
    694       6.6757      2.02991
    695       6.6757      2.02991
    696       6.6757      2.02991
    697       6.6757      2.02991
    698       6.6757      2.02991
    699       6.6757      2.02991
    700       6.6757      2.02991
    701       6.6757      2.02991
    702       6.6757      2.02991
    703       6.6757      2.02991
    704       6.6757      2.02991
    705       6.6857      2.03399
    706       6.6857      2.03399
    707       6.6857      2.03399
    708       6.6857      2.03399
    709       6.6857      2.03400
    710       6.6857      2.03400
    711       6.6857      2.03400
    712       6.6858      2.03401
    713       6.6858      2.03401
    714       6.6858      2.03401
    715       6.6858      2.03401
    716       6.6858      2.03401
    717       6.6858      2.03402
    718       6.6858      2.03402
    719       6.6858      2.03402
    720       6.6858      2.03402
    721       6.6858      2.03402
    722       6.6858      2.03402
    723       6.6858      2.03403
    724       6.6858      2.03403
    725       6.6858      2.03404
    726       6.6858      2.03404
    727       6.6858      2.03404
    728       6.6858      2.03404
    729       6.8277      2.05530
    730       6.8277      2.05530
    731       6.8277      2.05530
    732       6.8277      2.05529
    733       6.8277      2.05528
    734       6.8277      2.05528
    735       6.8277      2.05527
    736       6.8277      2.05527
    737       6.8277      2.05526
    738       6.8277      2.05526
    739       6.8278      2.05526
    740       6.8278      2.05526
    741       6.8278      2.05524
    742       6.8278      2.05524
    743       6.8278      2.05524
    744       6.8278      2.05523
    745       6.8278      2.05523
    746       6.8278      2.05523
    747       6.8278      2.05522
    748       6.8278      2.05521
    749       6.8278      2.05521
    750       6.8278      2.05521
    751       6.8278      2.05520
    752       6.8278      2.05520
    753       7.1688      0.09518
    754       7.1688      0.09517
    755       7.1688      0.09513
    756       7.1688      0.09513
    757       7.1688      0.09511
    758       7.1688      0.09510
    759       7.1688      0.09508
    760       7.1688      0.09507
    761       7.1688      0.09507
    762       7.1689      0.09505
    763       7.1689      0.09503
    764       7.1689      0.09501
    765       7.1689      0.09498
    766       7.1689      0.09496
    767       7.1689      0.09494
    768       7.1689      0.09493
    769       7.1689      0.09492
    770       7.1689      0.09491
    771       7.1689      0.09489
    772       7.1689      0.09488
    773       7.1689      0.09485
    774       7.1689      0.09485
    775       7.1689      0.09482
    776       7.1689      0.09481
    777       7.1922      0.02184
    778       7.1922      0.02184
    779       7.1922      0.02183
    780       7.1922      0.02182
    781       7.1922      0.02177
    782       7.1922      0.02177
    783       7.1923      0.02173
    784       7.1923      0.02173
    785       7.1923      0.02172
    786       7.1923      0.02171
    787       7.1923      0.02169
    788       7.1923      0.02169
    789       7.1923      0.02165
    790       7.1923      0.02165
    791       7.1923      0.02163
    792       7.1923      0.02162
    793       7.1923      0.02162
    794       7.1923      0.02161
    795       7.1923      0.02158
    796       7.1923      0.02157
    797       7.1923      0.02152
    798       7.1923      0.02152
    799       7.1924      0.02151
    800       7.1924      0.02150
    801       7.2487     -0.06296
    802       7.2487     -0.06296
    803       7.2487     -0.06296
    804       7.2487     -0.06297
    805       7.2487     -0.06298
    806       7.2487     -0.06298
    807       7.2487     -0.06298
    808       7.2487     -0.06298
    809       7.2487     -0.06299
    810       7.2487     -0.06299
    811       7.2488     -0.06299
    812       7.2488     -0.06299
    813       7.2488     -0.06300
    814       7.2488     -0.06300
    815       7.2488     -0.06301
    816       7.2488     -0.06301
    817       7.2488     -0.06301
    818       7.2488     -0.06301
    819       7.2488     -0.06302
    820       7.2488     -0.06302
    821       7.2488     -0.06303
    822       7.2488     -0.06303
    823       7.2488     -0.06303
    824       7.2488     -0.06303
    825       7.4301     -0.01673
    826       7.4302     -0.01673
    827       7.4302     -0.01673
    828       7.4302     -0.01673
    829       7.4302     -0.01673
    830       7.4302     -0.01673
    831       7.4302     -0.01673
    832       7.4302     -0.01673
    833       7.4302     -0.01673
    834       7.4302     -0.01672
    835       7.4302     -0.01672
    836       7.4302     -0.01672
    837       7.4302     -0.01672
    838       7.4302     -0.01672
    839       7.4302     -0.01672
    840       7.4302     -0.01672
    841       7.4302     -0.01672
    842       7.4302     -0.01671
    843       7.4302     -0.01671
    844       7.4302     -0.01671
    845       7.4302     -0.01671
    846       7.4302     -0.01671
    847       7.4302     -0.01671
    848       7.4302     -0.01671
    849       7.6768     -0.00005
    850       7.6768     -0.00005
    851       7.6768     -0.00005
    852       7.6768     -0.00005
    853       7.6768     -0.00005
    854       7.6768     -0.00005
    855       7.6768     -0.00005
    856       7.6768     -0.00005
    857       7.6769     -0.00005
    858       7.6769     -0.00005
    859       7.6769     -0.00005
    860       7.6769     -0.00005
    861       7.6769     -0.00005
    862       7.6769     -0.00005
    863       7.6769     -0.00005
    864       7.6769     -0.00005
    865       7.7914     -0.00000
    866       7.7914     -0.00000
    867       7.7914     -0.00000
    868       7.7914     -0.00000
    869       7.7914     -0.00000
    870       7.7914     -0.00000
    871       7.7914     -0.00000
    872       7.7914     -0.00000
    873       7.7914     -0.00000
    874       7.7914     -0.00000
    875       7.7914     -0.00000
    876       7.7914     -0.00000
    877       7.7914     -0.00000
    878       7.7914     -0.00000
    879       7.7914     -0.00000
    880       7.7914     -0.00000
    881       7.7914     -0.00000
    882       7.7914     -0.00000
    883       7.7914     -0.00000
    884       7.7914     -0.00000
    885       7.7914     -0.00000
    886       7.7914     -0.00000
    887       7.7914     -0.00000
    888       7.7914     -0.00000
    889       8.7473     -0.00000
    890       8.7473     -0.00000
    891       8.7473     -0.00000
    892       8.7473     -0.00000
    893       8.7474     -0.00000
    894       8.7474     -0.00000
    895       8.7474     -0.00000
    896       8.7474     -0.00000
    897       9.0058     -0.00000
    898       9.0063     -0.00000
    899       9.0072     -0.00000
    900       9.0129     -0.00000
    901       9.0199     -0.00000
    902       9.0199     -0.00000
    903       9.0200     -0.00000
    904       9.0200     -0.00000
    905       9.0200     -0.00000
    906       9.0200     -0.00000
    907       9.0200     -0.00000
    908       9.0200     -0.00000
    909       9.0200     -0.00000
    910       9.0200     -0.00000
    911       9.0200     -0.00000
    912       9.0200     -0.00000
    913       9.0200     -0.00000
    914       9.0200     -0.00000
    915       9.0200     -0.00000
    916       9.0200     -0.00000
    917       9.0200     -0.00000
    918       9.0200     -0.00000
    919       9.0200     -0.00000
    920       9.0200     -0.00000
    921       9.0200     -0.00000
    922       9.0200     -0.00000
    923       9.0201     -0.00000
    924       9.0201     -0.00000


--------------------------------------------------------------------------------------------------------


 soft charge-density along one line, spin component            1
         0         1         2         3         4         5         6         7         8         9
 total charge-density along one line
 
 pseudopotential strength for first ion, spin component:            1
 13.909 -27.163   0.000   0.000  -0.000  -0.000  -0.000   0.000
-27.163  14.776   0.000   0.000  -0.000  -0.000  -0.000   0.000
  0.000   0.000  -6.595   0.000  -0.000   5.498  -0.000   0.000
  0.000   0.000   0.000  -6.595  -0.000  -0.000   5.498   0.000
 -0.000  -0.000  -0.000  -0.000  -6.595   0.000   0.000   5.498
 -0.000  -0.000   5.498  -0.000   0.000   8.051   0.000  -0.000
 -0.000  -0.000  -0.000   5.498   0.000   0.000   8.051  -0.000
  0.000   0.000   0.000   0.000   5.498  -0.000  -0.000   8.051
 -0.000  -0.000  -0.000   0.000   0.000   0.000  -0.000  -0.000
  0.000   0.000   0.000   0.000   0.000  -0.000  -0.000  -0.000
 -0.000  -0.000  -0.000   0.000   0.000   0.000  -0.000  -0.000
 -0.000  -0.000   0.000  -0.000   0.000  -0.000   0.000  -0.000
  0.000   0.000  -0.000  -0.000  -0.000   0.000   0.000   0.000
 -0.000  -0.000  -0.000   0.000   0.000   0.000  -0.000  -0.000
  0.000   0.000   0.000   0.000   0.000  -0.000  -0.000  -0.000
 -0.000  -0.000  -0.000   0.000   0.000   0.000  -0.000  -0.000
 -0.000  -0.000   0.000  -0.000   0.000  -0.000   0.000  -0.000
  0.000   0.000  -0.000  -0.000  -0.000   0.000   0.000   0.000
 total augmentation occupancy for first ion, spin component:            1
  1.998  -0.035   0.000  -0.000   0.000   0.000  -0.000  -0.000  -0.000  -0.000  -0.000  -0.000   0.000   0.000   0.000  -0.000
 -0.035   1.264   0.000  -0.000   0.000   0.000   0.000   0.000  -0.000  -0.000  -0.000  -0.000   0.000   0.000   0.000   0.000
  0.000   0.000   2.001  -0.000  -0.000  -0.029   0.000   0.000  -0.000   0.000   0.000   0.000  -0.000  -0.000   0.000  -0.000
 -0.000  -0.000  -0.000   2.001  -0.000   0.000  -0.029   0.000   0.000   0.000  -0.000  -0.000  -0.000   0.000   0.000  -0.000
  0.000   0.000  -0.000  -0.000   2.001   0.000   0.000  -0.029   0.000  -0.000   0.000  -0.000   0.000  -0.000   0.000   0.000
  0.000  -0.000  -0.029   0.000   0.000   0.029  -0.000  -0.000   0.000  -0.000   0.000   0.000  -0.000  -0.000   0.000   0.000
 -0.000   0.000   0.000  -0.029   0.000  -0.000   0.029  -0.000  -0.000  -0.000   0.000   0.000  -0.000  -0.000  -0.000   0.000
 -0.000   0.000   0.000   0.000  -0.029  -0.000  -0.000   0.029   0.000   0.000  -0.000   0.000  -0.000   0.000  -0.000   0.000
 -0.000  -0.000  -0.000   0.000   0.000   0.000  -0.000  -0.000   2.190  -0.000   0.000  -0.000   0.000  -0.947   0.000  -0.000
 -0.000  -0.000   0.000   0.000  -0.000   0.000   0.000   0.000  -0.000   2.190  -0.000  -0.000   0.000   0.000  -0.947   0.000
 -0.000  -0.000   0.000  -0.000  -0.000   0.000   0.000   0.000   0.000  -0.000   2.340  -0.000  -0.000  -0.000   0.000  -1.072
 -0.000  -0.000   0.000  -0.000   0.000   0.000   0.000   0.000  -0.000  -0.000  -0.000   2.190  -0.000   0.000   0.000   0.000
  0.000   0.000  -0.000   0.000  -0.000  -0.000   0.000   0.000   0.000   0.000  -0.000  -0.000   2.340  -0.000  -0.000   0.000
  0.000   0.000  -0.000  -0.000  -0.000  -0.000  -0.000  -0.000  -0.947   0.000  -0.000   0.000  -0.000   0.422  -0.000   0.000
  0.000   0.000   0.000   0.000  -0.000   0.000  -0.000  -0.000   0.000  -0.947   0.000   0.000  -0.000  -0.000   0.422  -0.000
 -0.000   0.000  -0.000  -0.000  -0.000  -0.000  -0.000   0.000  -0.000   0.000  -1.072   0.000   0.000   0.000  -0.000   0.497
  0.000   0.000  -0.000   0.000  -0.000   0.000  -0.000  -0.000   0.000   0.000   0.000  -0.947   0.000  -0.000  -0.000  -0.000
 -0.000  -0.000  -0.000  -0.000   0.000   0.000  -0.000  -0.000  -0.000  -0.000   0.000   0.000  -1.072   0.000   0.000  -0.000


------------------------ aborting loop because EDIFF is reached ----------------------------------------


    CHARGE:  cpu time      0.5364: real time      0.3858
    FORLOC:  cpu time      0.0157: real time      0.0018
    FORNL :  cpu time      0.9057: real time      0.7136
    STRESS:  cpu time      2.2770: real time      1.7724
    FORCOR:  cpu time      0.0374: real time      0.0087
    FORHAR:  cpu time      0.0025: real time      0.0024
    MIXING:  cpu time      0.0616: real time      0.0077
    OFIELD:  cpu time      0.0002: real time      0.0000

  FORCE on cell =-STRESS in cart. coord.  units (eV):
  Direction    XX          YY          ZZ          XY          YZ          ZX
  --------------------------------------------------------------------------------------
  Alpha Z  6189.11054  6189.11054  6189.11054
  Ewald  -42343.04322-42343.04292-42343.04306     0.00239     0.00016     0.00233
  Hartree 10100.90080 10100.90012 10100.90043    -0.00019    -0.00001    -0.00019
  E(xc)   -6435.63249 -6435.63251 -6435.63250    -0.00002    -0.00000    -0.00002
  Local    4602.73376  4602.73622  4602.73508     0.00047     0.00003     0.00046
  n-local -1683.42592 -1692.76463 -1712.26896    -0.00038    -0.00001    -0.00040
  augment   385.64410   385.64399   385.64404    -0.00012    -0.00001    -0.00012
  Kinetic 28894.82663 28930.86166 28958.59105     0.00068     0.00004     0.00072
  Fock        0.00000     0.00000     0.00000     0.00000     0.00000     0.00000
  -------------------------------------------------------------------------------------
  Total    -268.34558  -268.34556  -268.34557     0.00002     0.00000     0.00002
  in kB    -122.23567  -122.23566  -122.23567     0.00001     0.00000     0.00001
  external pressure =     -122.24 kB  Pullay stress =        0.00 kB


 VOLUME and BASIS-vectors are now :
 -----------------------------------------------------------------------------
  energy-cutoff  :      350.00
  volume of cell :     3517.28
      direct lattice vectors                 reciprocal lattice vectors
    15.207892391 -0.000000696 -0.000000690     0.065755331  0.000000003  0.000000003
    -0.000000706 15.207891746 -0.000000044     0.000000003  0.065755334  0.000000000
    -0.000000675 -0.000000047 15.207892044     0.000000003  0.000000000  0.065755333

  length of vectors
    15.207892391 15.207891746 15.207892044     0.065755331  0.065755334  0.065755333


 FORCES acting on ions
    electron-ion (+dipol)            ewald-force                    non-local-force                 convergence-correction
 -----------------------------------------------------------------------------------------------
   -.298E-03 0.179E-03 0.607E-03   -.341E-03 0.230E-03 0.424E-03   0.876E-21 0.404E-21 0.404E-21   0.399E-05 -.276E-05 0.105E-05
   0.282E-03 -.327E-03 -.116E-03   -.609E-04 -.243E-03 -.164E-03   0.311E-21 -.106E-21 0.245E-21   -.642E-06 0.323E-05 0.913E-06
   -.106E-02 -.290E-02 0.118E-03   -.554E-03 -.118E-02 0.899E-04   0.366E-21 0.140E-20 -.397E-22   0.565E-05 0.148E-05 -.109E-05
   0.177E-02 0.164E-03 0.637E-03   0.926E-03 -.854E-04 0.269E-03   0.137E-20 0.182E-21 0.910E-23   -.353E-05 0.323E-05 -.864E-06
   -.859E-03 0.117E-03 -.214E-03   -.582E-03 0.994E-05 -.998E-05   -.162E-20 -.195E-21 -.165E-21   -.130E-06 -.570E-06 0.663E-06
   -.476E-03 0.476E-04 -.580E-03   -.467E-03 0.556E-04 -.197E-03   0.111E-21 -.169E-21 0.104E-20   0.584E-05 -.118E-05 -.124E-05
   -.169E-02 -.835E-03 -.514E-03   -.925E-03 -.363E-03 -.224E-03   0.298E-21 0.794E-22 0.251E-21   0.374E-05 0.214E-05 -.136E-05
   0.786E-03 0.864E-03 0.869E-03   0.359E-03 0.324E-03 0.329E-03   -.761E-21 -.473E-21 0.801E-21   -.489E-05 -.274E-05 0.395E-06
   0.139E-02 0.547E-03 -.348E-03   0.682E-03 0.334E-03 -.247E-03   -.255E-21 -.199E-22 -.725E-21   -.642E-05 -.356E-05 -.607E-06
   -.514E-03 0.514E-03 0.603E-03   -.116E-03 0.139E-03 0.219E-03   -.124E-20 -.397E-21 -.693E-21   -.112E-05 -.814E-06 -.265E-06
   -.923E-03 -.927E-04 0.428E-04   -.449E-03 -.768E-04 0.599E-04   -.714E-21 -.655E-21 0.844E-21   -.652E-06 0.532E-06 -.913E-06
   -.159E-02 0.404E-03 0.110E-03   -.717E-03 0.400E-03 0.205E-04   0.508E-21 0.754E-21 0.854E-21   0.437E-05 -.955E-06 -.807E-06
   0.173E-02 0.789E-04 0.130E-02   0.567E-03 0.231E-04 0.547E-03   -.370E-23 0.613E-21 0.414E-22   -.414E-05 0.187E-05 0.446E-06
   -.150E-02 -.494E-03 0.208E-03   -.640E-03 -.330E-03 -.894E-04   0.117E-20 0.731E-21 0.112E-21   0.349E-05 0.760E-06 -.519E-06
   0.100E-03 -.616E-03 0.406E-03   -.797E-04 -.259E-03 0.116E-03   0.228E-21 -.629E-22 -.212E-21   -.514E-06 0.334E-05 -.579E-06
   0.912E-04 0.117E-02 0.481E-03   0.224E-03 0.422E-03 0.973E-04   -.621E-22 0.398E-21 0.969E-21   -.355E-06 -.320E-05 -.389E-06
   0.468E-03 0.530E-03 0.200E-03   -.410E-04 0.273E-03 -.818E-05   -.125E-20 -.698E-21 0.409E-21   0.636E-06 -.289E-05 -.739E-07
   -.439E-03 0.706E-04 -.157E-03   -.381E-03 -.624E-04 -.832E-04   0.659E-21 -.701E-21 -.119E-21   -.657E-06 0.103E-05 0.632E-06
   -.272E-03 -.115E-02 -.737E-03   -.405E-04 -.634E-03 -.282E-03   0.292E-21 0.171E-20 -.549E-21   0.460E-05 0.226E-05 -.184E-05
   0.147E-02 -.169E-02 -.452E-03   0.595E-03 -.536E-03 -.252E-03   -.266E-21 -.627E-21 0.107E-20   -.456E-05 0.157E-05 -.748E-07
   -.908E-03 -.192E-02 -.564E-03   -.568E-03 -.775E-03 -.239E-03   -.520E-21 -.594E-21 -.982E-22   0.596E-05 0.220E-05 -.858E-06
   -.222E-02 -.120E-03 -.297E-03   -.108E-02 -.664E-04 -.175E-03   0.102E-21 -.583E-21 -.695E-22   0.418E-05 -.278E-05 0.239E-06
   0.120E-02 0.426E-03 -.608E-04   0.376E-03 0.174E-03 -.193E-04   0.130E-20 0.553E-21 0.744E-21   0.113E-05 -.292E-05 -.755E-06
   0.115E-02 0.310E-03 0.151E-02   0.498E-03 0.218E-03 0.633E-03   -.339E-21 -.351E-21 0.653E-21   -.607E-05 -.492E-06 0.129E-05
   0.113E-02 0.669E-04 -.107E-02   0.693E-03 -.142E-03 -.392E-03   -.143E-21 -.238E-21 -.111E-21   -.607E-05 -.963E-06 0.202E-07
   0.903E-04 0.529E-03 0.868E-03   0.137E-03 0.189E-03 0.417E-03   -.644E-21 -.102E-20 0.351E-21   -.408E-05 0.211E-05 0.228E-06
   0.901E-03 -.442E-04 -.514E-03   0.257E-03 -.949E-05 -.182E-03   0.127E-20 0.123E-20 0.450E-21   0.135E-05 -.527E-06 -.276E-06
   -.150E-02 0.540E-03 0.144E-02   -.753E-03 0.309E-03 0.662E-03   -.106E-21 0.202E-21 0.543E-21   0.582E-05 -.508E-06 0.657E-06
   0.982E-03 -.182E-02 -.788E-03   0.484E-03 -.658E-03 -.338E-03   0.167E-20 0.398E-21 -.477E-21   -.383E-05 0.136E-05 -.965E-08
   0.167E-04 -.190E-02 -.886E-03   0.142E-03 -.805E-03 -.360E-03   0.118E-22 -.141E-20 0.354E-21   -.496E-05 0.212E-05 0.624E-06
   0.542E-03 -.870E-03 -.335E-03   0.299E-03 -.354E-03 0.135E-04   0.521E-21 0.134E-20 -.371E-21   0.240E-06 0.294E-05 -.104E-05
   0.659E-03 -.115E-02 -.221E-03   0.424E-03 -.670E-03 -.262E-03   -.535E-21 -.113E-20 -.301E-21   -.599E-05 0.247E-05 -.589E-07
   0.645E-03 0.194E-02 0.236E-03   0.381E-03 0.747E-03 -.195E-04   -.917E-21 -.121E-20 0.149E-21   -.503E-05 -.901E-06 0.924E-06
   -.242E-03 -.111E-02 -.989E-03   -.199E-03 -.329E-03 -.347E-03   0.150E-21 0.353E-21 -.724E-21   0.532E-05 -.193E-05 0.395E-06
   0.155E-02 -.231E-03 0.109E-03   0.595E-03 -.253E-04 -.188E-04   -.132E-22 0.189E-21 -.331E-22   0.168E-05 -.642E-06 -.735E-06
   -.150E-02 0.533E-04 -.219E-02   -.629E-03 0.151E-03 -.898E-03   0.993E-21 0.364E-21 -.245E-21   0.585E-05 -.951E-06 -.807E-06
   0.109E-02 -.484E-03 -.117E-03   0.515E-03 -.156E-03 0.798E-05   0.602E-21 -.754E-21 0.721E-21   -.408E-05 -.211E-05 -.671E-06
   -.188E-02 0.157E-02 0.259E-03   -.753E-03 0.740E-03 0.149E-03   0.544E-21 0.422E-21 0.840E-21   0.598E-05 -.182E-05 -.692E-06
   -.181E-02 -.625E-03 -.740E-03   -.730E-03 -.376E-03 -.348E-03   -.723E-21 -.413E-21 -.273E-21   0.384E-05 0.262E-05 -.876E-07
   -.233E-02 -.517E-03 -.142E-03   -.878E-03 -.269E-03 -.141E-03   -.451E-21 -.976E-22 0.500E-22   0.627E-05 -.368E-05 0.683E-06
   0.152E-02 -.254E-03 -.122E-02   0.777E-03 -.185E-03 -.651E-03   -.274E-22 0.205E-21 -.208E-21   -.609E-05 0.466E-06 -.685E-06
   -.790E-05 -.163E-02 -.256E-04   -.167E-05 -.660E-03 -.293E-04   -.911E-21 -.218E-21 -.766E-21   -.450E-05 0.997E-06 0.518E-06
   0.161E-02 -.190E-03 0.107E-02   0.644E-03 -.167E-03 0.491E-03   -.867E-21 -.681E-21 0.275E-21   -.406E-05 0.254E-05 0.134E-05
   0.134E-02 0.145E-02 0.247E-03   0.593E-03 0.452E-03 0.208E-03   0.154E-21 -.260E-21 -.222E-21   -.572E-05 0.427E-05 -.690E-06
   -.179E-02 0.206E-03 0.123E-02   -.952E-03 0.241E-03 0.420E-03   0.354E-21 0.837E-21 -.513E-21   0.575E-05 -.387E-06 0.139E-05
   -.361E-03 0.822E-03 -.269E-03   -.183E-03 0.270E-03 -.195E-03   0.233E-21 -.146E-21 -.562E-21   0.523E-05 -.242E-05 -.800E-06
   -.151E-02 -.431E-03 -.837E-03   -.740E-03 -.216E-03 -.300E-03   0.735E-21 -.103E-21 -.766E-21   0.606E-05 -.320E-05 -.129E-06
   -.136E-02 0.957E-03 -.131E-03   -.729E-03 0.299E-03 -.220E-04   0.361E-21 0.510E-21 -.810E-21   0.424E-05 0.193E-05 0.719E-06
   -.887E-03 -.392E-04 -.100E-03   -.350E-03 -.632E-04 0.268E-04   0.426E-22 -.397E-22 0.897E-21   -.169E-06 0.303E-05 -.878E-06
   -.645E-03 -.137E-04 0.301E-03   -.241E-03 0.547E-05 0.179E-03   0.230E-21 0.248E-21 -.147E-21   -.949E-07 0.485E-06 0.126E-06
   0.267E-03 0.534E-03 0.427E-03   0.905E-04 0.190E-03 0.206E-03   0.716E-21 0.442E-21 -.158E-20   0.757E-06 -.274E-05 0.253E-06
   -.744E-03 -.148E-03 -.537E-03   -.533E-03 -.511E-04 -.270E-03   -.343E-21 0.630E-21 -.342E-21   0.420E-05 -.191E-05 0.475E-07
   0.615E-03 0.930E-04 -.411E-03   0.400E-03 0.203E-03 -.142E-03   0.139E-20 0.109E-21 -.695E-22   -.481E-07 -.326E-05 0.773E-06
   0.194E-02 -.127E-02 -.823E-03   0.907E-03 -.452E-03 -.361E-03   0.149E-21 -.946E-21 -.248E-21   -.350E-05 0.260E-05 -.884E-06
   0.145E-02 0.107E-03 -.856E-03   0.545E-03 0.157E-03 -.215E-03   -.662E-21 -.425E-21 -.412E-21   -.505E-05 -.319E-05 -.111E-05
   -.144E-03 -.486E-03 -.370E-03   -.505E-04 -.308E-03 -.162E-03   0.264E-21 0.437E-21 0.553E-21   0.473E-05 0.923E-06 -.674E-06
   -.121E-02 -.563E-03 -.119E-02   -.683E-03 -.397E-03 -.600E-03   -.110E-20 0.156E-21 -.480E-21   0.646E-05 0.348E-06 0.401E-06
   -.207E-02 0.303E-03 -.974E-03   -.848E-03 -.595E-04 -.445E-03   0.320E-21 0.298E-21 0.807E-22   0.618E-05 0.696E-06 -.125E-05
   0.969E-03 0.735E-05 -.411E-03   0.558E-03 0.328E-04 -.195E-03   0.354E-21 0.290E-21 0.993E-23   0.129E-05 0.584E-06 0.765E-06
   -.155E-02 0.127E-02 0.540E-03   -.760E-03 0.658E-03 0.285E-03   0.692E-21 0.960E-21 0.447E-21   0.304E-05 -.224E-05 -.506E-06
   0.378E-03 -.899E-04 0.107E-03   0.386E-03 0.947E-04 0.104E-03   0.822E-22 0.840E-21 -.458E-21   -.601E-05 -.424E-06 -.292E-06
   0.334E-03 0.422E-05 0.103E-02   0.475E-04 -.208E-04 0.362E-03   -.745E-21 0.356E-21 -.364E-22   -.481E-05 0.299E-05 -.374E-06
   0.157E-02 -.127E-03 -.126E-04   0.761E-03 -.752E-04 0.664E-04   -.440E-21 0.104E-21 -.467E-21   -.416E-05 -.233E-05 -.104E-05
   -.115E-02 0.465E-03 0.928E-03   -.585E-03 0.310E-03 0.407E-03   0.409E-21 -.230E-22 0.181E-21   0.386E-05 -.756E-06 0.214E-06
   0.159E-02 0.177E-02 0.719E-03   0.726E-03 0.542E-03 0.180E-03   0.131E-21 0.352E-21 -.708E-22   -.474E-05 -.152E-05 0.780E-06
   0.982E-03 0.398E-03 0.452E-03   0.639E-03 0.317E-03 0.253E-03   -.436E-21 -.662E-21 -.685E-21   -.661E-05 0.104E-05 0.141E-05
   0.119E-02 -.323E-03 -.538E-03   0.618E-03 -.249E-03 -.340E-03   0.624E-21 -.145E-21 -.319E-21   -.606E-05 -.876E-06 -.102E-05
   0.209E-02 0.102E-02 0.480E-03   0.109E-02 0.546E-03 0.713E-04   0.648E-21 0.142E-21 -.927E-21   -.399E-05 -.237E-05 0.873E-06
   -.188E-02 0.321E-03 0.140E-02   -.891E-03 -.562E-04 0.598E-03   -.524E-21 0.797E-21 0.689E-21   0.590E-05 0.108E-05 0.138E-05
   -.613E-03 -.539E-03 0.490E-03   -.325E-03 -.115E-03 0.198E-03   0.677E-22 -.116E-20 0.154E-21   0.184E-06 -.725E-06 0.347E-06
   -.973E-03 -.164E-03 0.181E-02   -.576E-03 -.762E-04 0.704E-03   -.266E-21 0.832E-21 0.344E-21   0.393E-05 0.257E-05 0.342E-06
   0.411E-03 -.726E-03 -.835E-03   0.150E-03 -.311E-03 -.361E-03   -.755E-21 -.245E-21 0.344E-21   -.456E-05 0.245E-05 -.108E-05
   -.183E-02 0.960E-03 0.250E-03   -.774E-03 0.435E-03 -.116E-04   0.300E-21 0.637E-21 0.562E-21   0.603E-05 0.372E-05 0.112E-05
   -.823E-03 0.845E-04 0.230E-03   -.497E-03 0.132E-03 0.162E-03   -.380E-21 0.321E-21 -.576E-21   0.584E-05 0.308E-05 0.828E-06
   0.831E-03 -.160E-02 -.252E-03   0.575E-03 -.615E-03 -.154E-03   -.245E-21 -.509E-21 0.213E-21   -.600E-05 -.299E-07 -.142E-05
   -.448E-03 0.838E-03 -.132E-03   -.369E-03 0.477E-03 0.783E-04   -.499E-21 0.321E-21 0.159E-21   0.431E-05 -.802E-06 -.111E-05
   -.282E-03 0.921E-03 0.562E-03   -.576E-04 0.389E-03 0.203E-03   0.731E-21 0.662E-22 -.956E-21   -.770E-06 -.290E-05 -.750E-06
   0.395E-03 -.154E-03 -.511E-03   0.317E-03 -.158E-03 -.172E-03   0.127E-21 0.900E-21 -.703E-21   -.452E-05 -.252E-05 -.828E-06
   -.110E-02 0.719E-03 -.422E-03   -.567E-03 0.380E-03 -.311E-03   0.252E-21 -.728E-22 0.893E-21   0.336E-05 -.262E-05 -.806E-06
   -.144E-02 0.889E-04 0.171E-03   -.515E-03 0.147E-04 0.927E-04   -.856E-21 -.698E-21 -.285E-21   -.151E-05 -.107E-05 -.716E-06
   0.994E-03 0.195E-03 0.252E-03   0.436E-03 0.625E-04 -.454E-04   -.129E-21 0.257E-21 0.852E-21   -.633E-05 -.382E-05 -.888E-06
   -.945E-03 -.651E-03 -.459E-03   -.520E-03 -.148E-03 -.824E-04   -.675E-21 -.236E-20 -.993E-23   -.113E-05 0.802E-06 0.112E-05
   0.651E-03 0.192E-03 0.115E-03   0.485E-03 0.789E-05 -.405E-04   0.705E-21 0.324E-21 -.114E-21   0.851E-06 0.658E-06 0.216E-07
   0.787E-03 -.302E-03 -.148E-03   0.427E-03 0.509E-04 -.585E-04   -.387E-21 0.728E-21 0.543E-21   -.355E-05 0.240E-05 -.736E-06
   -.312E-03 0.636E-03 -.371E-03   -.305E-03 0.391E-03 -.168E-03   0.267E-21 -.793E-21 -.768E-21   0.253E-06 -.262E-05 0.576E-06
   0.153E-03 0.150E-02 0.673E-03   0.295E-03 0.563E-03 0.225E-03   0.145E-20 0.100E-21 0.490E-21   -.451E-05 -.142E-05 0.977E-06
   -.196E-02 -.476E-03 -.239E-03   -.886E-03 -.294E-03 -.211E-03   0.102E-21 -.723E-21 -.419E-21   0.367E-05 -.194E-05 0.846E-06
   0.832E-03 0.558E-03 0.765E-03   0.508E-03 0.226E-04 0.411E-03   -.752E-21 -.321E-21 -.556E-21   -.612E-05 0.391E-05 0.235E-06
   -.419E-03 0.942E-03 -.956E-03   -.132E-03 0.440E-03 -.418E-03   -.255E-21 -.159E-21 0.331E-23   0.419E-05 0.211E-05 0.672E-06
   0.453E-03 -.825E-03 0.784E-04   0.306E-03 -.436E-03 -.503E-04   0.503E-23 -.198E-21 0.486E-21   0.916E-06 0.261E-05 0.817E-06
   0.123E-02 -.189E-04 0.185E-03   0.387E-03 0.151E-04 0.205E-04   0.334E-21 -.195E-21 -.662E-23   -.467E-05 0.228E-05 -.935E-06
   0.175E-02 0.835E-03 -.361E-03   0.861E-03 0.184E-03 -.142E-03   -.111E-20 -.127E-20 0.109E-21   0.450E-06 -.765E-06 0.651E-06
   0.104E-02 0.574E-03 -.555E-03   0.463E-03 0.250E-03 -.179E-03   -.480E-21 0.774E-21 -.758E-21   0.388E-07 -.881E-06 0.329E-06
   -.119E-03 0.114E-02 0.629E-03   0.329E-04 0.483E-03 0.213E-03   0.860E-22 -.850E-21 0.178E-21   -.458E-05 -.203E-05 0.821E-06
   0.373E-03 0.351E-03 -.118E-02   0.330E-03 0.120E-03 -.426E-03   0.158E-20 -.265E-22 0.339E-21   -.355E-05 -.287E-05 -.109E-05
   0.199E-02 -.129E-02 -.129E-02   0.824E-03 -.550E-03 -.497E-03   0.827E-21 0.692E-21 -.104E-20   -.378E-05 0.195E-05 0.114E-06
   0.202E-02 0.135E-02 -.469E-03   0.788E-03 0.835E-03 -.258E-04   0.631E-21 0.775E-21 -.288E-21   -.647E-05 -.223E-05 0.767E-06
   -.131E-02 -.738E-03 0.178E-02   -.469E-03 -.364E-03 0.693E-03   0.221E-21 0.926E-21 -.256E-21   0.413E-05 0.261E-05 0.536E-06
   0.102E-03 -.102E-02 -.802E-03   -.131E-03 -.399E-03 -.363E-03   0.239E-21 0.386E-21 -.172E-21   0.520E-05 0.223E-05 0.104E-06
   0.689E-03 0.739E-03 0.948E-03   0.389E-03 0.283E-03 0.483E-03   -.154E-21 0.715E-21 0.589E-21   -.371E-05 -.245E-05 0.429E-06
   0.246E-02 0.352E-03 -.543E-03   0.107E-02 0.261E-03 -.187E-03   -.270E-21 0.182E-22 -.817E-21   -.430E-05 -.293E-05 -.153E-06
   -.350E-03 0.486E-03 -.533E-03   0.569E-04 0.261E-03 -.282E-03   -.128E-20 -.145E-20 -.533E-21   -.436E-05 -.248E-05 -.157E-06
   0.168E-02 -.107E-02 -.966E-03   0.850E-03 -.485E-03 -.311E-03   -.618E-21 -.682E-21 -.906E-21   -.393E-05 0.115E-05 0.564E-06
   0.103E-02 -.101E-02 -.805E-05   0.377E-03 -.305E-03 0.626E-04   0.440E-21 0.463E-22 0.159E-21   0.312E-06 0.677E-06 -.613E-06
   0.870E-03 0.654E-04 -.533E-03   0.179E-03 0.797E-04 -.123E-03   0.453E-22 0.106E-20 0.190E-21   0.536E-05 0.278E-05 0.915E-06
   0.173E-02 -.822E-03 0.916E-03   0.719E-03 -.112E-03 0.543E-03   -.279E-21 -.732E-21 0.364E-22   -.640E-05 0.526E-06 0.692E-06
   0.147E-02 0.184E-02 -.511E-04   0.704E-03 0.736E-03 -.654E-04   -.355E-21 0.481E-21 -.789E-21   -.395E-05 -.918E-06 0.522E-06
   0.577E-03 -.990E-03 -.195E-04   0.155E-03 -.472E-03 0.295E-04   -.590E-21 0.926E-22 0.562E-22   -.104E-07 0.274E-05 0.704E-06
   -.879E-03 -.180E-03 0.102E-02   -.361E-03 0.110E-03 0.427E-03   0.935E-21 0.142E-20 0.581E-21   0.470E-05 -.107E-05 0.946E-07
   0.152E-03 0.372E-03 -.688E-03   0.419E-04 0.290E-03 -.162E-03   -.167E-20 -.195E-21 -.768E-21   -.514E-06 -.290E-05 0.367E-06
   0.647E-04 -.363E-03 0.112E-02   0.216E-03 -.260E-03 0.459E-03   -.261E-21 -.687E-21 -.400E-21   -.498E-05 0.288E-05 0.112E-05
   -.188E-02 0.118E-02 0.719E-03   -.857E-03 0.532E-03 0.287E-03   0.977E-22 0.966E-21 -.115E-20   0.614E-05 -.239E-05 0.138E-06
   0.111E-03 -.170E-03 -.803E-03   -.547E-04 -.593E-04 -.396E-03   0.482E-21 0.653E-21 0.646E-21   0.439E-05 -.317E-05 0.260E-06
   -.285E-03 0.111E-02 0.200E-03   -.120E-03 0.449E-03 0.931E-04   0.790E-21 0.533E-21 -.232E-22   0.556E-05 -.203E-05 -.475E-06
   -.141E-02 0.128E-02 0.821E-03   -.824E-03 0.385E-03 0.450E-03   -.436E-21 0.134E-20 -.943E-22   0.572E-05 0.151E-05 -.526E-06
   0.111E-02 -.187E-02 -.618E-03   0.536E-03 -.102E-02 -.343E-03   -.309E-21 -.117E-20 -.675E-21   -.630E-05 0.216E-05 0.514E-06
   -.303E-02 -.452E-03 -.362E-03   -.115E-02 -.100E-03 -.651E-04   -.285E-21 -.405E-22 0.256E-21   0.338E-05 0.299E-05 0.139E-05
   -.172E-02 0.100E-02 0.575E-03   -.789E-03 0.361E-03 0.293E-03   -.529E-21 0.139E-21 0.331E-21   0.467E-05 -.225E-05 0.104E-05
   0.153E-02 -.214E-03 0.480E-03   0.693E-03 -.588E-04 0.908E-04   0.197E-21 -.554E-21 -.486E-21   0.934E-06 0.104E-05 -.114E-05
   -.490E-03 -.195E-03 0.277E-04   -.879E-04 -.811E-04 0.279E-04   -.752E-21 0.130E-20 -.212E-21   0.169E-06 0.281E-05 0.193E-06
   0.106E-02 0.382E-03 -.901E-03   0.441E-03 0.113E-03 -.218E-03   0.367E-21 0.620E-22 0.640E-21   -.448E-05 -.174E-05 -.661E-06
   -.127E-02 0.714E-03 0.888E-03   -.613E-03 0.202E-03 0.477E-03   -.970E-22 -.407E-21 -.804E-21   0.354E-05 0.205E-05 0.974E-06
   -.208E-02 -.931E-03 -.174E-03   -.872E-03 -.501E-03 0.342E-04   -.463E-21 -.597E-21 0.467E-21   0.301E-05 0.779E-06 -.113E-05
   0.113E-02 0.104E-02 0.618E-03   0.612E-03 0.629E-03 0.326E-03   -.493E-22 -.228E-21 -.728E-22   -.630E-05 -.245E-05 0.728E-06
   0.313E-04 -.396E-03 0.327E-04   0.142E-03 -.260E-03 -.130E-05   -.146E-20 0.331E-21 -.404E-21   0.670E-06 0.294E-05 -.131E-06
   -.160E-04 -.785E-03 -.190E-04   0.521E-04 -.499E-03 -.652E-04   -.961E-21 -.410E-21 0.595E-21   0.522E-05 0.838E-06 -.986E-06
   -.113E-02 0.728E-04 0.685E-03   -.470E-03 -.253E-04 0.265E-03   -.127E-21 0.673E-21 -.132E-22   0.486E-05 0.178E-05 0.942E-06
   -.115E-02 0.162E-04 -.195E-04   -.498E-03 0.630E-04 -.976E-04   0.452E-21 0.862E-21 0.291E-21   0.504E-05 -.176E-05 0.318E-06
 -----------------------------------------------------------------------------------------------
   0.165E-08 0.325E-09 0.204E-08   0.118E-11 0.518E-12 0.106E-11   -.140E-20 0.547E-20 -.481E-20   0.459E-11 0.411E-11 0.513E-11
 
 
 POSITION                                       TOTAL-FORCE (eV/Angst)
 -----------------------------------------------------------------------------------
      5.70296     13.30690     13.30690        -0.000000     -0.000000     -0.000000
      7.60395      3.80197     11.40592        -0.000000      0.000000      0.000000
      3.80197      3.80197      3.80197         0.000000      0.000000     -0.000000
      9.50493      5.70296      1.90099         0.000000     -0.000000     -0.000000
     -0.00000     15.20789     11.40592         0.000000     -0.000000      0.000000
      3.80197     15.20789      3.80197         0.000000     -0.000000      0.000000
      1.90099      5.70296      1.90099         0.000000      0.000000     -0.000000
      9.50493     13.30690      5.70296         0.000000      0.000000      0.000000
     11.40592     11.40592     -0.00000         0.000000      0.000000      0.000000
      7.60395     15.20789     15.20789         0.000000      0.000000      0.000000
     -0.00000      7.60395      3.80197        -0.000000     -0.000000      0.000000
      1.90099      9.50493      1.90099         0.000000     -0.000000     -0.000000
      9.50493      1.90099      5.70296        -0.000000      0.000000      0.000000
      5.70296      1.90099      5.70296        -0.000000     -0.000000      0.000000
      7.60395      3.80197     15.20789        -0.000000      0.000000      0.000000
      7.60394     11.40592     15.20789        -0.000000      0.000000     -0.000000
     15.20789     11.40592     15.20789         0.000000      0.000000      0.000000
      7.60395      7.60395      7.60395         0.000000      0.000000      0.000000
      5.70296      5.70296      1.90099        -0.000000      0.000000     -0.000000
      9.50493      1.90099     13.30691        -0.000000     -0.000000      0.000000
      3.80197      3.80197      0.00000        -0.000000     -0.000000     -0.000000
      1.90099     13.30691      9.50493         0.000000      0.000000     -0.000000
     15.20789     11.40592      3.80197        -0.000000     -0.000000      0.000000
     11.40592     15.20789      7.60394         0.000000      0.000000      0.000000
     11.40592     15.20789     11.40592         0.000000      0.000000      0.000000
     13.30691      1.90099      5.70296        -0.000000     -0.000000      0.000000
     15.20789     -0.00000     -0.00000        -0.000000     -0.000000     -0.000000
      3.80197     15.20789     15.20789         0.000000     -0.000000     -0.000000
     13.30690      1.90099     13.30691        -0.000000     -0.000000     -0.000000
      9.50493      5.70296      9.50493        -0.000000      0.000000      0.000000
      7.60395      3.80197      3.80197        -0.000000     -0.000000     -0.000000
     11.40592      3.80197      7.60395        -0.000000      0.000000      0.000000
      9.50493      9.50493      9.50493         0.000000     -0.000000     -0.000000
      1.90099      9.50493      9.50493        -0.000000      0.000000     -0.000000
     15.20789     -0.00000      3.80197        -0.000000     -0.000000     -0.000000
      3.80197     15.20789      7.60395        -0.000000     -0.000000     -0.000000
     13.30690      9.50493      5.70296         0.000000     -0.000000     -0.000000
      3.80197     11.40592      3.80197         0.000000     -0.000000      0.000000
      5.70296      5.70296     13.30691        -0.000000     -0.000000      0.000000
      3.80197     11.40592     11.40592        -0.000000      0.000000     -0.000000
     11.40592      7.60395      7.60395        -0.000000     -0.000000     -0.000000
     13.30691      1.90099      9.50493         0.000000      0.000000     -0.000000
     13.30690      5.70296     13.30690        -0.000000     -0.000000     -0.000000
     11.40592      3.80197      3.80197         0.000000     -0.000000      0.000000
      3.80197     15.20789     11.40592         0.000000     -0.000000     -0.000000
      1.90099     13.30690      5.70296        -0.000000     -0.000000     -0.000000
      3.80197     11.40592      7.60395        -0.000000      0.000000     -0.000000
      1.90099      1.90099      9.50493        -0.000000     -0.000000      0.000000
      0.00000      3.80197      3.80197         0.000000      0.000000      0.000000
     -0.00000      7.60395     15.20789         0.000000      0.000000      0.000000
     15.20789     11.40592      7.60395         0.000000      0.000000     -0.000000
      5.70296      9.50493     13.30691        -0.000000     -0.000000     -0.000000
      7.60394     11.40592     11.40592        -0.000000     -0.000000      0.000000
      9.50493      5.70296      5.70296         0.000000      0.000000      0.000000
      9.50493     13.30690      1.90099        -0.000000      0.000000      0.000000
      1.90099      1.90099      5.70296         0.000000      0.000000     -0.000000
      3.80197      7.60395     11.40592        -0.000000      0.000000      0.000000
      3.80197      7.60395      0.00000        -0.000000     -0.000000     -0.000000
     15.20789      7.60395     11.40592        -0.000000     -0.000000     -0.000000
      5.70296     13.30690      1.90099         0.000000      0.000000     -0.000000
     11.40592     -0.00000      3.80197        -0.000000     -0.000000      0.000000
     13.30691      5.70296      1.90099        -0.000000      0.000000      0.000000
      9.50493      9.50493      1.90099         0.000000      0.000000     -0.000000
      5.70296      9.50493      5.70296        -0.000000     -0.000000     -0.000000
      9.50493      9.50493     13.30690         0.000000     -0.000000      0.000000
     11.40592      7.60395     11.40592        -0.000000     -0.000000      0.000000
     11.40592     -0.00000     -0.00000         0.000000      0.000000      0.000000
      9.50493     13.30690      9.50493        -0.000000      0.000000     -0.000000
      3.80197      7.60395      7.60395        -0.000000     -0.000000      0.000000
      0.00000      0.00000      7.60395        -0.000000      0.000000     -0.000000
      1.90099      5.70296      5.70296         0.000000      0.000000      0.000000
     13.30691      5.70296      5.70296        -0.000000      0.000000      0.000000
      3.80197      3.80197     11.40592        -0.000000     -0.000000      0.000000
      3.80197      3.80197      7.60395        -0.000000     -0.000000     -0.000000
     11.40592      7.60395      3.80197        -0.000000      0.000000      0.000000
      5.70296      9.50493      1.90099         0.000000     -0.000000     -0.000000
      7.60395     11.40592      3.80197         0.000000      0.000000     -0.000000
     13.30691      9.50493      1.90099        -0.000000      0.000000     -0.000000
      5.70296     13.30690      5.70296         0.000000      0.000000     -0.000000
      7.60395     15.20789      3.80197        -0.000000      0.000000     -0.000000
     11.40592     11.40592      3.80197        -0.000000      0.000000      0.000000
      7.60395      7.60395     11.40592         0.000000     -0.000000      0.000000
     15.20789      7.60395      7.60395         0.000000     -0.000000     -0.000000
     13.30691      1.90099      1.90099        -0.000000      0.000000      0.000000
     -0.00000     11.40592     11.40592         0.000000     -0.000000     -0.000000
     13.30690      9.50493     13.30690         0.000000     -0.000000      0.000000
      5.70296      9.50493      9.50493         0.000000      0.000000      0.000000
     11.40592      3.80197     15.20789        -0.000000     -0.000000      0.000000
      5.70296      1.90099      9.50493        -0.000000     -0.000000     -0.000000
     15.20789      3.80197     11.40592         0.000000     -0.000000      0.000000
      9.50493      1.90099      1.90099         0.000000     -0.000000      0.000000
      7.60394     15.20789     11.40592        -0.000000     -0.000000     -0.000000
      7.60394     15.20789      7.60395        -0.000000     -0.000000      0.000000
     13.30690     13.30690      9.50493         0.000000     -0.000000      0.000000
     13.30690     13.30690      1.90099        -0.000000      0.000000     -0.000000
     13.30690      5.70296      9.50493         0.000000     -0.000000     -0.000000
     11.40592     11.40592     11.40592         0.000000     -0.000000     -0.000000
      5.70296      5.70296      5.70296         0.000000     -0.000000     -0.000000
      1.90099      5.70296     13.30691         0.000000     -0.000000      0.000000
     13.30690     13.30690      5.70296         0.000000      0.000000      0.000000
      9.50493     13.30690     13.30691         0.000000      0.000000      0.000000
     13.30690     13.30690     13.30691         0.000000      0.000000      0.000000
      9.50493      1.90099      9.50493        -0.000000      0.000000     -0.000000
      7.60395      7.60395     -0.00000        -0.000000     -0.000000     -0.000000
      1.90099      5.70296      9.50493         0.000000     -0.000000     -0.000000
     11.40592      7.60395     15.20789        -0.000000     -0.000000      0.000000
     13.30690      9.50493      9.50493        -0.000000     -0.000000     -0.000000
      7.60395      3.80197      7.60395        -0.000000      0.000000      0.000000
      1.90099      9.50493      5.70296         0.000000     -0.000000     -0.000000
      7.60395     11.40592      7.60395         0.000000      0.000000     -0.000000
      9.50493      5.70296     13.30690         0.000000      0.000000      0.000000
      3.80197     11.40592     15.20789         0.000000      0.000000     -0.000000
      5.70296     13.30691      9.50493         0.000000     -0.000000      0.000000
      1.90099     13.30690      1.90099        -0.000000     -0.000000      0.000000
      3.80197      7.60394      3.80197         0.000000     -0.000000     -0.000000
     11.40592      3.80197     11.40592         0.000000      0.000000     -0.000000
      5.70296      5.70296      9.50493        -0.000000     -0.000000      0.000000
      1.90099     13.30690     13.30691        -0.000000     -0.000000     -0.000000
      7.60394      7.60395      3.80197         0.000000      0.000000     -0.000000
     -0.00000      3.80197      7.60395        -0.000000      0.000000      0.000000
      9.50493      9.50493      5.70296         0.000000      0.000000     -0.000000
      5.70296      1.90099     13.30690        -0.000000     -0.000000      0.000000
      5.70296      1.90099      1.90099        -0.000000      0.000000     -0.000000
     11.40592     11.40592      7.60395        -0.000000     -0.000000     -0.000000
     15.20789      3.80197     15.20789        -0.000000     -0.000000     -0.000000
      1.90099      1.90099      1.90099        -0.000000      0.000000     -0.000000
      1.90099      1.90099     13.30691        -0.000000     -0.000000      0.000000
      1.90099      9.50493     13.30691         0.000000      0.000000     -0.000000
 -----------------------------------------------------------------------------------
    total drift:                                0.000000      0.000000      0.000000


--------------------------------------------------------------------------------------------------------



  FREE ENERGIE OF THE ION-ELECTRON SYSTEM (eV)
  ---------------------------------------------------
  free  energy   TOTEN  =     -1048.30293656 eV

  energy  without entropy=    -1048.39226652  energy(sigma->0) =    -1048.33271321
 d Force = 0.0000000E+00[ 0.000E+00, 0.000E+00]  d Energy = 0.1140578E+02-0.114E+02
 d Force = 0.0000000E+00[ 0.000E+00, 0.000E+00]  d Ewald  =-0.1839982E+05 0.184E+05
 


--------------------------------------------------------------------------------------------------------


    POTLOK:  cpu time      0.1193: real time      0.0269


--------------------------------------------------------------------------------------------------------


 Steepest descent step on ions:
 trial-energy change:  -11.405778  1 .order  -25.198043 -167.004442  116.608356
  (g-gl).g = 0.167E+03      g.g   = 0.167E+03  gl.gl    = 0.000E+00
 g(Force)  = 0.230E-38   g(Stress)= 0.167E+03 ortho     = 0.000E+00
 gamma     =   0.00000
 trial     =   1.00000
 opt step  =   0.51598  (harmonic =   0.58885) maximal distance =0.00000000
 next E    = -1078.087612   (d E  = -41.19045)


--------------------------------------------------------------------------------------------------------


      MLFF:  cpu time      0.0361: real time      0.0358
    WAVPRE:  cpu time      0.3727: real time      0.1407
    FEWALD:  cpu time      0.1822: real time      0.1697
    GENKIN:  cpu time      0.0065: real time      0.0065
    ORTHCH:  cpu time      0.5470: real time      0.5467
     LOOP+:  cpu time     57.6550: real time     51.5647


--------------------------------------- Ionic step        3  -------------------------------------------




--------------------------------------- Iteration      3(   1)  ---------------------------------------


    POTLOK:  cpu time      0.0076: real time      0.0073
    SETDIJ:  cpu time      0.0886: real time      0.0059
     EDDAV:  cpu time      3.3060: real time      3.2533
       DOS:  cpu time      0.0014: real time      0.0014
    CHARGE:  cpu time      0.4512: real time      0.3058
    MIXING:  cpu time      0.0342: real time      0.0032
    --------------------------------------------
      LOOP:  cpu time      3.8891: real time      3.5769

 eigenvalue-minimisations  :  8336
 total energy-change (2. order) :-0.5433920E+03  (-0.1614790E+04)
 number of electron    1535.9999831 magnetization 
 augmentation part       54.6849212 magnetization 

 Broyden mixing:
  rms(total) = 0.22725E+02    rms(broyden)= 0.22723E+02
  rms(prec ) = 0.23819E+02
  weight for this iteration     100.00

 Free energy of the ion-electron system (eV)
  ---------------------------------------------------
  alpha Z        PSCENC =      7481.07833679
  Ewald energy   TEWEN  =   -135314.66082284
  -Hartree energ DENC   =    -32279.48895990
  -exchange      EXHF   =         0.00000000
  -V(xc)+E(xc)   XCENC  =      6586.16191377
  PAW double counting   =    154252.19114740  -151786.89257824
  entropy T*S    EENTRO =         0.60153769
  eigenvalues    EBANDS =    -14908.60192419
  atomic energy  EATOM  =    164377.91643804
  Solvation  Ediel_sol  =         0.00000000
  ---------------------------------------------------
  free energy    TOTEN  =     -1591.69491149 eV

  energy without entropy =    -1592.29644918  energy(sigma->0) =    -1591.89542406


--------------------------------------------------------------------------------------------------------




--------------------------------------- Iteration      3(   2)  ---------------------------------------


    POTLOK:  cpu time      0.0392: real time      0.0127
    SETDIJ:  cpu time      0.0945: real time      0.0063
     EDDAV:  cpu time      3.3450: real time      3.2922
       DOS:  cpu time      0.0014: real time      0.0013
    CHARGE:  cpu time      0.4526: real time      0.3073
    MIXING:  cpu time      0.0382: real time      0.0035
    --------------------------------------------
      LOOP:  cpu time      3.9708: real time      3.6233

 eigenvalue-minimisations  :  8392
 total energy-change (2. order) : 0.4656382E+03  (-0.1095571E+03)
 number of electron    1535.9999808 magnetization 
 augmentation part       74.0301748 magnetization 

 Broyden mixing:
  rms(total) = 0.59294E+01    rms(broyden)= 0.59294E+01
  rms(prec ) = 0.65592E+01
  weight for this iteration     100.00

 eigenvalues of (default mixing * dielectric matrix)
  average eigenvalue GAMMA=   1.1789
  1.1789

 Free energy of the ion-electron system (eV)
  ---------------------------------------------------
  alpha Z        PSCENC =      7481.07833679
  Ewald energy   TEWEN  =   -135314.66082284
  -Hartree energ DENC   =    -28221.22199543
  -exchange      EXHF   =         0.00000000
  -V(xc)+E(xc)   XCENC  =      6371.83584521
  PAW double counting   =    205262.77109661  -203177.95580933
  entropy T*S    EENTRO =        -0.00273406
  eigenvalues    EBANDS =    -17905.81708837
  atomic energy  EATOM  =    164377.91643804
  Solvation  Ediel_sol  =         0.00000000
  ---------------------------------------------------
  free energy    TOTEN  =     -1126.05673340 eV

  energy without entropy =    -1126.05399933  energy(sigma->0) =    -1126.05582204


--------------------------------------------------------------------------------------------------------




--------------------------------------- Iteration      3(   3)  ---------------------------------------


    POTLOK:  cpu time      0.0371: real time      0.0164
    SETDIJ:  cpu time      0.0914: real time      0.0062
     EDDAV:  cpu time      3.4207: real time      3.3674
       DOS:  cpu time      0.0014: real time      0.0014
    CHARGE:  cpu time      0.4501: real time      0.3049
    MIXING:  cpu time      0.0413: real time      0.0037
    --------------------------------------------
      LOOP:  cpu time      4.0419: real time      3.7000

 eigenvalue-minimisations  :  8652
 total energy-change (2. order) : 0.6905222E+02  (-0.3602124E+02)
 number of electron    1535.9999914 magnetization 
 augmentation part       53.9929147 magnetization 

 Broyden mixing:
  rms(total) = 0.39773E+01    rms(broyden)= 0.39773E+01
  rms(prec ) = 0.39926E+01
  weight for this iteration     100.00

 eigenvalues of (default mixing * dielectric matrix)
  average eigenvalue GAMMA=   1.4290
  1.4290  1.4290

 Free energy of the ion-electron system (eV)
  ---------------------------------------------------
  alpha Z        PSCENC =      7481.07833679
  Ewald energy   TEWEN  =   -135314.66082284
  -Hartree energ DENC   =    -26532.88570073
  -exchange      EXHF   =         0.00000000
  -V(xc)+E(xc)   XCENC  =      6282.75773368
  PAW double counting   =    211650.25403660  -209704.87171637
  entropy T*S    EENTRO =        -0.03912000
  eigenvalues    EBANDS =    -19296.55370140
  atomic energy  EATOM  =    164377.91643804
  Solvation  Ediel_sol  =         0.00000000
  ---------------------------------------------------
  free energy    TOTEN  =     -1057.00451624 eV

  energy without entropy =    -1056.96539624  energy(sigma->0) =    -1056.99147624


--------------------------------------------------------------------------------------------------------




--------------------------------------- Iteration      3(   4)  ---------------------------------------


    POTLOK:  cpu time      0.0358: real time      0.0137
    SETDIJ:  cpu time      0.0911: real time      0.0062
     EDDAV:  cpu time      3.6012: real time      3.5464
       DOS:  cpu time      0.0013: real time      0.0013
    CHARGE:  cpu time      0.4511: real time      0.3054
    MIXING:  cpu time      0.0453: real time      0.0039
    --------------------------------------------
      LOOP:  cpu time      4.2258: real time      3.8769

 eigenvalue-minimisations  :  9328
 total energy-change (2. order) :-0.1220860E+02  (-0.4635099E+01)
 number of electron    1535.9999971 magnetization 
 augmentation part       36.1217442 magnetization 

 Broyden mixing:
  rms(total) = 0.11734E+01    rms(broyden)= 0.11729E+01
  rms(prec ) = 0.11878E+01
  weight for this iteration     100.00

 eigenvalues of (default mixing * dielectric matrix)
  average eigenvalue GAMMA=   1.7425
  2.3379  1.4449  1.4449

 Free energy of the ion-electron system (eV)
  ---------------------------------------------------
  alpha Z        PSCENC =      7481.07833679
  Ewald energy   TEWEN  =   -135314.66082284
  -Hartree energ DENC   =    -26765.73831173
  -exchange      EXHF   =         0.00000000
  -V(xc)+E(xc)   XCENC  =      6294.73209233
  PAW double counting   =    193751.54917306  -191586.11769285
  entropy T*S    EENTRO =        -0.06533237
  eigenvalues    EBANDS =    -19307.90699406
  atomic energy  EATOM  =    164377.91643804
  Solvation  Ediel_sol  =         0.00000000
  ---------------------------------------------------
  free energy    TOTEN  =     -1069.21311363 eV

  energy without entropy =    -1069.14778127  energy(sigma->0) =    -1069.19133618


--------------------------------------------------------------------------------------------------------




--------------------------------------- Iteration      3(   5)  ---------------------------------------


    POTLOK:  cpu time      0.0360: real time      0.0139
    SETDIJ:  cpu time      0.0913: real time      0.0058
     EDDAV:  cpu time      3.5866: real time      3.5320
       DOS:  cpu time      0.0014: real time      0.0014
    CHARGE:  cpu time      0.4473: real time      0.3020
    MIXING:  cpu time      0.0487: real time      0.0042
    --------------------------------------------
      LOOP:  cpu time      4.2113: real time      3.8592

 eigenvalue-minimisations  :  9200
 total energy-change (2. order) :-0.6278105E+01  (-0.2914857E+01)
 number of electron    1536.0000043 magnetization 
 augmentation part       22.4499615 magnetization 

 Broyden mixing:
  rms(total) = 0.77308E+00    rms(broyden)= 0.77252E+00
  rms(prec ) = 0.81515E+00
  weight for this iteration     100.00

 eigenvalues of (default mixing * dielectric matrix)
  average eigenvalue GAMMA=   1.7403
  2.5295  0.9239  1.7539  1.7539

 Free energy of the ion-electron system (eV)
  ---------------------------------------------------
  alpha Z        PSCENC =      7481.07833679
  Ewald energy   TEWEN  =   -135314.66082284
  -Hartree energ DENC   =    -26759.19102159
  -exchange      EXHF   =         0.00000000
  -V(xc)+E(xc)   XCENC  =      6293.19624525
  PAW double counting   =    187513.98497015  -185062.24604508
  entropy T*S    EENTRO =        -0.05587816
  eigenvalues    EBANDS =    -19605.51344121
  atomic energy  EATOM  =    164377.91643804
  Solvation  Ediel_sol  =         0.00000000
  ---------------------------------------------------
  free energy    TOTEN  =     -1075.49121867 eV

  energy without entropy =    -1075.43534050  energy(sigma->0) =    -1075.47259261


--------------------------------------------------------------------------------------------------------




--------------------------------------- Iteration      3(   6)  ---------------------------------------


    POTLOK:  cpu time      0.0360: real time      0.0143
    SETDIJ:  cpu time      0.0890: real time      0.0056
     EDDAV:  cpu time      3.3830: real time      3.3297
       DOS:  cpu time      0.0013: real time      0.0013
    CHARGE:  cpu time      0.4551: real time      0.3030
    MIXING:  cpu time      0.0555: real time      0.0045
    --------------------------------------------
      LOOP:  cpu time      4.0199: real time      3.6585

 eigenvalue-minimisations  :  8560
 total energy-change (2. order) : 0.3117311E-01  (-0.1517715E+00)
 number of electron    1536.0000043 magnetization 
 augmentation part       21.5206276 magnetization 

 Broyden mixing:
  rms(total) = 0.10369E+00    rms(broyden)= 0.10345E+00
  rms(prec ) = 0.11068E+00
  weight for this iteration     100.00

 eigenvalues of (default mixing * dielectric matrix)
  average eigenvalue GAMMA=   1.6827
  2.3889  2.3889  1.5376  0.9808  1.1175

 Free energy of the ion-electron system (eV)
  ---------------------------------------------------
  alpha Z        PSCENC =      7481.07833679
  Ewald energy   TEWEN  =   -135314.66082284
  -Hartree energ DENC   =    -26941.46008071
  -exchange      EXHF   =         0.00000000
  -V(xc)+E(xc)   XCENC  =      6302.15072627
  PAW double counting   =    188064.11255674  -185481.04151931
  entropy T*S    EENTRO =        -0.06368810
  eigenvalues    EBANDS =    -19563.49199242
  atomic energy  EATOM  =    164377.91643804
  Solvation  Ediel_sol  =         0.00000000
  ---------------------------------------------------
  free energy    TOTEN  =     -1075.46004555 eV

  energy without entropy =    -1075.39635745  energy(sigma->0) =    -1075.43881619


--------------------------------------------------------------------------------------------------------




--------------------------------------- Iteration      3(   7)  ---------------------------------------


    POTLOK:  cpu time      0.0383: real time      0.0131
    SETDIJ:  cpu time      0.0910: real time      0.0060
     EDDAV:  cpu time      3.7518: real time      3.6961
       DOS:  cpu time      0.0013: real time      0.0013
    CHARGE:  cpu time      0.4498: real time      0.3052
    MIXING:  cpu time      0.0589: real time      0.0048
    --------------------------------------------
      LOOP:  cpu time      4.3912: real time      4.0265

 eigenvalue-minimisations  :  9800
 total energy-change (2. order) : 0.4347865E-02  (-0.9121997E-02)
 number of electron    1536.0000040 magnetization 
 augmentation part       21.9797927 magnetization 

 Broyden mixing:
  rms(total) = 0.11825E-01    rms(broyden)= 0.11729E-01
  rms(prec ) = 0.12369E-01
  weight for this iteration     100.00

 eigenvalues of (default mixing * dielectric matrix)
  average eigenvalue GAMMA=   1.5870
  2.3321  2.3321  1.6415  1.3365  1.0085  0.8717

 Free energy of the ion-electron system (eV)
  ---------------------------------------------------
  alpha Z        PSCENC =      7481.07833679
  Ewald energy   TEWEN  =   -135314.66082284
  -Hartree energ DENC   =    -26966.61118932
  -exchange      EXHF   =         0.00000000
  -V(xc)+E(xc)   XCENC  =      6303.38707255
  PAW double counting   =    188487.18257577  -185888.29536158
  entropy T*S    EENTRO =        -0.06444389
  eigenvalues    EBANDS =    -19555.38830319
  atomic energy  EATOM  =    164377.91643804
  Solvation  Ediel_sol  =         0.00000000
  ---------------------------------------------------
  free energy    TOTEN  =     -1075.45569769 eV

  energy without entropy =    -1075.39125380  energy(sigma->0) =    -1075.43421639


--------------------------------------------------------------------------------------------------------




--------------------------------------- Iteration      3(   8)  ---------------------------------------


    POTLOK:  cpu time      0.0360: real time      0.0168
    SETDIJ:  cpu time      0.0926: real time      0.0061
     EDDAV:  cpu time      3.6145: real time      3.5596
       DOS:  cpu time      0.0013: real time      0.0013
    CHARGE:  cpu time      0.4544: real time      0.3025
    MIXING:  cpu time      0.0615: real time      0.0053
    --------------------------------------------
      LOOP:  cpu time      4.2603: real time      3.8916

 eigenvalue-minimisations  :  9352
 total energy-change (2. order) :-0.8729720E-04  (-0.3062114E-03)
 number of electron    1536.0000040 magnetization 
 augmentation part       22.0468331 magnetization 

 Broyden mixing:
  rms(total) = 0.42823E-02    rms(broyden)= 0.42812E-02
  rms(prec ) = 0.47247E-02
  weight for this iteration     100.00

 eigenvalues of (default mixing * dielectric matrix)
  average eigenvalue GAMMA=   1.6694
  2.4562  2.4562  2.2498  1.5451  0.9761  0.9761  1.0259

 Free energy of the ion-electron system (eV)
  ---------------------------------------------------
  alpha Z        PSCENC =      7481.07833679
  Ewald energy   TEWEN  =   -135314.66082284
  -Hartree energ DENC   =    -26963.49857736
  -exchange      EXHF   =         0.00000000
  -V(xc)+E(xc)   XCENC  =      6303.23766518
  PAW double counting   =    188504.62748607  -185908.19997917
  entropy T*S    EENTRO =        -0.06439177
  eigenvalues    EBANDS =    -19555.89193992
  atomic energy  EATOM  =    164377.91643804
  Solvation  Ediel_sol  =         0.00000000
  ---------------------------------------------------
  free energy    TOTEN  =     -1075.45578499 eV

  energy without entropy =    -1075.39139322  energy(sigma->0) =    -1075.43432106


--------------------------------------------------------------------------------------------------------




--------------------------------------- Iteration      3(   9)  ---------------------------------------


    POTLOK:  cpu time      0.0385: real time      0.0125
    SETDIJ:  cpu time      0.0933: real time      0.0059
     EDDAV:  cpu time      3.3553: real time      3.3023
       DOS:  cpu time      0.0013: real time      0.0013
    CHARGE:  cpu time      0.4490: real time      0.3021
    MIXING:  cpu time      0.0645: real time      0.0054
    --------------------------------------------
      LOOP:  cpu time      4.0020: real time      3.6295

 eigenvalue-minimisations  :  8484
 total energy-change (2. order) : 0.8158362E-04  (-0.1569179E-04)
 number of electron    1536.0000040 magnetization 
 augmentation part       22.0479279 magnetization 

 Broyden mixing:
  rms(total) = 0.32997E-02    rms(broyden)= 0.32995E-02
  rms(prec ) = 0.34728E-02
  weight for this iteration     100.00

 eigenvalues of (default mixing * dielectric matrix)
  average eigenvalue GAMMA=   1.5117
  2.4480  2.4480  2.2351  1.5493  0.9967  0.9967  1.0018  0.4180

 Free energy of the ion-electron system (eV)
  ---------------------------------------------------
  alpha Z        PSCENC =      7481.07833679
  Ewald energy   TEWEN  =   -135314.66082284
  -Hartree energ DENC   =    -26964.32909443
  -exchange      EXHF   =         0.00000000
  -V(xc)+E(xc)   XCENC  =      6303.28535306
  PAW double counting   =    188523.25355799  -185927.11379836
  entropy T*S    EENTRO =        -0.06451254
  eigenvalues    EBANDS =    -19554.82116111
  atomic energy  EATOM  =    164377.91643804
  Solvation  Ediel_sol  =         0.00000000
  ---------------------------------------------------
  free energy    TOTEN  =     -1075.45570340 eV

  energy without entropy =    -1075.39119087  energy(sigma->0) =    -1075.43419922


--------------------------------------------------------------------------------------------------------




--------------------------------------- Iteration      3(  10)  ---------------------------------------


    POTLOK:  cpu time      0.0359: real time      0.0152
    SETDIJ:  cpu time      0.0906: real time      0.0061
     EDDAV:  cpu time      2.9131: real time      2.8630
       DOS:  cpu time      0.0013: real time      0.0013
    CHARGE:  cpu time      0.4523: real time      0.3031
    MIXING:  cpu time      0.0619: real time      0.0057
    --------------------------------------------
      LOOP:  cpu time      3.5551: real time      3.1944

 eigenvalue-minimisations  :  6936
 total energy-change (2. order) :-0.3791215E-04  (-0.1104263E-05)
 number of electron    1536.0000040 magnetization 
 augmentation part       22.0524750 magnetization 

 Broyden mixing:
  rms(total) = 0.97603E-03    rms(broyden)= 0.97602E-03
  rms(prec ) = 0.10165E-02
  weight for this iteration     100.00

 eigenvalues of (default mixing * dielectric matrix)
  average eigenvalue GAMMA=   1.6453
  2.4901  2.4901  2.3764  1.8715  1.5557  0.9583  0.9583  1.0536  1.0536

 Free energy of the ion-electron system (eV)
  ---------------------------------------------------
  alpha Z        PSCENC =      7481.07833679
  Ewald energy   TEWEN  =   -135314.66082284
  -Hartree energ DENC   =    -26964.87329906
  -exchange      EXHF   =         0.00000000
  -V(xc)+E(xc)   XCENC  =      6303.31141398
  PAW double counting   =    188527.19694281  -185930.55720700
  entropy T*S    EENTRO =        -0.06451876
  eigenvalues    EBANDS =    -19554.80302527
  atomic energy  EATOM  =    164377.91643804
  Solvation  Ediel_sol  =         0.00000000
  ---------------------------------------------------
  free energy    TOTEN  =     -1075.45574132 eV

  energy without entropy =    -1075.39122255  energy(sigma->0) =    -1075.43423506


--------------------------------------------------------------------------------------------------------




--------------------------------------- Iteration      3(  11)  ---------------------------------------


    POTLOK:  cpu time      0.0381: real time      0.0121
    SETDIJ:  cpu time      0.0912: real time      0.0057
     EDDAV:  cpu time      2.0195: real time      1.9754
       DOS:  cpu time      0.0013: real time      0.0013
    CHARGE:  cpu time      0.4487: real time      0.3014
    MIXING:  cpu time      0.0651: real time      0.0060
    --------------------------------------------
      LOOP:  cpu time      2.6639: real time      2.3020

 eigenvalue-minimisations  :  3944
 total energy-change (2. order) :-0.1372099E-04  (-0.6757488E-07)
 number of electron    1536.0000040 magnetization 
 augmentation part       22.0517154 magnetization 

 Broyden mixing:
  rms(total) = 0.67952E-03    rms(broyden)= 0.67951E-03
  rms(prec ) = 0.71340E-03
  weight for this iteration     100.00

 eigenvalues of (default mixing * dielectric matrix)
  average eigenvalue GAMMA=   1.6144
  2.5805  2.5805  2.3121  2.3121  1.5478  1.0131  1.0131  1.0345  0.9831  0.7673

 Free energy of the ion-electron system (eV)
  ---------------------------------------------------
  alpha Z        PSCENC =      7481.07833679
  Ewald energy   TEWEN  =   -135314.66082284
  -Hartree energ DENC   =    -26964.96835107
  -exchange      EXHF   =         0.00000000
  -V(xc)+E(xc)   XCENC  =      6303.31632049
  PAW double counting   =    188522.00502109  -185925.31362138
  entropy T*S    EENTRO =        -0.06452428
  eigenvalues    EBANDS =    -19554.76455187
  atomic energy  EATOM  =    164377.91643804
  Solvation  Ediel_sol  =         0.00000000
  ---------------------------------------------------
  free energy    TOTEN  =     -1075.45575504 eV

  energy without entropy =    -1075.39123076  energy(sigma->0) =    -1075.43424694


--------------------------------------------------------------------------------------------------------




--------------------------------------- Iteration      3(  12)  ---------------------------------------


    POTLOK:  cpu time      0.0384: real time      0.0125
    SETDIJ:  cpu time      0.0926: real time      0.0058
     EDDAV:  cpu time      1.9952: real time      1.9511
       DOS:  cpu time      0.0013: real time      0.0013
    CHARGE:  cpu time      0.4523: real time      0.3068
    MIXING:  cpu time      0.0691: real time      0.0073
    --------------------------------------------
      LOOP:  cpu time      2.6490: real time      2.2848

 eigenvalue-minimisations  :  3864
 total energy-change (2. order) :-0.7107796E-05  (-0.2865107E-07)
 number of electron    1536.0000040 magnetization 
 augmentation part       22.0513740 magnetization 

 Broyden mixing:
  rms(total) = 0.27897E-03    rms(broyden)= 0.27896E-03
  rms(prec ) = 0.29279E-03
  weight for this iteration     100.00

 eigenvalues of (default mixing * dielectric matrix)
  average eigenvalue GAMMA=   1.5499
  2.3787  2.3787  2.4757  2.4757  1.5498  1.1693  1.0121  1.0121  0.9650  0.8157
  0.8157

 Free energy of the ion-electron system (eV)
  ---------------------------------------------------
  alpha Z        PSCENC =      7481.07833679
  Ewald energy   TEWEN  =   -135314.66082284
  -Hartree energ DENC   =    -26965.04783307
  -exchange      EXHF   =         0.00000000
  -V(xc)+E(xc)   XCENC  =      6303.31999799
  PAW double counting   =    188523.22262970  -185926.44663092
  entropy T*S    EENTRO =        -0.06452147
  eigenvalues    EBANDS =    -19554.77335635
  atomic energy  EATOM  =    164377.91643804
  Solvation  Ediel_sol  =         0.00000000
  ---------------------------------------------------
  free energy    TOTEN  =     -1075.45576214 eV

  energy without entropy =    -1075.39124067  energy(sigma->0) =    -1075.43425499


--------------------------------------------------------------------------------------------------------




--------------------------------------- Iteration      3(  13)  ---------------------------------------


    POTLOK:  cpu time      0.0389: real time      0.0121
    SETDIJ:  cpu time      0.0911: real time      0.0061
     EDDAV:  cpu time      1.9895: real time      1.9457
       DOS:  cpu time      0.0013: real time      0.0013
    CHARGE:  cpu time      0.4470: real time      0.3033
    MIXING:  cpu time      0.0657: real time      0.0075
    --------------------------------------------
      LOOP:  cpu time      2.6335: real time      2.2761

 eigenvalue-minimisations  :  3844
 total energy-change (2. order) :-0.2837820E-05  (-0.1345975E-07)
 number of electron    1536.0000040 magnetization 
 augmentation part       22.0513138 magnetization 

 Broyden mixing:
  rms(total) = 0.37489E-04    rms(broyden)= 0.37472E-04
  rms(prec ) = 0.39404E-04
  weight for this iteration     100.00

 eigenvalues of (default mixing * dielectric matrix)
  average eigenvalue GAMMA=   1.5247
  2.6361  2.5361  2.3225  2.3225  1.5279  1.3138  1.0564  1.0564  0.9451  0.9322
  0.9322  0.7148

 Free energy of the ion-electron system (eV)
  ---------------------------------------------------
  alpha Z        PSCENC =      7481.07833679
  Ewald energy   TEWEN  =   -135314.66082284
  -Hartree energ DENC   =    -26965.10185450
  -exchange      EXHF   =         0.00000000
  -V(xc)+E(xc)   XCENC  =      6303.32248436
  PAW double counting   =    188524.55295459  -185927.71318707
  entropy T*S    EENTRO =        -0.06452058
  eigenvalues    EBANDS =    -19554.78559376
  atomic energy  EATOM  =    164377.91643804
  Solvation  Ediel_sol  =         0.00000000
  ---------------------------------------------------
  free energy    TOTEN  =     -1075.45576498 eV

  energy without entropy =    -1075.39124440  energy(sigma->0) =    -1075.43425812


--------------------------------------------------------------------------------------------------------




--------------------------------------- Iteration      3(  14)  ---------------------------------------


    POTLOK:  cpu time      0.0416: real time      0.0148
    SETDIJ:  cpu time      0.0909: real time      0.0057
     EDDAV:  cpu time      1.9813: real time      1.9372
       DOS:  cpu time      0.0013: real time      0.0013
    --------------------------------------------
      LOOP:  cpu time      2.1151: real time      1.9593

 eigenvalue-minimisations  :  3828
 total energy-change (2. order) :-0.1406588E-06  (-0.5412678E-08)
 number of electron    1536.0000040 magnetization 
 augmentation part       22.0513138 magnetization 

 Free energy of the ion-electron system (eV)
  ---------------------------------------------------
  alpha Z        PSCENC =      7481.07833679
  Ewald energy   TEWEN  =   -135314.66082284
  -Hartree energ DENC   =    -26965.10847038
  -exchange      EXHF   =         0.00000000
  -V(xc)+E(xc)   XCENC  =      6303.32279838
  PAW double counting   =    188524.85578493  -185928.01038438
  entropy T*S    EENTRO =        -0.06452037
  eigenvalues    EBANDS =    -19554.78492528
  atomic energy  EATOM  =    164377.91643804
  Solvation  Ediel_sol  =         0.00000000
  ---------------------------------------------------
  free energy    TOTEN  =     -1075.45576512 eV

  energy without entropy =    -1075.39124475  energy(sigma->0) =    -1075.43425833


--------------------------------------------------------------------------------------------------------




 average (electrostatic) potential at core
  the test charge radii are     1.0638
  (the norm of the test charge is              1.0000)
       1 -74.1838       2 -74.1838       3 -74.1836       4 -74.1837       5 -74.1834
       6 -74.1835       7 -74.1836       8 -74.1837       9 -74.1836      10 -74.1837
      11 -74.1835      12 -74.1836      13 -74.1836      14 -74.1836      15 -74.1838
      16 -74.1838      17 -74.1835      18 -74.1838      19 -74.1838      20 -74.1837
      21 -74.1836      22 -74.1836      23 -74.1835      24 -74.1835      25 -74.1834
      26 -74.1835      27 -74.1834      28 -74.1835      29 -74.1835      30 -74.1838
      31 -74.1837      32 -74.1835      33 -74.1838      34 -74.1835      35 -74.1835
      36 -74.1836      37 -74.1836      38 -74.1836      39 -74.1838      40 -74.1837
      41 -74.1837      42 -74.1834      43 -74.1836      44 -74.1836      45 -74.1837
      46 -74.1835      47 -74.1836      48 -74.1835      49 -74.1835      50 -74.1836
      51 -74.1835      52 -74.1838      53 -74.1838      54 -74.1837      55 -74.1837
      56 -74.1835      57 -74.1836      58 -74.1838      59 -74.1836      60 -74.1837
      61 -74.1836      62 -74.1835      63 -74.1838      64 -74.1838      65 -74.1838
      66 -74.1838      67 -74.1836      68 -74.1836      69 -74.1836      70 -74.1834
      71 -74.1836      72 -74.1835      73 -74.1836      74 -74.1836      75 -74.1836
      76 -74.1838      77 -74.1838      78 -74.1836      79 -74.1836      80 -74.1837
      81 -74.1837      82 -74.1839      83 -74.1835      84 -74.1835      85 -74.1835
      86 -74.1836      87 -74.1837      88 -74.1836      89 -74.1837      90 -74.1835
      91 -74.1837      92 -74.1837      93 -74.1837      94 -74.1834      95 -74.1835
      96 -74.1836      97 -74.1836      98 -74.1838      99 -74.1836     100 -74.1835
     101 -74.1837     102 -74.1834     103 -74.1836     104 -74.1839     105 -74.1835
     106 -74.1837     107 -74.1836     108 -74.1837     109 -74.1835     110 -74.1838
     111 -74.1838     112 -74.1837     113 -74.1838     114 -74.1835     115 -74.1838
     116 -74.1837     117 -74.1837     118 -74.1835     119 -74.1838     120 -74.1835
     121 -74.1838     122 -74.1837     123 -74.1836     124 -74.1836     125 -74.1835
     126 -74.1835     127 -74.1835     128 -74.1836
 
 
 
 E-fermi :   8.9916     XC(G=0): -11.1842     alpha+bet :-16.3232

 val. band max:        8.9523790621   @ k =   0.5000   0.0000   0.0000
 cond. band min:       9.0019059433   @ k =   0.5000   0.5000   0.5000
 fundamental gap:      0.0495268812
 Fermi energy:         8.9916146428

 k-point     1 :       0.0000    0.0000    0.0000
  band No.  band energies     occupation 
      1     -39.4414      2.00000
      2     -39.3948      2.00000
      3     -39.3948      2.00000
      4     -39.3948      2.00000
      5     -39.3948      2.00000
      6     -39.3948      2.00000
      7     -39.3948      2.00000
      8     -39.3593      2.00000
      9     -39.3593      2.00000
     10     -39.3593      2.00000
     11     -39.3593      2.00000
     12     -39.3593      2.00000
     13     -39.3592      2.00000
     14     -39.3592      2.00000
     15     -39.3592      2.00000
     16     -39.3592      2.00000
     17     -39.3592      2.00000
     18     -39.3592      2.00000
     19     -39.3592      2.00000
     20     -39.3318      2.00000
     21     -39.3318      2.00000
     22     -39.3317      2.00000
     23     -39.3317      2.00000
     24     -39.3317      2.00000
     25     -39.3317      2.00000
     26     -39.3317      2.00000
     27     -39.3317      2.00000
     28     -39.2881      2.00000
     29     -39.2881      2.00000
     30     -39.2881      2.00000
     31     -39.2881      2.00000
     32     -39.2881      2.00000
     33     -39.2881      2.00000
     34     -39.2813      2.00000
     35     -39.2813      2.00000
     36     -39.2813      2.00000
     37     -39.2813      2.00000
     38     -39.2813      2.00000
     39     -39.2813      2.00000
     40     -39.2813      2.00000
     41     -39.2813      2.00000
     42     -39.2813      2.00000
     43     -39.2813      2.00000
     44     -39.2813      2.00000
     45     -39.2813      2.00000
     46     -39.2813      2.00000
     47     -39.2813      2.00000
     48     -39.2813      2.00000
     49     -39.2813      2.00000
     50     -39.2813      2.00000
     51     -39.2813      2.00000
     52     -39.2813      2.00000
     53     -39.2813      2.00000
     54     -39.2813      2.00000
     55     -39.2813      2.00000
     56     -39.2813      2.00000
     57     -39.2813      2.00000
     58     -39.2748      2.00000
     59     -39.2748      2.00000
     60     -39.2748      2.00000
     61     -39.2748      2.00000
     62     -39.2748      2.00000
     63     -39.2748      2.00000
     64     -39.2748      2.00000
     65     -39.2748      2.00000
     66     -39.2748      2.00000
     67     -39.2748      2.00000
     68     -39.2748      2.00000
     69     -39.2748      2.00000
     70     -39.2748      2.00000
     71     -39.2748      2.00000
     72     -39.2748      2.00000
     73     -39.2748      2.00000
     74     -39.2748      2.00000
     75     -39.2748      2.00000
     76     -39.2748      2.00000
     77     -39.2748      2.00000
     78     -39.2748      2.00000
     79     -39.2748      2.00000
     80     -39.2748      2.00000
     81     -39.2748      2.00000
     82     -39.2747      2.00000
     83     -39.2747      2.00000
     84     -39.2747      2.00000
     85     -39.2747      2.00000
     86     -39.2747      2.00000
     87     -39.2747      2.00000
     88     -39.2683      2.00000
     89     -39.2683      2.00000
     90     -39.2683      2.00000
     91     -39.2683      2.00000
     92     -39.2683      2.00000
     93     -39.2683      2.00000
     94     -39.2683      2.00000
     95     -39.2683      2.00000
     96     -39.2683      2.00000
     97     -39.2683      2.00000
     98     -39.2683      2.00000
     99     -39.2683      2.00000
    100     -39.2619      2.00000
    101     -39.2619      2.00000
    102     -39.2302      2.00000
    103     -39.2302      2.00000
    104     -39.2302      2.00000
    105     -39.2302      2.00000
    106     -39.2302      2.00000
    107     -39.2302      2.00000
    108     -39.2302      2.00000
    109     -39.2302      2.00000
    110     -39.2158      2.00000
    111     -39.2158      2.00000
    112     -39.2158      2.00000
    113     -39.2158      2.00000
    114     -39.2158      2.00000
    115     -39.2158      2.00000
    116     -39.2158      2.00000
    117     -39.2158      2.00000
    118     -39.2158      2.00000
    119     -39.2158      2.00000
    120     -39.2158      2.00000
    121     -39.2158      2.00000
    122     -39.1923      2.00000
    123     -39.1923      2.00000
    124     -39.1923      2.00000
    125     -39.1923      2.00000
    126     -39.1923      2.00000
    127     -39.1923      2.00000
    128     -39.1563      2.00000
    129     -17.9753      2.00000
    130     -17.9753      2.00000
    131     -17.9753      2.00000
    132     -17.9753      2.00000
    133     -17.9753      2.00000
    134     -17.9753      2.00000
    135     -17.8253      2.00000
    136     -17.8253      2.00000
    137     -17.8253      2.00000
    138     -17.8253      2.00000
    139     -17.8253      2.00000
    140     -17.8253      2.00000
    141     -17.8252      2.00000
    142     -17.8252      2.00000
    143     -17.8252      2.00000
    144     -17.8252      2.00000
    145     -17.8252      2.00000
    146     -17.8252      2.00000
    147     -17.8144      2.00000
    148     -17.8144      2.00000
    149     -17.8144      2.00000
    150     -17.8144      2.00000
    151     -17.8144      2.00000
    152     -17.8144      2.00000
    153     -17.8144      2.00000
    154     -17.8144      2.00000
    155     -17.8144      2.00000
    156     -17.8144      2.00000
    157     -17.8144      2.00000
    158     -17.8144      2.00000
    159     -17.7950      2.00000
    160     -17.7950      2.00000
    161     -17.7950      2.00000
    162     -17.7950      2.00000
    163     -17.7950      2.00000
    164     -17.7950      2.00000
    165     -17.7950      2.00000
    166     -17.7950      2.00000
    167     -17.7950      2.00000
    168     -17.7950      2.00000
    169     -17.7950      2.00000
    170     -17.7950      2.00000
    171     -17.7950      2.00000
    172     -17.7950      2.00000
    173     -17.7950      2.00000
    174     -17.7950      2.00000
    175     -17.7950      2.00000
    176     -17.7950      2.00000
    177     -17.7950      2.00000
    178     -17.7950      2.00000
    179     -17.7950      2.00000
    180     -17.7950      2.00000
    181     -17.7950      2.00000
    182     -17.7950      2.00000
    183     -17.7867      2.00000
    184     -17.7867      2.00000
    185     -17.7867      2.00000
    186     -17.7867      2.00000
    187     -17.7867      2.00000
    188     -17.7867      2.00000
    189     -17.7867      2.00000
    190     -17.7867      2.00000
    191     -17.7867      2.00000
    192     -17.7867      2.00000
    193     -17.7867      2.00000
    194     -17.7867      2.00000
    195     -17.7867      2.00000
    196     -17.7867      2.00000
    197     -17.7867      2.00000
    198     -17.7867      2.00000
    199     -17.7867      2.00000
    200     -17.7867      2.00000
    201     -17.7867      2.00000
    202     -17.7867      2.00000
    203     -17.7867      2.00000
    204     -17.7867      2.00000
    205     -17.7867      2.00000
    206     -17.7867      2.00000
    207     -17.6842      2.00000
    208     -17.6842      2.00000
    209     -17.6842      2.00000
    210     -17.6842      2.00000
    211     -17.6842      2.00000
    212     -17.6842      2.00000
    213     -17.6842      2.00000
    214     -17.6842      2.00000
    215     -17.6842      2.00000
    216     -17.6842      2.00000
    217     -17.6842      2.00000
    218     -17.6842      2.00000
    219     -17.6841      2.00000
    220     -17.6841      2.00000
    221     -17.6841      2.00000
    222     -17.6841      2.00000
    223     -17.6474      2.00000
    224     -17.6474      2.00000
    225     -17.6474      2.00000
    226     -17.6433      2.00000
    227     -17.6433      2.00000
    228     -17.6433      2.00000
    229     -17.6433      2.00000
    230     -17.6433      2.00000
    231     -17.6433      2.00000
    232     -17.6207      2.00000
    233     -17.6207      2.00000
    234     -17.6207      2.00000
    235     -17.6207      2.00000
    236     -17.6207      2.00000
    237     -17.6207      2.00000
    238     -17.6207      2.00000
    239     -17.6207      2.00000
    240     -17.5396      2.00000
    241     -17.5396      2.00000
    242     -17.5396      2.00000
    243     -17.5396      2.00000
    244     -17.5396      2.00000
    245     -17.5396      2.00000
    246     -17.5396      2.00000
    247     -17.5396      2.00000
    248     -17.5396      2.00000
    249     -17.5396      2.00000
    250     -17.5396      2.00000
    251     -17.5396      2.00000
    252     -17.4965      2.00000
    253     -17.4965      2.00000
    254     -17.4965      2.00000
    255     -17.4965      2.00000
    256     -17.4965      2.00000
    257     -17.4965      2.00000
    258     -17.4741      2.00000
    259     -17.4741      2.00000
    260     -17.4741      2.00000
    261     -17.4741      2.00000
    262     -17.4741      2.00000
    263     -17.4741      2.00000
    264     -17.4741      2.00000
    265     -17.4741      2.00000
    266     -17.4741      2.00000
    267     -17.4741      2.00000
    268     -17.4741      2.00000
    269     -17.4741      2.00000
    270     -17.4608      2.00000
    271     -17.4608      2.00000
    272     -17.4608      2.00000
    273     -17.4608      2.00000
    274     -17.4608      2.00000
    275     -17.4608      2.00000
    276     -17.4587      2.00000
    277     -17.4587      2.00000
    278     -17.4587      2.00000
    279     -17.4587      2.00000
    280     -17.4587      2.00000
    281     -17.4587      2.00000
    282     -17.4587      2.00000
    283     -17.4587      2.00000
    284     -17.4587      2.00000
    285     -17.4587      2.00000
    286     -17.4587      2.00000
    287     -17.4587      2.00000
    288     -17.3730      2.00000
    289     -17.3730      2.00000
    290     -17.3730      2.00000
    291     -17.3730      2.00000
    292     -17.3730      2.00000
    293     -17.3730      2.00000
    294     -17.3730      2.00000
    295     -17.3730      2.00000
    296     -17.3730      2.00000
    297     -17.3730      2.00000
    298     -17.3730      2.00000
    299     -17.3730      2.00000
    300     -17.3730      2.00000
    301     -17.3730      2.00000
    302     -17.3730      2.00000
    303     -17.3730      2.00000
    304     -17.3729      2.00000
    305     -17.3729      2.00000
    306     -17.3729      2.00000
    307     -17.3729      2.00000
    308     -17.3729      2.00000
    309     -17.3729      2.00000
    310     -17.3729      2.00000
    311     -17.3729      2.00000
    312     -17.3630      2.00000
    313     -17.3630      2.00000
    314     -17.3630      2.00000
    315     -17.3630      2.00000
    316     -17.3630      2.00000
    317     -17.3630      2.00000
    318     -17.3630      2.00000
    319     -17.3630      2.00000
    320     -17.3630      2.00000
    321     -17.3630      2.00000
    322     -17.3630      2.00000
    323     -17.3630      2.00000
    324     -17.3066      2.00000
    325     -17.3066      2.00000
    326     -17.3066      2.00000
    327     -17.3066      2.00000
    328     -17.3066      2.00000
    329     -17.3066      2.00000
    330     -17.3066      2.00000
    331     -17.3066      2.00000
    332     -17.3066      2.00000
    333     -17.3066      2.00000
    334     -17.3066      2.00000
    335     -17.3066      2.00000
    336     -17.2840      2.00000
    337     -17.2840      2.00000
    338     -17.2840      2.00000
    339     -17.2840      2.00000
    340     -17.2840      2.00000
    341     -17.2840      2.00000
    342     -17.2840      2.00000
    343     -17.2840      2.00000
    344     -17.2840      2.00000
    345     -17.2840      2.00000
    346     -17.2840      2.00000
    347     -17.2840      2.00000
    348     -17.2733      2.00000
    349     -17.2733      2.00000
    350     -17.2733      2.00000
    351     -17.2733      2.00000
    352     -17.2732      2.00000
    353     -17.2732      2.00000
    354     -17.2732      2.00000
    355     -17.2732      2.00000
    356     -17.2732      2.00000
    357     -17.2732      2.00000
    358     -17.2732      2.00000
    359     -17.2732      2.00000
    360     -17.2732      2.00000
    361     -17.2732      2.00000
    362     -17.2732      2.00000
    363     -17.2732      2.00000
    364     -17.2732      2.00000
    365     -17.2732      2.00000
    366     -17.2732      2.00000
    367     -17.2732      2.00000
    368     -17.2732      2.00000
    369     -17.2732      2.00000
    370     -17.2732      2.00000
    371     -17.2732      2.00000
    372     -17.2632      2.00000
    373     -17.2632      2.00000
    374     -17.2632      2.00000
    375     -17.2632      2.00000
    376     -17.2632      2.00000
    377     -17.2632      2.00000
    378     -17.1456      2.00000
    379     -17.1456      2.00000
    380     -17.1456      2.00000
    381     -17.1456      2.00000
    382     -17.1456      2.00000
    383     -17.1456      2.00000
    384     -17.1334      2.00000
    385     -17.1334      2.00000
    386     -17.1334      2.00000
    387     -17.1334      2.00000
    388     -17.1334      2.00000
    389     -17.1334      2.00000
    390     -17.1334      2.00000
    391     -17.1334      2.00000
    392     -17.1021      2.00000
    393     -17.1021      2.00000
    394     -17.1021      2.00000
    395     -17.1021      2.00000
    396     -17.1021      2.00000
    397     -17.1021      2.00000
    398     -17.1021      2.00000
    399     -17.1021      2.00000
    400     -17.1021      2.00000
    401     -17.1021      2.00000
    402     -17.1021      2.00000
    403     -17.1021      2.00000
    404     -17.0955      2.00000
    405     -17.0955      2.00000
    406     -17.0955      2.00000
    407     -17.0955      2.00000
    408     -17.0955      2.00000
    409     -17.0955      2.00000
    410     -17.0955      2.00000
    411     -17.0955      2.00000
    412     -17.0955      2.00000
    413     -17.0955      2.00000
    414     -17.0955      2.00000
    415     -17.0955      2.00000
    416     -17.0648      2.00000
    417     -17.0648      2.00000
    418     -17.0648      2.00000
    419     -17.0648      2.00000
    420     -17.0648      2.00000
    421     -17.0648      2.00000
    422     -17.0648      2.00000
    423     -17.0648      2.00000
    424     -17.0648      2.00000
    425     -17.0648      2.00000
    426     -17.0648      2.00000
    427     -17.0648      2.00000
    428     -17.0648      2.00000
    429     -17.0648      2.00000
    430     -17.0648      2.00000
    431     -17.0648      2.00000
    432     -17.0553      2.00000
    433     -17.0553      2.00000
    434     -17.0553      2.00000
    435     -17.0553      2.00000
    436     -17.0553      2.00000
    437     -17.0553      2.00000
    438     -17.0553      2.00000
    439     -17.0553      2.00000
    440     -17.0553      2.00000
    441     -17.0553      2.00000
    442     -17.0553      2.00000
    443     -17.0553      2.00000
    444     -17.0553      2.00000
    445     -17.0553      2.00000
    446     -17.0553      2.00000
    447     -17.0553      2.00000
    448     -17.0553      2.00000
    449     -17.0553      2.00000
    450     -17.0553      2.00000
    451     -17.0553      2.00000
    452     -17.0553      2.00000
    453     -17.0553      2.00000
    454     -17.0553      2.00000
    455     -17.0553      2.00000
    456     -17.0448      2.00000
    457     -17.0448      2.00000
    458     -17.0448      2.00000
    459     -17.0448      2.00000
    460     -17.0448      2.00000
    461     -17.0448      2.00000
    462     -17.0448      2.00000
    463     -17.0448      2.00000
    464     -17.0448      2.00000
    465     -17.0448      2.00000
    466     -17.0448      2.00000
    467     -17.0448      2.00000
    468     -17.0448      2.00000
    469     -17.0448      2.00000
    470     -17.0448      2.00000
    471     -17.0448      2.00000
    472     -17.0448      2.00000
    473     -17.0448      2.00000
    474     -17.0448      2.00000
    475     -17.0448      2.00000
    476     -17.0448      2.00000
    477     -17.0448      2.00000
    478     -17.0448      2.00000
    479     -17.0448      2.00000
    480     -17.0355      2.00000
    481     -17.0355      2.00000
    482     -17.0355      2.00000
    483     -17.0354      2.00000
    484     -17.0354      2.00000
    485     -17.0354      2.00000
    486     -17.0354      2.00000
    487     -17.0354      2.00000
    488     -17.0354      2.00000
    489     -17.0354      2.00000
    490     -17.0354      2.00000
    491     -17.0354      2.00000
    492     -16.9443      2.00000
    493     -16.9443      2.00000
    494     -16.9443      2.00000
    495     -16.9443      2.00000
    496     -16.9443      2.00000
    497     -16.9443      2.00000
    498     -16.9397      2.00000
    499     -16.9397      2.00000
    500     -16.9397      2.00000
    501     -16.9397      2.00000
    502     -16.9397      2.00000
    503     -16.9397      2.00000
    504     -16.9397      2.00000
    505     -16.9397      2.00000
    506     -16.9397      2.00000
    507     -16.9397      2.00000
    508     -16.9397      2.00000
    509     -16.9397      2.00000
    510     -16.9335      2.00000
    511     -16.9335      2.00000
    512     -16.9335      2.00000
    513       3.6211      2.00000
    514       4.6458      2.00000
    515       4.6458      2.00000
    516       4.6458      2.00000
    517       4.6458      2.00000
    518       4.6458      2.00000
    519       4.6458      2.00000
    520       5.3809      2.00000
    521       5.3810      2.00000
    522       5.3810      2.00000
    523       5.3810      2.00000
    524       5.3810      2.00000
    525       5.3810      2.00000
    526       5.3810      2.00000
    527       5.3810      2.00000
    528       5.3810      2.00000
    529       5.3810      2.00000
    530       5.3810      2.00000
    531       5.3810      2.00000
    532       6.1509      2.00000
    533       6.1509      2.00000
    534       6.1509      2.00000
    535       6.1509      2.00000
    536       6.1509      2.00000
    537       6.1509      2.00000
    538       6.2194      2.00000
    539       6.2194      2.00000
    540       6.2194      2.00000
    541       6.2194      2.00000
    542       6.2194      2.00000
    543       6.2194      2.00000
    544       6.2194      2.00000
    545       6.2194      2.00000
    546       6.3525      2.00000
    547       6.3525      2.00000
    548       6.5808      2.00000
    549       6.5808      2.00000
    550       6.5808      2.00000
    551       6.5808      2.00000
    552       6.5808      2.00000
    553       6.5808      2.00000
    554       6.5808      2.00000
    555       6.5808      2.00000
    556       6.5808      2.00000
    557       6.5808      2.00000
    558       6.5808      2.00000
    559       6.5808      2.00000
    560       6.5808      2.00000
    561       6.5808      2.00000
    562       6.5808      2.00000
    563       6.5808      2.00000
    564       6.5808      2.00000
    565       6.5808      2.00000
    566       6.5808      2.00000
    567       6.5808      2.00000
    568       6.5808      2.00000
    569       6.5808      2.00000
    570       6.5808      2.00000
    571       6.5808      2.00000
    572       6.7513      2.00000
    573       6.7513      2.00000
    574       6.7513      2.00000
    575       6.7513      2.00000
    576       6.7513      2.00000
    577       6.7513      2.00000
    578       6.9560      2.00000
    579       6.9560      2.00000
    580       6.9560      2.00000
    581       6.9560      2.00000
    582       6.9560      2.00000
    583       6.9560      2.00000
    584       7.0322      2.00000
    585       7.0322      2.00000
    586       7.0322      2.00000
    587       7.0322      2.00000
    588       7.0322      2.00000
    589       7.0322      2.00000
    590       7.1048      2.00000
    591       7.1048      2.00000
    592       7.1049      2.00000
    593       7.1049      2.00000
    594       7.1049      2.00000
    595       7.1049      2.00000
    596       7.1049      2.00000
    597       7.1049      2.00000
    598       7.1049      2.00000
    599       7.1049      2.00000
    600       7.1049      2.00000
    601       7.1049      2.00000
    602       7.1548      2.00000
    603       7.1548      2.00000
    604       7.1548      2.00000
    605       7.1548      2.00000
    606       7.1548      2.00000
    607       7.1548      2.00000
    608       7.1548      2.00000
    609       7.1548      2.00000
    610       7.1548      2.00000
    611       7.1548      2.00000
    612       7.1548      2.00000
    613       7.1549      2.00000
    614       7.2027      2.00000
    615       7.2027      2.00000
    616       7.2027      2.00000
    617       7.2027      2.00000
    618       7.2027      2.00000
    619       7.2027      2.00000
    620       7.2027      2.00000
    621       7.2027      2.00000
    622       7.2027      2.00000
    623       7.2027      2.00000
    624       7.2027      2.00000
    625       7.2027      2.00000
    626       7.2027      2.00000
    627       7.2027      2.00000
    628       7.2027      2.00000
    629       7.2027      2.00000
    630       7.2027      2.00000
    631       7.2027      2.00000
    632       7.2027      2.00000
    633       7.2027      2.00000
    634       7.2027      2.00000
    635       7.2027      2.00000
    636       7.2028      2.00000
    637       7.2028      2.00000
    638       7.8804      2.00000
    639       7.8804      2.00000
    640       7.8804      2.00000
    641       7.8804      2.00000
    642       7.8804      2.00000
    643       7.8804      2.00000
    644       7.8804      2.00000
    645       7.8804      2.00000
    646       7.8804      2.00000
    647       7.8804      2.00000
    648       7.8804      2.00000
    649       7.8804      2.00000
    650       8.0487      2.00000
    651       8.0488      2.00000
    652       8.0488      2.00000
    653       8.0488      2.00000
    654       8.0488      2.00000
    655       8.0488      2.00000
    656       8.0488      2.00000
    657       8.0488      2.00000
    658       8.0488      2.00000
    659       8.0488      2.00000
    660       8.0488      2.00000
    661       8.0488      2.00000
    662       8.0488      2.00000
    663       8.0488      2.00000
    664       8.0488      2.00000
    665       8.0488      2.00000
    666       8.1581      2.00000
    667       8.1581      2.00000
    668       8.1581      2.00000
    669       8.1581      2.00000
    670       8.1581      2.00000
    671       8.1581      2.00000
    672       8.1581      2.00000
    673       8.1581      2.00000
    674       8.1581      2.00000
    675       8.1581      2.00000
    676       8.1581      2.00000
    677       8.1581      2.00000
    678       8.2799      2.00001
    679       8.2799      2.00001
    680       8.2799      2.00001
    681       8.2799      2.00001
    682       8.2799      2.00001
    683       8.2799      2.00001
    684       8.2937      2.00001
    685       8.2937      2.00001
    686       8.2937      2.00001
    687       8.2937      2.00001
    688       8.2937      2.00001
    689       8.2937      2.00001
    690       8.2937      2.00001
    691       8.2937      2.00001
    692       8.2937      2.00001
    693       8.2937      2.00001
    694       8.2937      2.00001
    695       8.2937      2.00001
    696       8.2937      2.00001
    697       8.2937      2.00001
    698       8.2937      2.00001
    699       8.2937      2.00001
    700       8.2937      2.00001
    701       8.2937      2.00001
    702       8.2937      2.00001
    703       8.2937      2.00001
    704       8.2937      2.00001
    705       8.2937      2.00001
    706       8.2937      2.00001
    707       8.2937      2.00001
    708       8.4427      2.00073
    709       8.4427      2.00073
    710       8.4427      2.00073
    711       8.4427      2.00073
    712       8.4427      2.00073
    713       8.4427      2.00073
    714       8.4427      2.00073
    715       8.4427      2.00073
    716       8.4546      2.00097
    717       8.4546      2.00097
    718       8.4546      2.00097
    719       8.4546      2.00097
    720       8.4546      2.00097
    721       8.4546      2.00097
    722       8.6836      2.05165
    723       8.6836      2.05165
    724       8.6836      2.05165
    725       8.6836      2.05165
    726       8.6836      2.05165
    727       8.6836      2.05165
    728       8.6839      2.05183
    729       8.6839      2.05183
    730       8.6839      2.05183
    731       8.6839      2.05183
    732       8.6839      2.05183
    733       8.6839      2.05183
    734       8.6839      2.05183
    735       8.6839      2.05183
    736       8.6839      2.05183
    737       8.6840      2.05183
    738       8.6840      2.05183
    739       8.6840      2.05183
    740       8.6840      2.05183
    741       8.6840      2.05183
    742       8.6840      2.05183
    743       8.6840      2.05183
    744       9.0253      0.71940
    745       9.0253      0.71939
    746       9.0253      0.71938
    747       9.0253      0.71936
    748       9.0253      0.71934
    749       9.0253      0.71934
    750       9.0253      0.71933
    751       9.0253      0.71932
    752       9.0253      0.71931
    753       9.0253      0.71930
    754       9.0253      0.71929
    755       9.0253      0.71928
    756       9.0253      0.71927
    757       9.0253      0.71926
    758       9.0253      0.71925
    759       9.0253      0.71923
    760       9.0253      0.71923
    761       9.0253      0.71922
    762       9.0253      0.71921
    763       9.0253      0.71920
    764       9.0253      0.71919
    765       9.0253      0.71919
    766       9.0253      0.71916
    767       9.0253      0.71915
    768       9.0332      0.65673
    769       9.0332      0.65672
    770       9.0332      0.65670
    771       9.0332      0.65670
    772       9.0332      0.65669
    773       9.0332      0.65669
    774       9.0332      0.65668
    775       9.0332      0.65668
    776       9.0332      0.65667
    777       9.0332      0.65667
    778       9.0332      0.65665
    779       9.0332      0.65665
    780       9.0332      0.65663
    781       9.0332      0.65663
    782       9.0332      0.65662
    783       9.0332      0.65661
    784       9.0332      0.65661
    785       9.0332      0.65661
    786       9.0332      0.65659
    787       9.0332      0.65659
    788       9.0332      0.65659
    789       9.0332      0.65658
    790       9.0332      0.65656
    791       9.0332      0.65655
    792       9.0669      0.40990
    793       9.0669      0.40989
    794       9.0669      0.40988
    795       9.0669      0.40988
    796       9.0669      0.40987
    797       9.0669      0.40986
    798       9.0669      0.40985
    799       9.0669      0.40985
    800       9.0669      0.40985
    801       9.0669      0.40984
    802       9.0669      0.40984
    803       9.0670      0.40983
    804       9.0670      0.40982
    805       9.0670      0.40982
    806       9.0670      0.40981
    807       9.0670      0.40981
    808       9.0670      0.40980
    809       9.0670      0.40980
    810       9.0670      0.40978
    811       9.0670      0.40978
    812       9.0670      0.40977
    813       9.0670      0.40976
    814       9.0670      0.40976
    815       9.0670      0.40975
    816       9.0774      0.34261
    817       9.0774      0.34261
    818       9.0774      0.34260
    819       9.0774      0.34260
    820       9.0774      0.34259
    821       9.0774      0.34258
    822       9.0774      0.34257
    823       9.0774      0.34257
    824       9.0774      0.34256
    825       9.0774      0.34256
    826       9.0774      0.34254
    827       9.0774      0.34254
    828       9.4170     -0.01039
    829       9.4170     -0.01039
    830       9.4170     -0.01039
    831       9.4170     -0.01039
    832       9.4170     -0.01039
    833       9.4170     -0.01039
    834       9.4170     -0.01039
    835       9.4170     -0.01039
    836       9.4170     -0.01039
    837       9.4170     -0.01039
    838       9.4170     -0.01039
    839       9.4170     -0.01039
    840       9.6404     -0.00004
    841       9.6404     -0.00004
    842       9.6404     -0.00004
    843       9.6404     -0.00004
    844       9.6404     -0.00004
    845       9.6404     -0.00004
    846       9.6404     -0.00004
    847       9.6404     -0.00004
    848       9.6405     -0.00004
    849       9.6405     -0.00004
    850       9.6405     -0.00004
    851       9.6405     -0.00004
    852      10.0232     -0.00000
    853      10.0232     -0.00000
    854      10.0232     -0.00000
    855      10.0232     -0.00000
    856      10.0232     -0.00000
    857      10.0232     -0.00000
    858      10.0232     -0.00000
    859      10.0232     -0.00000
    860      10.0232     -0.00000
    861      10.0232     -0.00000
    862      10.0232     -0.00000
    863      10.0232     -0.00000
    864      10.1206     -0.00000
    865      10.1206     -0.00000
    866      10.1206     -0.00000
    867      10.3808     -0.00000
    868      10.3808     -0.00000
    869      10.3808     -0.00000
    870      10.3808     -0.00000
    871      10.3808     -0.00000
    872      10.3808     -0.00000
    873      10.3808     -0.00000
    874      10.3808     -0.00000
    875      10.3808     -0.00000
    876      10.3808     -0.00000
    877      10.3808     -0.00000
    878      10.3808     -0.00000
    879      10.4909     -0.00000
    880      10.4909     -0.00000
    881      10.4909     -0.00000
    882      10.4909     -0.00000
    883      10.4909     -0.00000
    884      10.4909     -0.00000
    885      10.4909     -0.00000
    886      10.4909     -0.00000
    887      10.4909     -0.00000
    888      10.4909     -0.00000
    889      10.4909     -0.00000
    890      10.4909     -0.00000
    891      10.6211     -0.00000
    892      10.6211     -0.00000
    893      10.6211     -0.00000
    894      10.6211     -0.00000
    895      10.6211     -0.00000
    896      10.6211     -0.00000
    897      10.6782     -0.00000
    898      10.6782     -0.00000
    899      10.6782     -0.00000
    900      10.6782     -0.00000
    901      10.6782     -0.00000
    902      10.6782     -0.00000
    903      11.0412     -0.00000
    904      11.0412     -0.00000
    905      11.0412     -0.00000
    906      11.0412     -0.00000
    907      11.0412     -0.00000
    908      11.0412     -0.00000
    909      11.0412     -0.00000
    910      11.0412     -0.00000
    911      11.0412     -0.00000
    912      11.0412     -0.00000
    913      11.0412     -0.00000
    914      11.0412     -0.00000
    915      11.1273     -0.00000
    916      11.1273     -0.00000
    917      11.1273     -0.00000
    918      11.1273     -0.00000
    919      11.1273     -0.00000
    920      11.1273     -0.00000
    921      11.6703     -0.00000
    922      11.6703     -0.00000
    923      11.6703     -0.00000
    924      11.6703     -0.00000

 k-point     2 :       0.5000    0.0000    0.0000
  band No.  band energies     occupation 
      1     -39.4295      2.00000
      2     -39.4293      2.00000
      3     -39.3855      2.00000
      4     -39.3855      2.00000
      5     -39.3854      2.00000
      6     -39.3854      2.00000
      7     -39.3853      2.00000
      8     -39.3853      2.00000
      9     -39.3853      2.00000
     10     -39.3853      2.00000
     11     -39.3520      2.00000
     12     -39.3520      2.00000
     13     -39.3520      2.00000
     14     -39.3520      2.00000
     15     -39.3518      2.00000
     16     -39.3518      2.00000
     17     -39.3518      2.00000
     18     -39.3518      2.00000
     19     -39.3445      2.00000
     20     -39.3445      2.00000
     21     -39.3219      2.00000
     22     -39.3219      2.00000
     23     -39.3219      2.00000
     24     -39.3219      2.00000
     25     -39.3219      2.00000
     26     -39.3219      2.00000
     27     -39.3219      2.00000
     28     -39.3219      2.00000
     29     -39.3041      2.00000
     30     -39.3041      2.00000
     31     -39.3041      2.00000
     32     -39.3041      2.00000
     33     -39.3041      2.00000
     34     -39.3041      2.00000
     35     -39.3041      2.00000
     36     -39.3041      2.00000
     37     -39.2860      2.00000
     38     -39.2860      2.00000
     39     -39.2860      2.00000
     40     -39.2860      2.00000
     41     -39.2859      2.00000
     42     -39.2859      2.00000
     43     -39.2859      2.00000
     44     -39.2859      2.00000
     45     -39.2795      2.00000
     46     -39.2795      2.00000
     47     -39.2795      2.00000
     48     -39.2795      2.00000
     49     -39.2795      2.00000
     50     -39.2795      2.00000
     51     -39.2795      2.00000
     52     -39.2795      2.00000
     53     -39.2794      2.00000
     54     -39.2794      2.00000
     55     -39.2794      2.00000
     56     -39.2794      2.00000
     57     -39.2794      2.00000
     58     -39.2794      2.00000
     59     -39.2794      2.00000
     60     -39.2794      2.00000
     61     -39.2768      2.00000
     62     -39.2768      2.00000
     63     -39.2768      2.00000
     64     -39.2768      2.00000
     65     -39.2766      2.00000
     66     -39.2766      2.00000
     67     -39.2766      2.00000
     68     -39.2766      2.00000
     69     -39.2728      2.00000
     70     -39.2728      2.00000
     71     -39.2727      2.00000
     72     -39.2727      2.00000
     73     -39.2702      2.00000
     74     -39.2702      2.00000
     75     -39.2702      2.00000
     76     -39.2702      2.00000
     77     -39.2702      2.00000
     78     -39.2702      2.00000
     79     -39.2702      2.00000
     80     -39.2702      2.00000
     81     -39.2701      2.00000
     82     -39.2701      2.00000
     83     -39.2701      2.00000
     84     -39.2701      2.00000
     85     -39.2701      2.00000
     86     -39.2701      2.00000
     87     -39.2701      2.00000
     88     -39.2701      2.00000
     89     -39.2638      2.00000
     90     -39.2638      2.00000
     91     -39.2637      2.00000
     92     -39.2637      2.00000
     93     -39.2492      2.00000
     94     -39.2492      2.00000
     95     -39.2492      2.00000
     96     -39.2492      2.00000
     97     -39.2492      2.00000
     98     -39.2492      2.00000
     99     -39.2492      2.00000
    100     -39.2492      2.00000
    101     -39.2443      2.00000
    102     -39.2443      2.00000
    103     -39.2443      2.00000
    104     -39.2443      2.00000
    105     -39.2443      2.00000
    106     -39.2443      2.00000
    107     -39.2443      2.00000
    108     -39.2443      2.00000
    109     -39.2348      2.00000
    110     -39.2348      2.00000
    111     -39.2195      2.00000
    112     -39.2195      2.00000
    113     -39.2195      2.00000
    114     -39.2195      2.00000
    115     -39.2194      2.00000
    116     -39.2194      2.00000
    117     -39.2194      2.00000
    118     -39.2194      2.00000
    119     -39.1982      2.00000
    120     -39.1982      2.00000
    121     -39.1982      2.00000
    122     -39.1982      2.00000
    123     -39.1980      2.00000
    124     -39.1980      2.00000
    125     -39.1980      2.00000
    126     -39.1980      2.00000
    127     -39.1653      2.00000
    128     -39.1652      2.00000
    129     -17.9364      2.00000
    130     -17.9364      2.00000
    131     -17.9363      2.00000
    132     -17.9363      2.00000
    133     -17.9272      2.00000
    134     -17.9272      2.00000
    135     -17.9272      2.00000
    136     -17.9272      2.00000
    137     -17.9271      2.00000
    138     -17.9271      2.00000
    139     -17.9271      2.00000
    140     -17.9271      2.00000
    141     -17.8451      2.00000
    142     -17.8450      2.00000
    143     -17.8450      2.00000
    144     -17.8450      2.00000
    145     -17.8450      2.00000
    146     -17.8450      2.00000
    147     -17.8450      2.00000
    148     -17.8450      2.00000
    149     -17.8092      2.00000
    150     -17.8092      2.00000
    151     -17.8092      2.00000
    152     -17.8092      2.00000
    153     -17.8092      2.00000
    154     -17.8092      2.00000
    155     -17.8092      2.00000
    156     -17.8092      2.00000
    157     -17.8091      2.00000
    158     -17.8091      2.00000
    159     -17.8091      2.00000
    160     -17.8091      2.00000
    161     -17.8091      2.00000
    162     -17.8091      2.00000
    163     -17.8091      2.00000
    164     -17.8091      2.00000
    165     -17.7890      2.00000
    166     -17.7890      2.00000
    167     -17.7890      2.00000
    168     -17.7890      2.00000
    169     -17.7890      2.00000
    170     -17.7890      2.00000
    171     -17.7890      2.00000
    172     -17.7890      2.00000
    173     -17.7889      2.00000
    174     -17.7889      2.00000
    175     -17.7888      2.00000
    176     -17.7888      2.00000
    177     -17.7888      2.00000
    178     -17.7888      2.00000
    179     -17.7888      2.00000
    180     -17.7888      2.00000
    181     -17.7808      2.00000
    182     -17.7808      2.00000
    183     -17.7808      2.00000
    184     -17.7808      2.00000
    185     -17.7807      2.00000
    186     -17.7807      2.00000
    187     -17.7807      2.00000
    188     -17.7807      2.00000
    189     -17.7718      2.00000
    190     -17.7718      2.00000
    191     -17.7718      2.00000
    192     -17.7718      2.00000
    193     -17.7718      2.00000
    194     -17.7718      2.00000
    195     -17.7718      2.00000
    196     -17.7718      2.00000
    197     -17.7271      2.00000
    198     -17.7271      2.00000
    199     -17.7271      2.00000
    200     -17.7271      2.00000
    201     -17.7271      2.00000
    202     -17.7271      2.00000
    203     -17.7271      2.00000
    204     -17.7271      2.00000
    205     -17.7265      2.00000
    206     -17.7265      2.00000
    207     -17.7265      2.00000
    208     -17.7265      2.00000
    209     -17.7264      2.00000
    210     -17.7264      2.00000
    211     -17.7264      2.00000
    212     -17.7264      2.00000
    213     -17.6633      2.00000
    214     -17.6633      2.00000
    215     -17.6633      2.00000
    216     -17.6633      2.00000
    217     -17.6633      2.00000
    218     -17.6633      2.00000
    219     -17.6633      2.00000
    220     -17.6633      2.00000
    221     -17.6585      2.00000
    222     -17.6585      2.00000
    223     -17.6585      2.00000
    224     -17.6585      2.00000
    225     -17.6489      2.00000
    226     -17.6488      2.00000
    227     -17.6191      2.00000
    228     -17.6191      2.00000
    229     -17.6189      2.00000
    230     -17.6189      2.00000
    231     -17.6188      2.00000
    232     -17.6188      2.00000
    233     -17.6188      2.00000
    234     -17.6188      2.00000
    235     -17.6187      2.00000
    236     -17.6187      2.00000
    237     -17.6187      2.00000
    238     -17.6187      2.00000
    239     -17.6002      2.00000
    240     -17.6002      2.00000
    241     -17.5541      2.00000
    242     -17.5541      2.00000
    243     -17.5541      2.00000
    244     -17.5541      2.00000
    245     -17.5540      2.00000
    246     -17.5540      2.00000
    247     -17.5540      2.00000
    248     -17.5540      2.00000
    249     -17.5412      2.00000
    250     -17.5412      2.00000
    251     -17.5412      2.00000
    252     -17.5412      2.00000
    253     -17.5412      2.00000
    254     -17.5412      2.00000
    255     -17.5412      2.00000
    256     -17.5412      2.00000
    257     -17.5182      2.00000
    258     -17.5182      2.00000
    259     -17.5182      2.00000
    260     -17.5182      2.00000
    261     -17.5181      2.00000
    262     -17.5181      2.00000
    263     -17.5181      2.00000
    264     -17.5181      2.00000
    265     -17.5181      2.00000
    266     -17.5181      2.00000
    267     -17.5181      2.00000
    268     -17.5181      2.00000
    269     -17.5180      2.00000
    270     -17.5180      2.00000
    271     -17.5180      2.00000
    272     -17.5180      2.00000
    273     -17.4428      2.00000
    274     -17.4428      2.00000
    275     -17.4428      2.00000
    276     -17.4428      2.00000
    277     -17.4427      2.00000
    278     -17.4427      2.00000
    279     -17.4427      2.00000
    280     -17.4427      2.00000
    281     -17.4327      2.00000
    282     -17.4327      2.00000
    283     -17.4326      2.00000
    284     -17.4326      2.00000
    285     -17.4214      2.00000
    286     -17.4214      2.00000
    287     -17.4214      2.00000
    288     -17.4214      2.00000
    289     -17.3777      2.00000
    290     -17.3777      2.00000
    291     -17.3777      2.00000
    292     -17.3777      2.00000
    293     -17.3777      2.00000
    294     -17.3777      2.00000
    295     -17.3777      2.00000
    296     -17.3777      2.00000
    297     -17.3776      2.00000
    298     -17.3776      2.00000
    299     -17.3776      2.00000
    300     -17.3776      2.00000
    301     -17.3776      2.00000
    302     -17.3776      2.00000
    303     -17.3776      2.00000
    304     -17.3776      2.00000
    305     -17.3720      2.00000
    306     -17.3720      2.00000
    307     -17.3720      2.00000
    308     -17.3720      2.00000
    309     -17.3720      2.00000
    310     -17.3720      2.00000
    311     -17.3720      2.00000
    312     -17.3720      2.00000
    313     -17.3326      2.00000
    314     -17.3326      2.00000
    315     -17.3151      2.00000
    316     -17.3151      2.00000
    317     -17.3151      2.00000
    318     -17.3151      2.00000
    319     -17.3151      2.00000
    320     -17.3151      2.00000
    321     -17.3151      2.00000
    322     -17.3151      2.00000
    323     -17.3151      2.00000
    324     -17.3151      2.00000
    325     -17.3150      2.00000
    326     -17.3150      2.00000
    327     -17.3150      2.00000
    328     -17.3150      2.00000
    329     -17.3150      2.00000
    330     -17.3150      2.00000
    331     -17.2924      2.00000
    332     -17.2924      2.00000
    333     -17.2923      2.00000
    334     -17.2923      2.00000
    335     -17.2806      2.00000
    336     -17.2806      2.00000
    337     -17.2806      2.00000
    338     -17.2806      2.00000
    339     -17.2804      2.00000
    340     -17.2804      2.00000
    341     -17.2804      2.00000
    342     -17.2804      2.00000
    343     -17.2739      2.00000
    344     -17.2739      2.00000
    345     -17.2739      2.00000
    346     -17.2739      2.00000
    347     -17.2738      2.00000
    348     -17.2738      2.00000
    349     -17.2738      2.00000
    350     -17.2738      2.00000
    351     -17.2664      2.00000
    352     -17.2664      2.00000
    353     -17.2664      2.00000
    354     -17.2664      2.00000
    355     -17.2663      2.00000
    356     -17.2663      2.00000
    357     -17.2663      2.00000
    358     -17.2663      2.00000
    359     -17.2629      2.00000
    360     -17.2629      2.00000
    361     -17.2629      2.00000
    362     -17.2629      2.00000
    363     -17.2281      2.00000
    364     -17.2281      2.00000
    365     -17.2281      2.00000
    366     -17.2281      2.00000
    367     -17.2280      2.00000
    368     -17.2280      2.00000
    369     -17.2280      2.00000
    370     -17.2280      2.00000
    371     -17.2056      2.00000
    372     -17.2056      2.00000
    373     -17.2056      2.00000
    374     -17.2056      2.00000
    375     -17.2056      2.00000
    376     -17.2056      2.00000
    377     -17.2056      2.00000
    378     -17.2056      2.00000
    379     -17.1819      2.00000
    380     -17.1819      2.00000
    381     -17.1819      2.00000
    382     -17.1819      2.00000
    383     -17.1818      2.00000
    384     -17.1818      2.00000
    385     -17.1818      2.00000
    386     -17.1818      2.00000
    387     -17.1787      2.00000
    388     -17.1787      2.00000
    389     -17.1787      2.00000
    390     -17.1787      2.00000
    391     -17.1787      2.00000
    392     -17.1787      2.00000
    393     -17.1787      2.00000
    394     -17.1787      2.00000
    395     -17.1727      2.00000
    396     -17.1727      2.00000
    397     -17.1727      2.00000
    398     -17.1727      2.00000
    399     -17.1727      2.00000
    400     -17.1727      2.00000
    401     -17.1727      2.00000
    402     -17.1727      2.00000
    403     -17.1486      2.00000
    404     -17.1486      2.00000
    405     -17.1486      2.00000
    406     -17.1486      2.00000
    407     -17.0898      2.00000
    408     -17.0898      2.00000
    409     -17.0898      2.00000
    410     -17.0898      2.00000
    411     -17.0897      2.00000
    412     -17.0897      2.00000
    413     -17.0897      2.00000
    414     -17.0897      2.00000
    415     -17.0737      2.00000
    416     -17.0737      2.00000
    417     -17.0737      2.00000
    418     -17.0737      2.00000
    419     -17.0737      2.00000
    420     -17.0737      2.00000
    421     -17.0737      2.00000
    422     -17.0737      2.00000
    423     -17.0736      2.00000
    424     -17.0736      2.00000
    425     -17.0736      2.00000
    426     -17.0736      2.00000
    427     -17.0736      2.00000
    428     -17.0736      2.00000
    429     -17.0736      2.00000
    430     -17.0736      2.00000
    431     -17.0720      2.00000
    432     -17.0720      2.00000
    433     -17.0720      2.00000
    434     -17.0720      2.00000
    435     -17.0720      2.00000
    436     -17.0720      2.00000
    437     -17.0720      2.00000
    438     -17.0720      2.00000
    439     -17.0524      2.00000
    440     -17.0524      2.00000
    441     -17.0524      2.00000
    442     -17.0524      2.00000
    443     -17.0522      2.00000
    444     -17.0522      2.00000
    445     -17.0522      2.00000
    446     -17.0522      2.00000
    447     -17.0458      2.00000
    448     -17.0458      2.00000
    449     -17.0458      2.00000
    450     -17.0458      2.00000
    451     -17.0458      2.00000
    452     -17.0458      2.00000
    453     -17.0458      2.00000
    454     -17.0458      2.00000
    455     -17.0439      2.00000
    456     -17.0439      2.00000
    457     -17.0439      2.00000
    458     -17.0439      2.00000
    459     -17.0439      2.00000
    460     -17.0439      2.00000
    461     -17.0439      2.00000
    462     -17.0439      2.00000
    463     -17.0438      2.00000
    464     -17.0438      2.00000
    465     -17.0438      2.00000
    466     -17.0438      2.00000
    467     -17.0438      2.00000
    468     -17.0438      2.00000
    469     -17.0438      2.00000
    470     -17.0438      2.00000
    471     -16.9941      2.00000
    472     -16.9940      2.00000
    473     -16.9833      2.00000
    474     -16.9833      2.00000
    475     -16.9832      2.00000
    476     -16.9832      2.00000
    477     -16.9726      2.00000
    478     -16.9726      2.00000
    479     -16.9726      2.00000
    480     -16.9726      2.00000
    481     -16.9725      2.00000
    482     -16.9725      2.00000
    483     -16.9725      2.00000
    484     -16.9725      2.00000
    485     -16.9720      2.00000
    486     -16.9720      2.00000
    487     -16.9720      2.00000
    488     -16.9720      2.00000
    489     -16.9719      2.00000
    490     -16.9719      2.00000
    491     -16.9719      2.00000
    492     -16.9719      2.00000
    493     -16.9716      2.00000
    494     -16.9716      2.00000
    495     -16.9716      2.00000
    496     -16.9716      2.00000
    497     -16.9716      2.00000
    498     -16.9716      2.00000
    499     -16.9716      2.00000
    500     -16.9716      2.00000
    501     -16.9709      2.00000
    502     -16.9709      2.00000
    503     -16.9709      2.00000
    504     -16.9709      2.00000
    505     -16.9709      2.00000
    506     -16.9709      2.00000
    507     -16.9709      2.00000
    508     -16.9709      2.00000
    509     -16.9602      2.00000
    510     -16.9602      2.00000
    511     -16.9601      2.00000
    512     -16.9601      2.00000
    513       3.8909      2.00000
    514       3.8911      2.00000
    515       4.8513      2.00000
    516       4.8513      2.00000
    517       4.8513      2.00000
    518       4.8513      2.00000
    519       4.8515      2.00000
    520       4.8515      2.00000
    521       4.8515      2.00000
    522       4.8515      2.00000
    523       5.6183      2.00000
    524       5.6183      2.00000
    525       5.6183      2.00000
    526       5.6183      2.00000
    527       5.6184      2.00000
    528       5.6184      2.00000
    529       5.6184      2.00000
    530       5.6184      2.00000
    531       5.7078      2.00000
    532       5.7078      2.00000
    533       6.0196      2.00000
    534       6.0196      2.00000
    535       6.0196      2.00000
    536       6.0196      2.00000
    537       6.0196      2.00000
    538       6.0196      2.00000
    539       6.0197      2.00000
    540       6.0197      2.00000
    541       6.2787      2.00000
    542       6.2787      2.00000
    543       6.2787      2.00000
    544       6.2787      2.00000
    545       6.2788      2.00000
    546       6.2788      2.00000
    547       6.2788      2.00000
    548       6.2788      2.00000
    549       6.4249      2.00000
    550       6.4250      2.00000
    551       6.4251      2.00000
    552       6.4251      2.00000
    553       6.5046      2.00000
    554       6.5047      2.00000
    555       6.5611      2.00000
    556       6.5612      2.00000
    557       6.7686      2.00000
    558       6.7686      2.00000
    559       6.7686      2.00000
    560       6.7686      2.00000
    561       6.7688      2.00000
    562       6.7688      2.00000
    563       6.7688      2.00000
    564       6.7688      2.00000
    565       6.8029      2.00000
    566       6.8029      2.00000
    567       6.8030      2.00000
    568       6.8030      2.00000
    569       6.8030      2.00000
    570       6.8030      2.00000
    571       6.8030      2.00000
    572       6.8030      2.00000
    573       6.8031      2.00000
    574       6.8031      2.00000
    575       6.8031      2.00000
    576       6.8031      2.00000
    577       6.8031      2.00000
    578       6.8031      2.00000
    579       6.8031      2.00000
    580       6.8031      2.00000
    581       6.8253      2.00000
    582       6.8253      2.00000
    583       6.8253      2.00000
    584       6.8253      2.00000
    585       6.8253      2.00000
    586       6.8253      2.00000
    587       6.8253      2.00000
    588       6.8253      2.00000
    589       6.9781      2.00000
    590       6.9781      2.00000
    591       6.9781      2.00000
    592       6.9781      2.00000
    593       6.9781      2.00000
    594       6.9781      2.00000
    595       6.9781      2.00000
    596       6.9781      2.00000
    597       7.0332      2.00000
    598       7.0332      2.00000
    599       7.0333      2.00000
    600       7.0333      2.00000
    601       7.0334      2.00000
    602       7.0334      2.00000
    603       7.0334      2.00000
    604       7.0334      2.00000
    605       7.2147      2.00000
    606       7.2147      2.00000
    607       7.2147      2.00000
    608       7.2147      2.00000
    609       7.2147      2.00000
    610       7.2147      2.00000
    611       7.2147      2.00000
    612       7.2147      2.00000
    613       7.2148      2.00000
    614       7.2148      2.00000
    615       7.2148      2.00000
    616       7.2148      2.00000
    617       7.2148      2.00000
    618       7.2148      2.00000
    619       7.2148      2.00000
    620       7.2148      2.00000
    621       7.2550      2.00000
    622       7.2550      2.00000
    623       7.2550      2.00000
    624       7.2550      2.00000
    625       7.2551      2.00000
    626       7.2551      2.00000
    627       7.2551      2.00000
    628       7.2551      2.00000
    629       7.2666      2.00000
    630       7.2666      2.00000
    631       7.3760      2.00000
    632       7.3760      2.00000
    633       7.3760      2.00000
    634       7.3760      2.00000
    635       7.3761      2.00000
    636       7.3761      2.00000
    637       7.3761      2.00000
    638       7.3761      2.00000
    639       7.6487      2.00000
    640       7.6487      2.00000
    641       7.6487      2.00000
    642       7.6487      2.00000
    643       7.6487      2.00000
    644       7.6487      2.00000
    645       7.6487      2.00000
    646       7.6487      2.00000
    647       7.6924      2.00000
    648       7.6924      2.00000
    649       7.9288      2.00000
    650       7.9288      2.00000
    651       7.9288      2.00000
    652       7.9288      2.00000
    653       7.9290      2.00000
    654       7.9290      2.00000
    655       7.9290      2.00000
    656       7.9290      2.00000
    657       8.0274      2.00000
    658       8.0274      2.00000
    659       8.0275      2.00000
    660       8.0275      2.00000
    661       8.1792      2.00000
    662       8.1792      2.00000
    663       8.1792      2.00000
    664       8.1792      2.00000
    665       8.1792      2.00000
    666       8.1792      2.00000
    667       8.1792      2.00000
    668       8.1792      2.00000
    669       8.1991      2.00000
    670       8.1991      2.00000
    671       8.1991      2.00000
    672       8.1991      2.00000
    673       8.2314      2.00000
    674       8.2314      2.00000
    675       8.2316      2.00000
    676       8.2316      2.00000
    677       8.2600      2.00000
    678       8.2600      2.00000
    679       8.2600      2.00000
    680       8.2600      2.00000
    681       8.2601      2.00000
    682       8.2601      2.00000
    683       8.2601      2.00000
    684       8.2601      2.00000
    685       8.2602      2.00000
    686       8.2602      2.00000
    687       8.2602      2.00000
    688       8.2602      2.00000
    689       8.2602      2.00000
    690       8.2602      2.00000
    691       8.2602      2.00000
    692       8.2602      2.00000
    693       8.4451      2.00077
    694       8.4451      2.00077
    695       8.4451      2.00077
    696       8.4451      2.00077
    697       8.4451      2.00077
    698       8.4451      2.00077
    699       8.4451      2.00077
    700       8.4451      2.00077
    701       8.4713      2.00146
    702       8.4713      2.00146
    703       8.4713      2.00146
    704       8.4713      2.00146
    705       8.4715      2.00146
    706       8.4715      2.00146
    707       8.4715      2.00146
    708       8.4715      2.00146
    709       8.5600      2.00928
    710       8.5600      2.00928
    711       8.5600      2.00928
    712       8.5600      2.00928
    713       8.5600      2.00928
    714       8.5600      2.00928
    715       8.5600      2.00928
    716       8.5600      2.00928
    717       8.5626      2.00974
    718       8.5626      2.00974
    719       8.5627      2.00974
    720       8.5627      2.00974
    721       8.5627      2.00974
    722       8.5627      2.00974
    723       8.5627      2.00974
    724       8.5627      2.00974
    725       8.5627      2.00975
    726       8.5627      2.00975
    727       8.5627      2.00975
    728       8.5627      2.00975
    729       8.5627      2.00975
    730       8.5627      2.00975
    731       8.5627      2.00975
    732       8.5627      2.00975
    733       8.6233      2.02578
    734       8.6233      2.02578
    735       8.6233      2.02578
    736       8.6233      2.02578
    737       8.6234      2.02582
    738       8.6234      2.02582
    739       8.6234      2.02582
    740       8.6234      2.02582
    741       8.6824      2.05113
    742       8.6824      2.05113
    743       8.6824      2.05113
    744       8.6824      2.05113
    745       8.6824      2.05113
    746       8.6824      2.05113
    747       8.6824      2.05113
    748       8.6824      2.05113
    749       8.8789      1.80623
    750       8.8789      1.80622
    751       8.8789      1.80622
    752       8.8789      1.80621
    753       8.8789      1.80621
    754       8.8789      1.80620
    755       8.8789      1.80620
    756       8.8789      1.80619
    757       8.8805      1.79827
    758       8.8805      1.79826
    759       8.8805      1.79825
    760       8.8805      1.79824
    761       8.8805      1.79824
    762       8.8805      1.79823
    763       8.8805      1.79823
    764       8.8805      1.79823
    765       8.9512      1.33428
    766       8.9512      1.33427
    767       8.9512      1.33426
    768       8.9512      1.33425
    769       8.9513      1.33334
    770       8.9513      1.33333
    771       8.9513      1.33332
    772       8.9513      1.33331
    773       8.9524      1.32506
    774       8.9524      1.32506
    775       8.9524      1.32506
    776       8.9524      1.32506
    777       9.1110      0.16266
    778       9.1110      0.16265
    779       9.1110      0.16265
    780       9.1110      0.16265
    781       9.1111      0.16217
    782       9.1111      0.16217
    783       9.1111      0.16217
    784       9.1111      0.16217
    785       9.2317     -0.07073
    786       9.2317     -0.07073
    787       9.2317     -0.07073
    788       9.2317     -0.07073
    789       9.2317     -0.07073
    790       9.2317     -0.07073
    791       9.2317     -0.07073
    792       9.2317     -0.07073
    793       9.2317     -0.07073
    794       9.2317     -0.07073
    795       9.2317     -0.07073
    796       9.2317     -0.07073
    797       9.2318     -0.07073
    798       9.2318     -0.07073
    799       9.2318     -0.07073
    800       9.2318     -0.07073
    801       9.2696     -0.06428
    802       9.2696     -0.06428
    803       9.2696     -0.06428
    804       9.2696     -0.06428
    805       9.2696     -0.06428
    806       9.2696     -0.06428
    807       9.2696     -0.06428
    808       9.2696     -0.06428
    809       9.2697     -0.06424
    810       9.2697     -0.06424
    811       9.2697     -0.06424
    812       9.2697     -0.06424
    813       9.2697     -0.06424
    814       9.2697     -0.06424
    815       9.2697     -0.06424
    816       9.2697     -0.06424
    817       9.3018     -0.05067
    818       9.3018     -0.05067
    819       9.3018     -0.05066
    820       9.3018     -0.05066
    821       9.3018     -0.05066
    822       9.3018     -0.05066
    823       9.3018     -0.05066
    824       9.3018     -0.05066
    825       9.4134     -0.01108
    826       9.4134     -0.01108
    827       9.4134     -0.01108
    828       9.4134     -0.01108
    829       9.4134     -0.01107
    830       9.4134     -0.01107
    831       9.4134     -0.01107
    832       9.4134     -0.01107
    833       9.5327     -0.00088
    834       9.5327     -0.00088
    835       9.5327     -0.00088
    836       9.5327     -0.00088
    837       9.5327     -0.00088
    838       9.5327     -0.00088
    839       9.5327     -0.00088
    840       9.5327     -0.00088
    841       9.5514     -0.00055
    842       9.5515     -0.00055
    843       9.5515     -0.00055
    844       9.5515     -0.00055
    845       9.5515     -0.00055
    846       9.5515     -0.00055
    847       9.5515     -0.00055
    848       9.5515     -0.00055
    849       9.7247     -0.00000
    850       9.7247     -0.00000
    851       9.7247     -0.00000
    852       9.7247     -0.00000
    853       9.7248     -0.00000
    854       9.7248     -0.00000
    855       9.7248     -0.00000
    856       9.7248     -0.00000
    857       9.8544     -0.00000
    858       9.8544     -0.00000
    859       9.8544     -0.00000
    860       9.8544     -0.00000
    861       9.8545     -0.00000
    862       9.8545     -0.00000
    863       9.8545     -0.00000
    864       9.8545     -0.00000
    865       9.8693     -0.00000
    866       9.8693     -0.00000
    867      10.0534     -0.00000
    868      10.0534     -0.00000
    869      10.0534     -0.00000
    870      10.0534     -0.00000
    871      10.0535     -0.00000
    872      10.0535     -0.00000
    873      10.0535     -0.00000
    874      10.0535     -0.00000
    875      10.0758     -0.00000
    876      10.0758     -0.00000
    877      10.0759     -0.00000
    878      10.0759     -0.00000
    879      10.1189     -0.00000
    880      10.1189     -0.00000
    881      10.1189     -0.00000
    882      10.1189     -0.00000
    883      10.2472     -0.00000
    884      10.2474     -0.00000
    885      10.3427     -0.00000
    886      10.3427     -0.00000
    887      10.3428     -0.00000
    888      10.3428     -0.00000
    889      10.9008     -0.00000
    890      10.9008     -0.00000
    891      10.9008     -0.00000
    892      10.9008     -0.00000
    893      10.9008     -0.00000
    894      10.9008     -0.00000
    895      10.9008     -0.00000
    896      10.9008     -0.00000
    897      11.1461     -0.00000
    898      11.1461     -0.00000
    899      11.1461     -0.00000
    900      11.1461     -0.00000
    901      11.1461     -0.00000
    902      11.1461     -0.00000
    903      11.1461     -0.00000
    904      11.1461     -0.00000
    905      11.2063     -0.00000
    906      11.2063     -0.00000
    907      11.2063     -0.00000
    908      11.2063     -0.00000
    909      11.2229     -0.00000
    910      11.2229     -0.00000
    911      11.2271     -0.00000
    912      11.2271     -0.00000
    913      11.2272     -0.00000
    914      11.2272     -0.00000
    915      11.2272     -0.00000
    916      11.2272     -0.00000
    917      11.2272     -0.00000
    918      11.2272     -0.00000
    919      11.4749     -0.00000
    920      11.4749     -0.00000
    921      11.4750     -0.00000
    922      11.4750     -0.00000
    923      11.4755     -0.00000
    924      11.4756     -0.00000

 k-point     3 :       0.5000    0.5000    0.0000
  band No.  band energies     occupation 
      1     -39.4180      2.00000
      2     -39.4180      2.00000
      3     -39.4179      2.00000
      4     -39.4178      2.00000
      5     -39.3766      2.00000
      6     -39.3766      2.00000
      7     -39.3765      2.00000
      8     -39.3765      2.00000
      9     -39.3765      2.00000
     10     -39.3764      2.00000
     11     -39.3764      2.00000
     12     -39.3764      2.00000
     13     -39.3384      2.00000
     14     -39.3384      2.00000
     15     -39.3384      2.00000
     16     -39.3384      2.00000
     17     -39.3383      2.00000
     18     -39.3383      2.00000
     19     -39.3383      2.00000
     20     -39.3383      2.00000
     21     -39.3171      2.00000
     22     -39.3171      2.00000
     23     -39.3171      2.00000
     24     -39.3171      2.00000
     25     -39.3171      2.00000
     26     -39.3171      2.00000
     27     -39.3171      2.00000
     28     -39.3171      2.00000
     29     -39.3170      2.00000
     30     -39.3170      2.00000
     31     -39.3170      2.00000
     32     -39.3170      2.00000
     33     -39.3170      2.00000
     34     -39.3170      2.00000
     35     -39.3170      2.00000
     36     -39.3170      2.00000
     37     -39.2995      2.00000
     38     -39.2995      2.00000
     39     -39.2995      2.00000
     40     -39.2995      2.00000
     41     -39.2870      2.00000
     42     -39.2870      2.00000
     43     -39.2870      2.00000
     44     -39.2870      2.00000
     45     -39.2870      2.00000
     46     -39.2870      2.00000
     47     -39.2870      2.00000
     48     -39.2870      2.00000
     49     -39.2843      2.00000
     50     -39.2843      2.00000
     51     -39.2842      2.00000
     52     -39.2842      2.00000
     53     -39.2841      2.00000
     54     -39.2841      2.00000
     55     -39.2841      2.00000
     56     -39.2841      2.00000
     57     -39.2748      2.00000
     58     -39.2748      2.00000
     59     -39.2748      2.00000
     60     -39.2748      2.00000
     61     -39.2747      2.00000
     62     -39.2747      2.00000
     63     -39.2747      2.00000
     64     -39.2747      2.00000
     65     -39.2747      2.00000
     66     -39.2747      2.00000
     67     -39.2747      2.00000
     68     -39.2747      2.00000
     69     -39.2746      2.00000
     70     -39.2746      2.00000
     71     -39.2746      2.00000
     72     -39.2746      2.00000
     73     -39.2657      2.00000
     74     -39.2657      2.00000
     75     -39.2656      2.00000
     76     -39.2656      2.00000
     77     -39.2656      2.00000
     78     -39.2656      2.00000
     79     -39.2655      2.00000
     80     -39.2655      2.00000
     81     -39.2576      2.00000
     82     -39.2576      2.00000
     83     -39.2576      2.00000
     84     -39.2575      2.00000
     85     -39.2572      2.00000
     86     -39.2572      2.00000
     87     -39.2572      2.00000
     88     -39.2572      2.00000
     89     -39.2572      2.00000
     90     -39.2572      2.00000
     91     -39.2572      2.00000
     92     -39.2572      2.00000
     93     -39.2454      2.00000
     94     -39.2454      2.00000
     95     -39.2454      2.00000
     96     -39.2454      2.00000
     97     -39.2454      2.00000
     98     -39.2454      2.00000
     99     -39.2454      2.00000
    100     -39.2454      2.00000
    101     -39.2453      2.00000
    102     -39.2453      2.00000
    103     -39.2453      2.00000
    104     -39.2453      2.00000
    105     -39.2453      2.00000
    106     -39.2453      2.00000
    107     -39.2453      2.00000
    108     -39.2453      2.00000
    109     -39.2371      2.00000
    110     -39.2371      2.00000
    111     -39.2370      2.00000
    112     -39.2370      2.00000
    113     -39.2370      2.00000
    114     -39.2370      2.00000
    115     -39.2369      2.00000
    116     -39.2369      2.00000
    117     -39.2036      2.00000
    118     -39.2035      2.00000
    119     -39.2035      2.00000
    120     -39.2035      2.00000
    121     -39.2034      2.00000
    122     -39.2034      2.00000
    123     -39.2034      2.00000
    124     -39.2033      2.00000
    125     -39.1737      2.00000
    126     -39.1736      2.00000
    127     -39.1736      2.00000
    128     -39.1735      2.00000
    129     -17.9289      2.00000
    130     -17.9288      2.00000
    131     -17.9288      2.00000
    132     -17.9288      2.00000
    133     -17.8953      2.00000
    134     -17.8953      2.00000
    135     -17.8953      2.00000
    136     -17.8953      2.00000
    137     -17.8952      2.00000
    138     -17.8952      2.00000
    139     -17.8952      2.00000
    140     -17.8952      2.00000
    141     -17.8952      2.00000
    142     -17.8952      2.00000
    143     -17.8951      2.00000
    144     -17.8951      2.00000
    145     -17.8951      2.00000
    146     -17.8951      2.00000
    147     -17.8951      2.00000
    148     -17.8951      2.00000
    149     -17.8319      2.00000
    150     -17.8319      2.00000
    151     -17.8319      2.00000
    152     -17.8319      2.00000
    153     -17.8201      2.00000
    154     -17.8201      2.00000
    155     -17.8201      2.00000
    156     -17.8201      2.00000
    157     -17.8201      2.00000
    158     -17.8201      2.00000
    159     -17.8201      2.00000
    160     -17.8201      2.00000
    161     -17.8200      2.00000
    162     -17.8200      2.00000
    163     -17.8200      2.00000
    164     -17.8200      2.00000
    165     -17.8200      2.00000
    166     -17.8200      2.00000
    167     -17.8200      2.00000
    168     -17.8200      2.00000
    169     -17.7844      2.00000
    170     -17.7844      2.00000
    171     -17.7844      2.00000
    172     -17.7844      2.00000
    173     -17.7844      2.00000
    174     -17.7844      2.00000
    175     -17.7844      2.00000
    176     -17.7843      2.00000
    177     -17.7842      2.00000
    178     -17.7842      2.00000
    179     -17.7842      2.00000
    180     -17.7842      2.00000
    181     -17.7842      2.00000
    182     -17.7842      2.00000
    183     -17.7842      2.00000
    184     -17.7842      2.00000
    185     -17.7288      2.00000
    186     -17.7288      2.00000
    187     -17.7288      2.00000
    188     -17.7288      2.00000
    189     -17.7287      2.00000
    190     -17.7287      2.00000
    191     -17.7287      2.00000
    192     -17.7287      2.00000
    193     -17.7069      2.00000
    194     -17.7069      2.00000
    195     -17.7069      2.00000
    196     -17.7069      2.00000
    197     -17.7068      2.00000
    198     -17.7068      2.00000
    199     -17.7068      2.00000
    200     -17.7068      2.00000
    201     -17.7050      2.00000
    202     -17.7050      2.00000
    203     -17.7050      2.00000
    204     -17.7050      2.00000
    205     -17.7049      2.00000
    206     -17.7049      2.00000
    207     -17.7049      2.00000
    208     -17.7049      2.00000
    209     -17.6966      2.00000
    210     -17.6966      2.00000
    211     -17.6966      2.00000
    212     -17.6966      2.00000
    213     -17.6796      2.00000
    214     -17.6796      2.00000
    215     -17.6796      2.00000
    216     -17.6796      2.00000
    217     -17.6795      2.00000
    218     -17.6795      2.00000
    219     -17.6795      2.00000
    220     -17.6795      2.00000
    221     -17.6795      2.00000
    222     -17.6795      2.00000
    223     -17.6795      2.00000
    224     -17.6795      2.00000
    225     -17.6795      2.00000
    226     -17.6795      2.00000
    227     -17.6795      2.00000
    228     -17.6795      2.00000
    229     -17.6710      2.00000
    230     -17.6710      2.00000
    231     -17.6710      2.00000
    232     -17.6710      2.00000
    233     -17.6710      2.00000
    234     -17.6710      2.00000
    235     -17.6709      2.00000
    236     -17.6709      2.00000
    237     -17.5926      2.00000
    238     -17.5926      2.00000
    239     -17.5925      2.00000
    240     -17.5924      2.00000
    241     -17.5827      2.00000
    242     -17.5827      2.00000
    243     -17.5827      2.00000
    244     -17.5827      2.00000
    245     -17.5827      2.00000
    246     -17.5827      2.00000
    247     -17.5827      2.00000
    248     -17.5827      2.00000
    249     -17.5491      2.00000
    250     -17.5491      2.00000
    251     -17.5491      2.00000
    252     -17.5491      2.00000
    253     -17.5050      2.00000
    254     -17.5050      2.00000
    255     -17.5050      2.00000
    256     -17.5050      2.00000
    257     -17.5050      2.00000
    258     -17.5050      2.00000
    259     -17.5050      2.00000
    260     -17.5050      2.00000
    261     -17.4641      2.00000
    262     -17.4641      2.00000
    263     -17.4641      2.00000
    264     -17.4641      2.00000
    265     -17.4641      2.00000
    266     -17.4641      2.00000
    267     -17.4640      2.00000
    268     -17.4640      2.00000
    269     -17.4465      2.00000
    270     -17.4465      2.00000
    271     -17.4465      2.00000
    272     -17.4465      2.00000
    273     -17.4465      2.00000
    274     -17.4465      2.00000
    275     -17.4465      2.00000
    276     -17.4465      2.00000
    277     -17.4465      2.00000
    278     -17.4465      2.00000
    279     -17.4465      2.00000
    280     -17.4465      2.00000
    281     -17.4465      2.00000
    282     -17.4465      2.00000
    283     -17.4465      2.00000
    284     -17.4465      2.00000
    285     -17.4353      2.00000
    286     -17.4353      2.00000
    287     -17.4353      2.00000
    288     -17.4353      2.00000
    289     -17.4353      2.00000
    290     -17.4353      2.00000
    291     -17.4353      2.00000
    292     -17.4353      2.00000
    293     -17.4083      2.00000
    294     -17.4083      2.00000
    295     -17.4082      2.00000
    296     -17.4082      2.00000
    297     -17.4082      2.00000
    298     -17.4082      2.00000
    299     -17.4081      2.00000
    300     -17.4081      2.00000
    301     -17.3552      2.00000
    302     -17.3552      2.00000
    303     -17.3552      2.00000
    304     -17.3552      2.00000
    305     -17.3551      2.00000
    306     -17.3551      2.00000
    307     -17.3551      2.00000
    308     -17.3551      2.00000
    309     -17.3464      2.00000
    310     -17.3464      2.00000
    311     -17.3464      2.00000
    312     -17.3464      2.00000
    313     -17.3464      2.00000
    314     -17.3464      2.00000
    315     -17.3464      2.00000
    316     -17.3463      2.00000
    317     -17.3214      2.00000
    318     -17.3214      2.00000
    319     -17.3214      2.00000
    320     -17.3214      2.00000
    321     -17.3163      2.00000
    322     -17.3163      2.00000
    323     -17.3163      2.00000
    324     -17.3163      2.00000
    325     -17.3163      2.00000
    326     -17.3163      2.00000
    327     -17.3162      2.00000
    328     -17.3162      2.00000
    329     -17.3103      2.00000
    330     -17.3103      2.00000
    331     -17.3103      2.00000
    332     -17.3103      2.00000
    333     -17.3103      2.00000
    334     -17.3103      2.00000
    335     -17.3103      2.00000
    336     -17.3103      2.00000
    337     -17.3004      2.00000
    338     -17.3004      2.00000
    339     -17.3004      2.00000
    340     -17.3004      2.00000
    341     -17.3004      2.00000
    342     -17.3004      2.00000
    343     -17.3004      2.00000
    344     -17.3004      2.00000
    345     -17.3003      2.00000
    346     -17.3003      2.00000
    347     -17.3003      2.00000
    348     -17.3003      2.00000
    349     -17.3002      2.00000
    350     -17.3002      2.00000
    351     -17.3002      2.00000
    352     -17.3002      2.00000
    353     -17.2578      2.00000
    354     -17.2578      2.00000
    355     -17.2578      2.00000
    356     -17.2578      2.00000
    357     -17.2578      2.00000
    358     -17.2577      2.00000
    359     -17.2577      2.00000
    360     -17.2577      2.00000
    361     -17.2165      2.00000
    362     -17.2165      2.00000
    363     -17.2165      2.00000
    364     -17.2165      2.00000
    365     -17.1881      2.00000
    366     -17.1881      2.00000
    367     -17.1881      2.00000
    368     -17.1881      2.00000
    369     -17.1880      2.00000
    370     -17.1880      2.00000
    371     -17.1880      2.00000
    372     -17.1880      2.00000
    373     -17.1880      2.00000
    374     -17.1880      2.00000
    375     -17.1880      2.00000
    376     -17.1880      2.00000
    377     -17.1880      2.00000
    378     -17.1880      2.00000
    379     -17.1880      2.00000
    380     -17.1880      2.00000
    381     -17.1864      2.00000
    382     -17.1864      2.00000
    383     -17.1863      2.00000
    384     -17.1863      2.00000
    385     -17.1863      2.00000
    386     -17.1863      2.00000
    387     -17.1863      2.00000
    388     -17.1863      2.00000
    389     -17.1557      2.00000
    390     -17.1557      2.00000
    391     -17.1557      2.00000
    392     -17.1557      2.00000
    393     -17.1556      2.00000
    394     -17.1556      2.00000
    395     -17.1556      2.00000
    396     -17.1556      2.00000
    397     -17.1247      2.00000
    398     -17.1247      2.00000
    399     -17.1247      2.00000
    400     -17.1247      2.00000
    401     -17.1246      2.00000
    402     -17.1246      2.00000
    403     -17.1246      2.00000
    404     -17.1246      2.00000
    405     -17.1246      2.00000
    406     -17.1246      2.00000
    407     -17.1246      2.00000
    408     -17.1246      2.00000
    409     -17.1246      2.00000
    410     -17.1246      2.00000
    411     -17.1246      2.00000
    412     -17.1246      2.00000
    413     -17.1203      2.00000
    414     -17.1203      2.00000
    415     -17.1202      2.00000
    416     -17.1202      2.00000
    417     -17.1202      2.00000
    418     -17.1202      2.00000
    419     -17.1202      2.00000
    420     -17.1202      2.00000
    421     -17.0978      2.00000
    422     -17.0978      2.00000
    423     -17.0978      2.00000
    424     -17.0978      2.00000
    425     -17.0863      2.00000
    426     -17.0863      2.00000
    427     -17.0863      2.00000
    428     -17.0863      2.00000
    429     -17.0863      2.00000
    430     -17.0863      2.00000
    431     -17.0863      2.00000
    432     -17.0863      2.00000
    433     -17.0594      2.00000
    434     -17.0594      2.00000
    435     -17.0594      2.00000
    436     -17.0594      2.00000
    437     -17.0594      2.00000
    438     -17.0594      2.00000
    439     -17.0594      2.00000
    440     -17.0594      2.00000
    441     -17.0582      2.00000
    442     -17.0582      2.00000
    443     -17.0582      2.00000
    444     -17.0582      2.00000
    445     -17.0582      2.00000
    446     -17.0582      2.00000
    447     -17.0582      2.00000
    448     -17.0582      2.00000
    449     -17.0530      2.00000
    450     -17.0530      2.00000
    451     -17.0530      2.00000
    452     -17.0530      2.00000
    453     -17.0441      2.00000
    454     -17.0441      2.00000
    455     -17.0441      2.00000
    456     -17.0441      2.00000
    457     -17.0441      2.00000
    458     -17.0441      2.00000
    459     -17.0441      2.00000
    460     -17.0441      2.00000
    461     -16.9978      2.00000
    462     -16.9978      2.00000
    463     -16.9978      2.00000
    464     -16.9978      2.00000
    465     -16.9978      2.00000
    466     -16.9978      2.00000
    467     -16.9978      2.00000
    468     -16.9978      2.00000
    469     -16.9977      2.00000
    470     -16.9977      2.00000
    471     -16.9977      2.00000
    472     -16.9977      2.00000
    473     -16.9976      2.00000
    474     -16.9976      2.00000
    475     -16.9976      2.00000
    476     -16.9976      2.00000
    477     -16.9916      2.00000
    478     -16.9916      2.00000
    479     -16.9916      2.00000
    480     -16.9916      2.00000
    481     -16.9916      2.00000
    482     -16.9916      2.00000
    483     -16.9916      2.00000
    484     -16.9916      2.00000
    485     -16.9915      2.00000
    486     -16.9915      2.00000
    487     -16.9915      2.00000
    488     -16.9915      2.00000
    489     -16.9915      2.00000
    490     -16.9915      2.00000
    491     -16.9915      2.00000
    492     -16.9915      2.00000
    493     -16.9844      2.00000
    494     -16.9843      2.00000
    495     -16.9843      2.00000
    496     -16.9842      2.00000
    497     -16.9741      2.00000
    498     -16.9741      2.00000
    499     -16.9741      2.00000
    500     -16.9741      2.00000
    501     -16.9740      2.00000
    502     -16.9740      2.00000
    503     -16.9740      2.00000
    504     -16.9740      2.00000
    505     -16.9427      2.00000
    506     -16.9427      2.00000
    507     -16.9427      2.00000
    508     -16.9427      2.00000
    509     -16.9360      2.00000
    510     -16.9360      2.00000
    511     -16.9360      2.00000
    512     -16.9360      2.00000
    513       4.1463      2.00000
    514       4.1464      2.00000
    515       4.1465      2.00000
    516       4.1465      2.00000
    517       5.0668      2.00000
    518       5.0668      2.00000
    519       5.0668      2.00000
    520       5.0668      2.00000
    521       5.0669      2.00000
    522       5.0669      2.00000
    523       5.0670      2.00000
    524       5.0670      2.00000
    525       5.8230      2.00000
    526       5.8230      2.00000
    527       5.8230      2.00000
    528       5.8230      2.00000
    529       5.8231      2.00000
    530       5.8231      2.00000
    531       5.8231      2.00000
    532       5.8231      2.00000
    533       6.1324      2.00000
    534       6.1324      2.00000
    535       6.1324      2.00000
    536       6.1324      2.00000
    537       6.2601      2.00000
    538       6.2601      2.00000
    539       6.2601      2.00000
    540       6.2601      2.00000
    541       6.2601      2.00000
    542       6.2601      2.00000
    543       6.2601      2.00000
    544       6.2601      2.00000
    545       6.2602      2.00000
    546       6.2602      2.00000
    547       6.2602      2.00000
    548       6.2602      2.00000
    549       6.2602      2.00000
    550       6.2602      2.00000
    551       6.2603      2.00000
    552       6.2603      2.00000
    553       6.5431      2.00000
    554       6.5431      2.00000
    555       6.5431      2.00000
    556       6.5431      2.00000
    557       6.5431      2.00000
    558       6.5431      2.00000
    559       6.5432      2.00000
    560       6.5432      2.00000
    561       6.5432      2.00000
    562       6.5432      2.00000
    563       6.5432      2.00000
    564       6.5432      2.00000
    565       6.5433      2.00000
    566       6.5433      2.00000
    567       6.5433      2.00000
    568       6.5433      2.00000
    569       6.5761      2.00000
    570       6.5761      2.00000
    571       6.5761      2.00000
    572       6.5761      2.00000
    573       6.6623      2.00000
    574       6.6624      2.00000
    575       6.6625      2.00000
    576       6.6625      2.00000
    577       6.7529      2.00000
    578       6.7530      2.00000
    579       6.7531      2.00000
    580       6.7532      2.00000
    581       6.8623      2.00000
    582       6.8623      2.00000
    583       6.8623      2.00000
    584       6.8623      2.00000
    585       6.8624      2.00000
    586       6.8624      2.00000
    587       6.8625      2.00000
    588       6.8625      2.00000
    589       7.1717      2.00000
    590       7.1717      2.00000
    591       7.1717      2.00000
    592       7.1717      2.00000
    593       7.1717      2.00000
    594       7.1717      2.00000
    595       7.1717      2.00000
    596       7.1717      2.00000
    597       7.2301      2.00000
    598       7.2301      2.00000
    599       7.2301      2.00000
    600       7.2301      2.00000
    601       7.2301      2.00000
    602       7.2302      2.00000
    603       7.2302      2.00000
    604       7.2302      2.00000
    605       7.2302      2.00000
    606       7.2302      2.00000
    607       7.2302      2.00000
    608       7.2302      2.00000
    609       7.2303      2.00000
    610       7.2303      2.00000
    611       7.2303      2.00000
    612       7.2303      2.00000
    613       7.2487      2.00000
    614       7.2487      2.00000
    615       7.2487      2.00000
    616       7.2487      2.00000
    617       7.2488      2.00000
    618       7.2488      2.00000
    619       7.2489      2.00000
    620       7.2489      2.00000
    621       7.2720      2.00000
    622       7.2720      2.00000
    623       7.2721      2.00000
    624       7.2721      2.00000
    625       7.2721      2.00000
    626       7.2721      2.00000
    627       7.2722      2.00000
    628       7.2722      2.00000
    629       7.3494      2.00000
    630       7.3494      2.00000
    631       7.3495      2.00000
    632       7.3495      2.00000
    633       7.3495      2.00000
    634       7.3496      2.00000
    635       7.3496      2.00000
    636       7.3496      2.00000
    637       7.3816      2.00000
    638       7.3816      2.00000
    639       7.3816      2.00000
    640       7.3816      2.00000
    641       7.3816      2.00000
    642       7.3816      2.00000
    643       7.3816      2.00000
    644       7.3816      2.00000
    645       7.8014      2.00000
    646       7.8014      2.00000
    647       7.8014      2.00000
    648       7.8014      2.00000
    649       7.8014      2.00000
    650       7.8014      2.00000
    651       7.8014      2.00000
    652       7.8014      2.00000
    653       7.8428      2.00000
    654       7.8428      2.00000
    655       7.8429      2.00000
    656       7.8429      2.00000
    657       7.8429      2.00000
    658       7.8429      2.00000
    659       7.8430      2.00000
    660       7.8430      2.00000
    661       8.2831      2.00001
    662       8.2831      2.00001
    663       8.2831      2.00001
    664       8.2831      2.00001
    665       8.2831      2.00001
    666       8.2831      2.00001
    667       8.2831      2.00001
    668       8.2831      2.00001
    669       8.3717      2.00011
    670       8.3717      2.00011
    671       8.3717      2.00011
    672       8.3717      2.00011
    673       8.3717      2.00011
    674       8.3717      2.00011
    675       8.3717      2.00011
    676       8.3717      2.00011
    677       8.3808      2.00014
    678       8.3808      2.00014
    679       8.3808      2.00014
    680       8.3808      2.00014
    681       8.3808      2.00014
    682       8.3808      2.00014
    683       8.3808      2.00014
    684       8.3808      2.00014
    685       8.3821      2.00014
    686       8.3821      2.00014
    687       8.3821      2.00014
    688       8.3821      2.00014
    689       8.3821      2.00014
    690       8.3821      2.00014
    691       8.3822      2.00014
    692       8.3822      2.00014
    693       8.3822      2.00014
    694       8.3822      2.00014
    695       8.3822      2.00014
    696       8.3822      2.00014
    697       8.3823      2.00014
    698       8.3823      2.00014
    699       8.3823      2.00014
    700       8.3823      2.00014
    701       8.3994      2.00023
    702       8.3994      2.00023
    703       8.3994      2.00023
    704       8.3994      2.00023
    705       8.3994      2.00023
    706       8.3994      2.00023
    707       8.3994      2.00023
    708       8.3994      2.00023
    709       8.3994      2.00023
    710       8.3994      2.00023
    711       8.3994      2.00023
    712       8.3994      2.00023
    713       8.3995      2.00023
    714       8.3995      2.00023
    715       8.3995      2.00023
    716       8.3995      2.00023
    717       8.4557      2.00100
    718       8.4557      2.00100
    719       8.4558      2.00100
    720       8.4558      2.00100
    721       8.4558      2.00100
    722       8.4558      2.00100
    723       8.4559      2.00100
    724       8.4559      2.00100
    725       8.4962      2.00256
    726       8.4962      2.00256
    727       8.4962      2.00256
    728       8.4962      2.00256
    729       8.7055      2.06121
    730       8.7055      2.06121
    731       8.7055      2.06121
    732       8.7055      2.06121
    733       8.7055      2.06122
    734       8.7055      2.06122
    735       8.7055      2.06122
    736       8.7055      2.06122
    737       8.7056      2.06123
    738       8.7056      2.06123
    739       8.7056      2.06123
    740       8.7056      2.06123
    741       8.7056      2.06124
    742       8.7056      2.06124
    743       8.7056      2.06124
    744       8.7056      2.06124
    745       8.8128      2.02066
    746       8.8128      2.02066
    747       8.8129      2.02055
    748       8.8129      2.02055
    749       8.8129      2.02045
    750       8.8129      2.02045
    751       8.8130      2.02036
    752       8.8130      2.02035
    753       8.8141      2.01837
    754       8.8141      2.01836
    755       8.8141      2.01836
    756       8.8141      2.01836
    757       8.8141      2.01836
    758       8.8141      2.01835
    759       8.8141      2.01835
    760       8.8141      2.01834
    761       8.8247      1.99675
    762       8.8247      1.99673
    763       8.8247      1.99673
    764       8.8247      1.99671
    765       9.0764      0.34870
    766       9.0765      0.34867
    767       9.0765      0.34866
    768       9.0765      0.34866
    769       9.0765      0.34864
    770       9.0765      0.34862
    771       9.0765      0.34861
    772       9.0765      0.34858
    773       9.0845      0.30032
    774       9.0845      0.30032
    775       9.0845      0.30032
    776       9.0845      0.30032
    777       9.0845      0.30022
    778       9.0845      0.30021
    779       9.0845      0.30021
    780       9.0845      0.30021
    781       9.0845      0.30001
    782       9.0845      0.30001
    783       9.0845      0.30000
    784       9.0845      0.30000
    785       9.0845      0.29990
    786       9.0845      0.29989
    787       9.0845      0.29989
    788       9.0845      0.29989
    789       9.1896     -0.04806
    790       9.1896     -0.04806
    791       9.1896     -0.04806
    792       9.1896     -0.04806
    793       9.1896     -0.04807
    794       9.1896     -0.04807
    795       9.1896     -0.04807
    796       9.1896     -0.04807
    797       9.1896     -0.04809
    798       9.1896     -0.04809
    799       9.1896     -0.04809
    800       9.1896     -0.04809
    801       9.1896     -0.04810
    802       9.1896     -0.04810
    803       9.1896     -0.04810
    804       9.1896     -0.04810
    805       9.3455     -0.03128
    806       9.3455     -0.03128
    807       9.3455     -0.03128
    808       9.3455     -0.03128
    809       9.3455     -0.03127
    810       9.3455     -0.03127
    811       9.3455     -0.03127
    812       9.3455     -0.03127
    813       9.3765     -0.02025
    814       9.3765     -0.02025
    815       9.3765     -0.02024
    816       9.3765     -0.02024
    817       9.3766     -0.02024
    818       9.3766     -0.02023
    819       9.3766     -0.02023
    820       9.3766     -0.02023
    821       9.3835     -0.01819
    822       9.3835     -0.01819
    823       9.3835     -0.01818
    824       9.3835     -0.01818
    825       9.3835     -0.01818
    826       9.3835     -0.01818
    827       9.3836     -0.01817
    828       9.3836     -0.01817
    829       9.4959     -0.00211
    830       9.4959     -0.00211
    831       9.4959     -0.00211
    832       9.4959     -0.00210
    833       9.5514     -0.00055
    834       9.5514     -0.00055
    835       9.5514     -0.00055
    836       9.5514     -0.00055
    837       9.5514     -0.00055
    838       9.5514     -0.00055
    839       9.5515     -0.00055
    840       9.5515     -0.00055
    841       9.6439     -0.00004
    842       9.6439     -0.00004
    843       9.6439     -0.00004
    844       9.6439     -0.00004
    845       9.6439     -0.00004
    846       9.6439     -0.00004
    847       9.6439     -0.00004
    848       9.6439     -0.00004
    849       9.7778     -0.00000
    850       9.7778     -0.00000
    851       9.7778     -0.00000
    852       9.7778     -0.00000
    853       9.8057     -0.00000
    854       9.8057     -0.00000
    855       9.8057     -0.00000
    856       9.8057     -0.00000
    857       9.8195     -0.00000
    858       9.8195     -0.00000
    859       9.8195     -0.00000
    860       9.8195     -0.00000
    861       9.8195     -0.00000
    862       9.8195     -0.00000
    863       9.8195     -0.00000
    864       9.8196     -0.00000
    865       9.8196     -0.00000
    866       9.8196     -0.00000
    867       9.8196     -0.00000
    868       9.8196     -0.00000
    869       9.8196     -0.00000
    870       9.8197     -0.00000
    871       9.8197     -0.00000
    872       9.8197     -0.00000
    873       9.9609     -0.00000
    874       9.9609     -0.00000
    875       9.9610     -0.00000
    876       9.9610     -0.00000
    877      10.3410     -0.00000
    878      10.3410     -0.00000
    879      10.3410     -0.00000
    880      10.3410     -0.00000
    881      10.3410     -0.00000
    882      10.3410     -0.00000
    883      10.3410     -0.00000
    884      10.3410     -0.00000
    885      10.4984     -0.00000
    886      10.4984     -0.00000
    887      10.4984     -0.00000
    888      10.4984     -0.00000
    889      10.4985     -0.00000
    890      10.4985     -0.00000
    891      10.4985     -0.00000
    892      10.4985     -0.00000
    893      10.6446     -0.00000
    894      10.6446     -0.00000
    895      10.6446     -0.00000
    896      10.6446     -0.00000
    897      10.9641     -0.00000
    898      10.9641     -0.00000
    899      10.9641     -0.00000
    900      10.9641     -0.00000
    901      10.9641     -0.00000
    902      10.9641     -0.00000
    903      10.9641     -0.00000
    904      10.9641     -0.00000
    905      11.0937     -0.00000
    906      11.0937     -0.00000
    907      11.0937     -0.00000
    908      11.0937     -0.00000
    909      11.0937     -0.00000
    910      11.0937     -0.00000
    911      11.0937     -0.00000
    912      11.0937     -0.00000
    913      11.1446     -0.00000
    914      11.1446     -0.00000
    915      11.1446     -0.00000
    916      11.1446     -0.00000
    917      11.1447     -0.00000
    918      11.1447     -0.00000
    919      11.1447     -0.00000
    920      11.1447     -0.00000
    921      11.6493     -0.00000
    922      11.6501     -0.00000
    923      11.6511     -0.00000
    924      11.6821     -0.00000

 k-point     4 :       0.5000    0.5000    0.5000
  band No.  band energies     occupation 
      1     -39.4071      2.00000
      2     -39.4071      2.00000
      3     -39.4070      2.00000
      4     -39.4070      2.00000
      5     -39.4070      2.00000
      6     -39.4069      2.00000
      7     -39.4069      2.00000
      8     -39.4069      2.00000
      9     -39.3327      2.00000
     10     -39.3327      2.00000
     11     -39.3327      2.00000
     12     -39.3327      2.00000
     13     -39.3327      2.00000
     14     -39.3327      2.00000
     15     -39.3327      2.00000
     16     -39.3326      2.00000
     17     -39.3326      2.00000
     18     -39.3326      2.00000
     19     -39.3326      2.00000
     20     -39.3326      2.00000
     21     -39.3326      2.00000
     22     -39.3326      2.00000
     23     -39.3326      2.00000
     24     -39.3326      2.00000
     25     -39.3326      2.00000
     26     -39.3326      2.00000
     27     -39.3325      2.00000
     28     -39.3325      2.00000
     29     -39.3325      2.00000
     30     -39.3325      2.00000
     31     -39.3325      2.00000
     32     -39.3325      2.00000
     33     -39.2961      2.00000
     34     -39.2961      2.00000
     35     -39.2961      2.00000
     36     -39.2961      2.00000
     37     -39.2961      2.00000
     38     -39.2961      2.00000
     39     -39.2961      2.00000
     40     -39.2961      2.00000
     41     -39.2961      2.00000
     42     -39.2961      2.00000
     43     -39.2961      2.00000
     44     -39.2961      2.00000
     45     -39.2960      2.00000
     46     -39.2960      2.00000
     47     -39.2960      2.00000
     48     -39.2960      2.00000
     49     -39.2960      2.00000
     50     -39.2960      2.00000
     51     -39.2960      2.00000
     52     -39.2960      2.00000
     53     -39.2960      2.00000
     54     -39.2960      2.00000
     55     -39.2960      2.00000
     56     -39.2960      2.00000
     57     -39.2756      2.00000
     58     -39.2756      2.00000
     59     -39.2756      2.00000
     60     -39.2756      2.00000
     61     -39.2756      2.00000
     62     -39.2756      2.00000
     63     -39.2755      2.00000
     64     -39.2755      2.00000
     65     -39.2594      2.00000
     66     -39.2594      2.00000
     67     -39.2594      2.00000
     68     -39.2594      2.00000
     69     -39.2594      2.00000
     70     -39.2594      2.00000
     71     -39.2594      2.00000
     72     -39.2594      2.00000
     73     -39.2573      2.00000
     74     -39.2573      2.00000
     75     -39.2573      2.00000
     76     -39.2573      2.00000
     77     -39.2573      2.00000
     78     -39.2573      2.00000
     79     -39.2572      2.00000
     80     -39.2572      2.00000
     81     -39.2572      2.00000
     82     -39.2572      2.00000
     83     -39.2572      2.00000
     84     -39.2572      2.00000
     85     -39.2572      2.00000
     86     -39.2572      2.00000
     87     -39.2572      2.00000
     88     -39.2572      2.00000
     89     -39.2572      2.00000
     90     -39.2572      2.00000
     91     -39.2572      2.00000
     92     -39.2572      2.00000
     93     -39.2571      2.00000
     94     -39.2571      2.00000
     95     -39.2571      2.00000
     96     -39.2571      2.00000
     97     -39.2391      2.00000
     98     -39.2391      2.00000
     99     -39.2390      2.00000
    100     -39.2390      2.00000
    101     -39.2390      2.00000
    102     -39.2390      2.00000
    103     -39.2390      2.00000
    104     -39.2390      2.00000
    105     -39.2390      2.00000
    106     -39.2390      2.00000
    107     -39.2390      2.00000
    108     -39.2390      2.00000
    109     -39.2389      2.00000
    110     -39.2389      2.00000
    111     -39.2389      2.00000
    112     -39.2389      2.00000
    113     -39.2389      2.00000
    114     -39.2389      2.00000
    115     -39.2389      2.00000
    116     -39.2389      2.00000
    117     -39.2389      2.00000
    118     -39.2389      2.00000
    119     -39.2389      2.00000
    120     -39.2389      2.00000
    121     -39.1813      2.00000
    122     -39.1812      2.00000
    123     -39.1812      2.00000
    124     -39.1812      2.00000
    125     -39.1811      2.00000
    126     -39.1811      2.00000
    127     -39.1810      2.00000
    128     -39.1810      2.00000
    129     -17.8913      2.00000
    130     -17.8913      2.00000
    131     -17.8913      2.00000
    132     -17.8913      2.00000
    133     -17.8913      2.00000
    134     -17.8913      2.00000
    135     -17.8912      2.00000
    136     -17.8912      2.00000
    137     -17.8912      2.00000
    138     -17.8912      2.00000
    139     -17.8912      2.00000
    140     -17.8912      2.00000
    141     -17.8912      2.00000
    142     -17.8912      2.00000
    143     -17.8912      2.00000
    144     -17.8912      2.00000
    145     -17.8912      2.00000
    146     -17.8912      2.00000
    147     -17.8912      2.00000
    148     -17.8912      2.00000
    149     -17.8912      2.00000
    150     -17.8911      2.00000
    151     -17.8911      2.00000
    152     -17.8911      2.00000
    153     -17.8178      2.00000
    154     -17.8178      2.00000
    155     -17.8178      2.00000
    156     -17.8178      2.00000
    157     -17.8178      2.00000
    158     -17.8178      2.00000
    159     -17.8177      2.00000
    160     -17.8177      2.00000
    161     -17.8177      2.00000
    162     -17.8177      2.00000
    163     -17.8177      2.00000
    164     -17.8177      2.00000
    165     -17.8177      2.00000
    166     -17.8177      2.00000
    167     -17.8177      2.00000
    168     -17.8177      2.00000
    169     -17.8177      2.00000
    170     -17.8177      2.00000
    171     -17.8177      2.00000
    172     -17.8177      2.00000
    173     -17.8177      2.00000
    174     -17.8176      2.00000
    175     -17.8176      2.00000
    176     -17.8176      2.00000
    177     -17.7492      2.00000
    178     -17.7492      2.00000
    179     -17.7492      2.00000
    180     -17.7492      2.00000
    181     -17.7492      2.00000
    182     -17.7492      2.00000
    183     -17.7492      2.00000
    184     -17.7492      2.00000
    185     -17.7364      2.00000
    186     -17.7364      2.00000
    187     -17.7364      2.00000
    188     -17.7364      2.00000
    189     -17.7364      2.00000
    190     -17.7364      2.00000
    191     -17.7364      2.00000
    192     -17.7364      2.00000
    193     -17.7364      2.00000
    194     -17.7364      2.00000
    195     -17.7364      2.00000
    196     -17.7363      2.00000
    197     -17.7363      2.00000
    198     -17.7363      2.00000
    199     -17.7363      2.00000
    200     -17.7363      2.00000
    201     -17.7363      2.00000
    202     -17.7363      2.00000
    203     -17.7363      2.00000
    204     -17.7363      2.00000
    205     -17.7363      2.00000
    206     -17.7363      2.00000
    207     -17.7363      2.00000
    208     -17.7363      2.00000
    209     -17.6670      2.00000
    210     -17.6670      2.00000
    211     -17.6670      2.00000
    212     -17.6669      2.00000
    213     -17.6669      2.00000
    214     -17.6669      2.00000
    215     -17.6669      2.00000
    216     -17.6669      2.00000
    217     -17.6669      2.00000
    218     -17.6669      2.00000
    219     -17.6668      2.00000
    220     -17.6668      2.00000
    221     -17.6668      2.00000
    222     -17.6668      2.00000
    223     -17.6668      2.00000
    224     -17.6668      2.00000
    225     -17.6243      2.00000
    226     -17.6243      2.00000
    227     -17.6243      2.00000
    228     -17.6243      2.00000
    229     -17.6243      2.00000
    230     -17.6243      2.00000
    231     -17.6242      2.00000
    232     -17.6242      2.00000
    233     -17.6242      2.00000
    234     -17.6242      2.00000
    235     -17.6242      2.00000
    236     -17.6242      2.00000
    237     -17.6242      2.00000
    238     -17.6242      2.00000
    239     -17.6242      2.00000
    240     -17.6242      2.00000
    241     -17.5335      2.00000
    242     -17.5335      2.00000
    243     -17.5335      2.00000
    244     -17.5335      2.00000
    245     -17.5334      2.00000
    246     -17.5334      2.00000
    247     -17.5334      2.00000
    248     -17.5334      2.00000
    249     -17.5334      2.00000
    250     -17.5334      2.00000
    251     -17.5334      2.00000
    252     -17.5334      2.00000
    253     -17.5334      2.00000
    254     -17.5334      2.00000
    255     -17.5334      2.00000
    256     -17.5334      2.00000
    257     -17.5334      2.00000
    258     -17.5334      2.00000
    259     -17.5334      2.00000
    260     -17.5334      2.00000
    261     -17.5334      2.00000
    262     -17.5334      2.00000
    263     -17.5333      2.00000
    264     -17.5333      2.00000
    265     -17.4605      2.00000
    266     -17.4605      2.00000
    267     -17.4605      2.00000
    268     -17.4605      2.00000
    269     -17.4604      2.00000
    270     -17.4604      2.00000
    271     -17.4604      2.00000
    272     -17.4604      2.00000
    273     -17.4569      2.00000
    274     -17.4569      2.00000
    275     -17.4569      2.00000
    276     -17.4569      2.00000
    277     -17.4569      2.00000
    278     -17.4569      2.00000
    279     -17.4569      2.00000
    280     -17.4569      2.00000
    281     -17.4569      2.00000
    282     -17.4569      2.00000
    283     -17.4569      2.00000
    284     -17.4569      2.00000
    285     -17.4569      2.00000
    286     -17.4569      2.00000
    287     -17.4569      2.00000
    288     -17.4569      2.00000
    289     -17.4569      2.00000
    290     -17.4569      2.00000
    291     -17.4569      2.00000
    292     -17.4569      2.00000
    293     -17.4569      2.00000
    294     -17.4569      2.00000
    295     -17.4569      2.00000
    296     -17.4569      2.00000
    297     -17.3807      2.00000
    298     -17.3807      2.00000
    299     -17.3807      2.00000
    300     -17.3807      2.00000
    301     -17.3806      2.00000
    302     -17.3806      2.00000
    303     -17.3806      2.00000
    304     -17.3806      2.00000
    305     -17.3806      2.00000
    306     -17.3806      2.00000
    307     -17.3806      2.00000
    308     -17.3806      2.00000
    309     -17.3806      2.00000
    310     -17.3806      2.00000
    311     -17.3806      2.00000
    312     -17.3806      2.00000
    313     -17.3806      2.00000
    314     -17.3806      2.00000
    315     -17.3806      2.00000
    316     -17.3806      2.00000
    317     -17.3806      2.00000
    318     -17.3806      2.00000
    319     -17.3805      2.00000
    320     -17.3805      2.00000
    321     -17.2461      2.00000
    322     -17.2461      2.00000
    323     -17.2461      2.00000
    324     -17.2461      2.00000
    325     -17.2461      2.00000
    326     -17.2461      2.00000
    327     -17.2461      2.00000
    328     -17.2461      2.00000
    329     -17.2461      2.00000
    330     -17.2461      2.00000
    331     -17.2461      2.00000
    332     -17.2461      2.00000
    333     -17.2461      2.00000
    334     -17.2461      2.00000
    335     -17.2461      2.00000
    336     -17.2461      2.00000
    337     -17.2322      2.00000
    338     -17.2322      2.00000
    339     -17.2322      2.00000
    340     -17.2322      2.00000
    341     -17.2322      2.00000
    342     -17.2322      2.00000
    343     -17.2322      2.00000
    344     -17.2322      2.00000
    345     -17.2322      2.00000
    346     -17.2322      2.00000
    347     -17.2322      2.00000
    348     -17.2322      2.00000
    349     -17.2322      2.00000
    350     -17.2322      2.00000
    351     -17.2322      2.00000
    352     -17.2322      2.00000
    353     -17.2322      2.00000
    354     -17.2322      2.00000
    355     -17.2321      2.00000
    356     -17.2321      2.00000
    357     -17.2321      2.00000
    358     -17.2321      2.00000
    359     -17.2321      2.00000
    360     -17.2321      2.00000
    361     -17.2301      2.00000
    362     -17.2301      2.00000
    363     -17.2301      2.00000
    364     -17.2301      2.00000
    365     -17.2301      2.00000
    366     -17.2301      2.00000
    367     -17.2301      2.00000
    368     -17.2301      2.00000
    369     -17.2301      2.00000
    370     -17.2301      2.00000
    371     -17.2301      2.00000
    372     -17.2301      2.00000
    373     -17.2301      2.00000
    374     -17.2301      2.00000
    375     -17.2301      2.00000
    376     -17.2301      2.00000
    377     -17.2301      2.00000
    378     -17.2301      2.00000
    379     -17.2301      2.00000
    380     -17.2301      2.00000
    381     -17.2301      2.00000
    382     -17.2301      2.00000
    383     -17.2301      2.00000
    384     -17.2301      2.00000
    385     -17.1856      2.00000
    386     -17.1856      2.00000
    387     -17.1856      2.00000
    388     -17.1856      2.00000
    389     -17.1855      2.00000
    390     -17.1855      2.00000
    391     -17.1855      2.00000
    392     -17.1855      2.00000
    393     -17.1650      2.00000
    394     -17.1650      2.00000
    395     -17.1650      2.00000
    396     -17.1650      2.00000
    397     -17.1650      2.00000
    398     -17.1650      2.00000
    399     -17.1650      2.00000
    400     -17.1650      2.00000
    401     -17.1650      2.00000
    402     -17.1650      2.00000
    403     -17.1650      2.00000
    404     -17.1650      2.00000
    405     -17.1650      2.00000
    406     -17.1650      2.00000
    407     -17.1650      2.00000
    408     -17.1650      2.00000
    409     -17.1650      2.00000
    410     -17.1650      2.00000
    411     -17.1650      2.00000
    412     -17.1650      2.00000
    413     -17.1650      2.00000
    414     -17.1650      2.00000
    415     -17.1650      2.00000
    416     -17.1650      2.00000
    417     -17.1110      2.00000
    418     -17.1110      2.00000
    419     -17.1110      2.00000
    420     -17.1110      2.00000
    421     -17.1110      2.00000
    422     -17.1110      2.00000
    423     -17.1110      2.00000
    424     -17.1110      2.00000
    425     -17.0458      2.00000
    426     -17.0458      2.00000
    427     -17.0458      2.00000
    428     -17.0458      2.00000
    429     -17.0458      2.00000
    430     -17.0458      2.00000
    431     -17.0457      2.00000
    432     -17.0457      2.00000
    433     -17.0457      2.00000
    434     -17.0457      2.00000
    435     -17.0457      2.00000
    436     -17.0457      2.00000
    437     -17.0457      2.00000
    438     -17.0457      2.00000
    439     -17.0457      2.00000
    440     -17.0457      2.00000
    441     -17.0457      2.00000
    442     -17.0457      2.00000
    443     -17.0457      2.00000
    444     -17.0457      2.00000
    445     -17.0457      2.00000
    446     -17.0457      2.00000
    447     -17.0457      2.00000
    448     -17.0457      2.00000
    449     -17.0301      2.00000
    450     -17.0301      2.00000
    451     -17.0301      2.00000
    452     -17.0301      2.00000
    453     -17.0301      2.00000
    454     -17.0300      2.00000
    455     -17.0300      2.00000
    456     -17.0300      2.00000
    457     -17.0300      2.00000
    458     -17.0300      2.00000
    459     -17.0300      2.00000
    460     -17.0300      2.00000
    461     -17.0300      2.00000
    462     -17.0300      2.00000
    463     -17.0300      2.00000
    464     -17.0300      2.00000
    465     -17.0300      2.00000
    466     -17.0300      2.00000
    467     -17.0300      2.00000
    468     -17.0300      2.00000
    469     -17.0300      2.00000
    470     -17.0300      2.00000
    471     -17.0300      2.00000
    472     -17.0300      2.00000
    473     -16.9800      2.00000
    474     -16.9800      2.00000
    475     -16.9800      2.00000
    476     -16.9800      2.00000
    477     -16.9800      2.00000
    478     -16.9800      2.00000
    479     -16.9800      2.00000
    480     -16.9800      2.00000
    481     -16.9800      2.00000
    482     -16.9800      2.00000
    483     -16.9800      2.00000
    484     -16.9800      2.00000
    485     -16.9799      2.00000
    486     -16.9799      2.00000
    487     -16.9799      2.00000
    488     -16.9799      2.00000
    489     -16.9799      2.00000
    490     -16.9799      2.00000
    491     -16.9799      2.00000
    492     -16.9799      2.00000
    493     -16.9799      2.00000
    494     -16.9799      2.00000
    495     -16.9799      2.00000
    496     -16.9799      2.00000
    497     -16.9641      2.00000
    498     -16.9641      2.00000
    499     -16.9641      2.00000
    500     -16.9641      2.00000
    501     -16.9641      2.00000
    502     -16.9641      2.00000
    503     -16.9640      2.00000
    504     -16.9640      2.00000
    505     -16.9640      2.00000
    506     -16.9640      2.00000
    507     -16.9640      2.00000
    508     -16.9640      2.00000
    509     -16.9639      2.00000
    510     -16.9639      2.00000
    511     -16.9639      2.00000
    512     -16.9639      2.00000
    513       4.3935      2.00000
    514       4.3935      2.00000
    515       4.3936      2.00000
    516       4.3936      2.00000
    517       4.3936      2.00000
    518       4.3937      2.00000
    519       4.3937      2.00000
    520       4.3937      2.00000
    521       5.9756      2.00000
    522       5.9756      2.00000
    523       5.9756      2.00000
    524       5.9756      2.00000
    525       5.9756      2.00000
    526       5.9756      2.00000
    527       5.9756      2.00000
    528       5.9756      2.00000
    529       5.9756      2.00000
    530       5.9757      2.00000
    531       5.9757      2.00000
    532       5.9757      2.00000
    533       5.9757      2.00000
    534       5.9757      2.00000
    535       5.9757      2.00000
    536       5.9757      2.00000
    537       5.9757      2.00000
    538       5.9757      2.00000
    539       5.9757      2.00000
    540       5.9758      2.00000
    541       5.9758      2.00000
    542       5.9758      2.00000
    543       5.9758      2.00000
    544       5.9758      2.00000
    545       6.4126      2.00000
    546       6.4126      2.00000
    547       6.4126      2.00000
    548       6.4126      2.00000
    549       6.4126      2.00000
    550       6.4126      2.00000
    551       6.4126      2.00000
    552       6.4126      2.00000
    553       6.4126      2.00000
    554       6.4126      2.00000
    555       6.4126      2.00000
    556       6.4127      2.00000
    557       6.4127      2.00000
    558       6.4127      2.00000
    559       6.4127      2.00000
    560       6.4127      2.00000
    561       6.4127      2.00000
    562       6.4127      2.00000
    563       6.4127      2.00000
    564       6.4127      2.00000
    565       6.4127      2.00000
    566       6.4127      2.00000
    567       6.4127      2.00000
    568       6.4127      2.00000
    569       6.8227      2.00000
    570       6.8227      2.00000
    571       6.8227      2.00000
    572       6.8227      2.00000
    573       6.8227      2.00000
    574       6.8227      2.00000
    575       6.8227      2.00000
    576       6.8227      2.00000
    577       6.8228      2.00000
    578       6.8228      2.00000
    579       6.8228      2.00000
    580       6.8228      2.00000
    581       6.8228      2.00000
    582       6.8228      2.00000
    583       6.8228      2.00000
    584       6.8228      2.00000
    585       6.8228      2.00000
    586       6.8228      2.00000
    587       6.8228      2.00000
    588       6.8228      2.00000
    589       6.8228      2.00000
    590       6.8228      2.00000
    591       6.8229      2.00000
    592       6.8229      2.00000
    593       6.8801      2.00000
    594       6.8801      2.00000
    595       6.8801      2.00000
    596       6.8801      2.00000
    597       6.8801      2.00000
    598       6.8801      2.00000
    599       6.8802      2.00000
    600       6.8802      2.00000
    601       6.8802      2.00000
    602       6.8802      2.00000
    603       6.8802      2.00000
    604       6.8803      2.00000
    605       6.8803      2.00000
    606       6.8803      2.00000
    607       6.8803      2.00000
    608       6.8803      2.00000
    609       7.4481      2.00000
    610       7.4481      2.00000
    611       7.4481      2.00000
    612       7.4481      2.00000
    613       7.4482      2.00000
    614       7.4482      2.00000
    615       7.4482      2.00000
    616       7.4482      2.00000
    617       7.4482      2.00000
    618       7.4482      2.00000
    619       7.4482      2.00000
    620       7.4482      2.00000
    621       7.4482      2.00000
    622       7.4482      2.00000
    623       7.4483      2.00000
    624       7.4483      2.00000
    625       7.4483      2.00000
    626       7.4483      2.00000
    627       7.4483      2.00000
    628       7.4483      2.00000
    629       7.4483      2.00000
    630       7.4483      2.00000
    631       7.4483      2.00000
    632       7.4483      2.00000
    633       7.6458      2.00000
    634       7.6458      2.00000
    635       7.6458      2.00000
    636       7.6458      2.00000
    637       7.6458      2.00000
    638       7.6458      2.00000
    639       7.6458      2.00000
    640       7.6458      2.00000
    641       7.8112      2.00000
    642       7.8112      2.00000
    643       7.8112      2.00000
    644       7.8112      2.00000
    645       7.8112      2.00000
    646       7.8112      2.00000
    647       7.8113      2.00000
    648       7.8113      2.00000
    649       7.8113      2.00000
    650       7.8113      2.00000
    651       7.8113      2.00000
    652       7.8113      2.00000
    653       7.8113      2.00000
    654       7.8113      2.00000
    655       7.8113      2.00000
    656       7.8113      2.00000
    657       7.8113      2.00000
    658       7.8113      2.00000
    659       7.8114      2.00000
    660       7.8114      2.00000
    661       7.8114      2.00000
    662       7.8114      2.00000
    663       7.8114      2.00000
    664       7.8114      2.00000
    665       8.1074      2.00000
    666       8.1074      2.00000
    667       8.1074      2.00000
    668       8.1074      2.00000
    669       8.1074      2.00000
    670       8.1074      2.00000
    671       8.1074      2.00000
    672       8.1074      2.00000
    673       8.2356      2.00000
    674       8.2356      2.00000
    675       8.2356      2.00000
    676       8.2356      2.00000
    677       8.2356      2.00000
    678       8.2356      2.00000
    679       8.2356      2.00000
    680       8.2356      2.00000
    681       8.2356      2.00000
    682       8.2356      2.00000
    683       8.2356      2.00000
    684       8.2356      2.00000
    685       8.2356      2.00000
    686       8.2356      2.00000
    687       8.2356      2.00000
    688       8.2356      2.00000
    689       8.4214      2.00042
    690       8.4214      2.00042
    691       8.4214      2.00042
    692       8.4214      2.00042
    693       8.4214      2.00042
    694       8.4214      2.00042
    695       8.4214      2.00042
    696       8.4214      2.00042
    697       8.4214      2.00042
    698       8.4214      2.00042
    699       8.4215      2.00042
    700       8.4215      2.00042
    701       8.4215      2.00042
    702       8.4215      2.00042
    703       8.4215      2.00042
    704       8.4215      2.00042
    705       8.4215      2.00042
    706       8.4215      2.00042
    707       8.4215      2.00042
    708       8.4215      2.00042
    709       8.4215      2.00042
    710       8.4215      2.00042
    711       8.4215      2.00042
    712       8.4215      2.00042
    713       8.6193      2.02435
    714       8.6193      2.02435
    715       8.6193      2.02435
    716       8.6193      2.02435
    717       8.6193      2.02435
    718       8.6193      2.02436
    719       8.6193      2.02436
    720       8.6193      2.02436
    721       8.6193      2.02436
    722       8.6193      2.02436
    723       8.6193      2.02437
    724       8.6193      2.02437
    725       8.6193      2.02437
    726       8.6193      2.02437
    727       8.6193      2.02437
    728       8.6193      2.02437
    729       8.6193      2.02438
    730       8.6194      2.02438
    731       8.6194      2.02438
    732       8.6194      2.02438
    733       8.6194      2.02439
    734       8.6194      2.02439
    735       8.6194      2.02439
    736       8.6194      2.02439
    737       8.6860      2.05278
    738       8.6860      2.05278
    739       8.6860      2.05278
    740       8.6860      2.05278
    741       8.6860      2.05278
    742       8.6860      2.05278
    743       8.6860      2.05278
    744       8.6860      2.05278
    745       8.6860      2.05278
    746       8.6860      2.05278
    747       8.6860      2.05278
    748       8.6860      2.05278
    749       8.6860      2.05278
    750       8.6860      2.05278
    751       8.6860      2.05278
    752       8.6860      2.05278
    753       9.0019      0.91303
    754       9.0019      0.91302
    755       9.0019      0.91292
    756       9.0019      0.91292
    757       9.0019      0.91287
    758       9.0019      0.91284
    759       9.0019      0.91277
    760       9.0019      0.91276
    761       9.0019      0.91275
    762       9.0019      0.91270
    763       9.0020      0.91265
    764       9.0020      0.91260
    765       9.0020      0.91252
    766       9.0020      0.91245
    767       9.0020      0.91242
    768       9.0020      0.91238
    769       9.0020      0.91236
    770       9.0020      0.91235
    771       9.0020      0.91228
    772       9.0020      0.91226
    773       9.0020      0.91219
    774       9.0020      0.91218
    775       9.0020      0.91210
    776       9.0020      0.91208
    777       9.3842     -0.01799
    778       9.3842     -0.01799
    779       9.3842     -0.01799
    780       9.3842     -0.01798
    781       9.3842     -0.01798
    782       9.3842     -0.01798
    783       9.3843     -0.01797
    784       9.3843     -0.01797
    785       9.3843     -0.01797
    786       9.3843     -0.01797
    787       9.3843     -0.01797
    788       9.3843     -0.01797
    789       9.3843     -0.01797
    790       9.3843     -0.01796
    791       9.3843     -0.01796
    792       9.3843     -0.01796
    793       9.3843     -0.01796
    794       9.3843     -0.01796
    795       9.3843     -0.01796
    796       9.3843     -0.01796
    797       9.3843     -0.01795
    798       9.3843     -0.01795
    799       9.3844     -0.01795
    800       9.3844     -0.01795
    801       9.3878     -0.01698
    802       9.3879     -0.01698
    803       9.3879     -0.01698
    804       9.3879     -0.01698
    805       9.3879     -0.01698
    806       9.3879     -0.01698
    807       9.3879     -0.01698
    808       9.3879     -0.01698
    809       9.3879     -0.01698
    810       9.3879     -0.01698
    811       9.3879     -0.01697
    812       9.3879     -0.01697
    813       9.3879     -0.01697
    814       9.3879     -0.01697
    815       9.3879     -0.01697
    816       9.3879     -0.01697
    817       9.3879     -0.01697
    818       9.3879     -0.01697
    819       9.3879     -0.01696
    820       9.3879     -0.01696
    821       9.3879     -0.01696
    822       9.3879     -0.01696
    823       9.3879     -0.01696
    824       9.3879     -0.01696
    825       9.4801     -0.00298
    826       9.4801     -0.00298
    827       9.4801     -0.00298
    828       9.4801     -0.00298
    829       9.4801     -0.00298
    830       9.4801     -0.00298
    831       9.4801     -0.00298
    832       9.4801     -0.00298
    833       9.4801     -0.00298
    834       9.4801     -0.00298
    835       9.4801     -0.00298
    836       9.4801     -0.00298
    837       9.4802     -0.00298
    838       9.4802     -0.00298
    839       9.4802     -0.00298
    840       9.4802     -0.00298
    841       9.4802     -0.00298
    842       9.4802     -0.00298
    843       9.4802     -0.00298
    844       9.4802     -0.00298
    845       9.4802     -0.00298
    846       9.4802     -0.00298
    847       9.4802     -0.00298
    848       9.4802     -0.00298
    849       9.6619     -0.00002
    850       9.6619     -0.00002
    851       9.6619     -0.00002
    852       9.6619     -0.00002
    853       9.6619     -0.00002
    854       9.6620     -0.00002
    855       9.6620     -0.00002
    856       9.6620     -0.00002
    857       9.6620     -0.00002
    858       9.6620     -0.00002
    859       9.6621     -0.00002
    860       9.6621     -0.00002
    861       9.6621     -0.00002
    862       9.6621     -0.00002
    863       9.6621     -0.00002
    864       9.6621     -0.00002
    865       9.8487     -0.00000
    866       9.8487     -0.00000
    867       9.8487     -0.00000
    868       9.8487     -0.00000
    869       9.8487     -0.00000
    870       9.8487     -0.00000
    871       9.8487     -0.00000
    872       9.8487     -0.00000
    873       9.8487     -0.00000
    874       9.8487     -0.00000
    875       9.8487     -0.00000
    876       9.8487     -0.00000
    877       9.8487     -0.00000
    878       9.8487     -0.00000
    879       9.8487     -0.00000
    880       9.8487     -0.00000
    881       9.8487     -0.00000
    882       9.8487     -0.00000
    883       9.8487     -0.00000
    884       9.8487     -0.00000
    885       9.8487     -0.00000
    886       9.8487     -0.00000
    887       9.8487     -0.00000
    888       9.8487     -0.00000
    889      11.0548     -0.00000
    890      11.0549     -0.00000
    891      11.0549     -0.00000
    892      11.0549     -0.00000
    893      11.0549     -0.00000
    894      11.0549     -0.00000
    895      11.0549     -0.00000
    896      11.0549     -0.00000
    897      11.2899     -0.00000
    898      11.2899     -0.00000
    899      11.2899     -0.00000
    900      11.2899     -0.00000
    901      11.2900     -0.00000
    902      11.2900     -0.00000
    903      11.2900     -0.00000
    904      11.2900     -0.00000
    905      11.2900     -0.00000
    906      11.2900     -0.00000
    907      11.2900     -0.00000
    908      11.2900     -0.00000
    909      11.2900     -0.00000
    910      11.2900     -0.00000
    911      11.2900     -0.00000
    912      11.2900     -0.00000
    913      11.2900     -0.00000
    914      11.2900     -0.00000
    915      11.2900     -0.00000
    916      11.2900     -0.00000
    917      11.2900     -0.00000
    918      11.2900     -0.00000
    919      11.2900     -0.00000
    920      11.2900     -0.00000
    921      11.4225     -0.00000
    922      11.4225     -0.00000
    923      11.4225     -0.00000
    924      11.4225     -0.00000


--------------------------------------------------------------------------------------------------------


 soft charge-density along one line, spin component            1
         0         1         2         3         4         5         6         7         8         9
 total charge-density along one line
 
 pseudopotential strength for first ion, spin component:            1
 13.224 -25.626   0.000   0.000  -0.000  -0.000  -0.000   0.000
-25.626  13.429   0.000   0.000  -0.000  -0.000  -0.000   0.000
  0.000   0.000  -6.266   0.000  -0.000   4.854  -0.000   0.000
  0.000   0.000   0.000  -6.266  -0.000  -0.000   4.854   0.000
 -0.000  -0.000  -0.000  -0.000  -6.266   0.000   0.000   4.854
 -0.000  -0.000   4.854  -0.000   0.000   8.539   0.000  -0.000
 -0.000  -0.000  -0.000   4.854   0.000   0.000   8.539  -0.000
  0.000   0.000   0.000   0.000   4.854  -0.000  -0.000   8.539
 -0.000  -0.000  -0.000   0.000   0.000   0.000  -0.000  -0.000
  0.000   0.000   0.000   0.000   0.000  -0.000  -0.000  -0.000
 -0.000  -0.000  -0.000   0.000   0.000   0.000  -0.000  -0.000
 -0.000  -0.000   0.000  -0.000   0.000  -0.000   0.000  -0.000
  0.000   0.000  -0.000  -0.000  -0.000   0.000   0.000   0.000
 -0.000  -0.000  -0.000   0.000   0.000   0.000  -0.000  -0.000
  0.000   0.000   0.000   0.000   0.000  -0.000  -0.000  -0.000
 -0.000  -0.000  -0.000   0.000   0.000   0.000  -0.000  -0.000
 -0.000  -0.000   0.000  -0.000   0.000  -0.000   0.000  -0.000
  0.000   0.000  -0.000  -0.000  -0.000   0.000   0.000   0.000
 total augmentation occupancy for first ion, spin component:            1
  1.998  -0.025   0.000   0.000   0.000   0.000  -0.000   0.000  -0.000  -0.000  -0.000  -0.000   0.000   0.000   0.000   0.000
 -0.025   1.424  -0.000  -0.000   0.000   0.000  -0.000  -0.000  -0.000  -0.000   0.000  -0.000   0.000   0.000   0.000  -0.000
  0.000  -0.000   2.001  -0.000  -0.000  -0.022   0.000   0.000   0.000   0.000   0.000  -0.000   0.000   0.000   0.000   0.000
  0.000  -0.000  -0.000   2.001  -0.000   0.000  -0.022   0.000  -0.000  -0.000  -0.000   0.000  -0.000  -0.000   0.000   0.000
  0.000   0.000  -0.000  -0.000   2.001   0.000   0.000  -0.022  -0.000   0.000   0.000   0.000   0.000   0.000  -0.000   0.000
  0.000   0.000  -0.022   0.000   0.000   0.033  -0.000  -0.000  -0.000  -0.000   0.000   0.000   0.000  -0.000  -0.000   0.000
 -0.000  -0.000   0.000  -0.022   0.000  -0.000   0.033  -0.000  -0.000   0.000  -0.000  -0.000   0.000  -0.000   0.000  -0.000
  0.000  -0.000   0.000   0.000  -0.022  -0.000  -0.000   0.033   0.000   0.000  -0.000  -0.000   0.000  -0.000  -0.000   0.000
 -0.000  -0.000   0.000   0.000  -0.000  -0.000  -0.000   0.000   3.508  -0.000   0.000  -0.000   0.000  -1.739   0.000  -0.000
 -0.000  -0.000   0.000   0.000  -0.000  -0.000   0.000   0.000  -0.000   3.508  -0.000  -0.000   0.000   0.000  -1.739   0.000
  0.000   0.000  -0.000  -0.000  -0.000   0.000   0.000   0.000   0.000  -0.000   3.757  -0.000  -0.000  -0.000   0.000  -1.948
 -0.000  -0.000   0.000   0.000   0.000   0.000  -0.000  -0.000  -0.000  -0.000  -0.000   3.508  -0.000   0.000   0.000   0.000
  0.000   0.000   0.000  -0.000  -0.000  -0.000   0.000   0.000   0.000   0.000  -0.000  -0.000   3.757  -0.000  -0.000   0.000
  0.000   0.000   0.000   0.000   0.000  -0.000  -0.000  -0.000  -1.739   0.000  -0.000   0.000  -0.000   0.877  -0.000   0.000
  0.000   0.000   0.000   0.000  -0.000  -0.000   0.000  -0.000   0.000  -1.739   0.000   0.000  -0.000  -0.000   0.877  -0.000
  0.000  -0.000   0.000   0.000   0.000   0.000   0.000  -0.000  -0.000   0.000  -1.948   0.000   0.000   0.000  -0.000   1.016
  0.000   0.000  -0.000  -0.000   0.000  -0.000  -0.000  -0.000   0.000   0.000   0.000  -1.739   0.000  -0.000  -0.000  -0.000
 -0.000  -0.000   0.000   0.000  -0.000   0.000   0.000   0.000  -0.000  -0.000   0.000   0.000  -1.948   0.000   0.000  -0.000


------------------------ aborting loop because EDIFF is reached ----------------------------------------


    CHARGE:  cpu time      0.5320: real time      0.3861
    FORLOC:  cpu time      0.0161: real time      0.0017
    FORNL :  cpu time      0.9976: real time      0.7573
    STRESS:  cpu time      2.5096: real time      1.9057
    FORCOR:  cpu time      0.0375: real time      0.0087
    FORHAR:  cpu time      0.0025: real time      0.0024
    MIXING:  cpu time      0.0614: real time      0.0077
    OFIELD:  cpu time      0.0018: real time      0.0001

  FORCE on cell =-STRESS in cart. coord.  units (eV):
  Direction    XX          YY          ZZ          XY          YZ          ZX
  --------------------------------------------------------------------------------------
  Alpha Z  7481.07834  7481.07834  7481.07834
  Ewald  -45105.28058-45105.28029-45105.28042     0.00231     0.00015     0.00225
  Hartree  8988.36874  8988.36816  8988.36843    -0.00015    -0.00001    -0.00015
  E(xc)   -6522.37310 -6522.37312 -6522.37311    -0.00002    -0.00000    -0.00002
  Local    7177.86900  7177.87115  7177.87015     0.00031     0.00002     0.00030
  n-local -1978.25186 -1999.58477 -2019.33793    -0.00036    -0.00003    -0.00035
  augment   283.52358   283.52349   283.52353    -0.00010    -0.00001    -0.00010
  Kinetic 29653.22710 29676.60252 29737.08611     0.00052     0.00005     0.00053
  Fock        0.00000     0.00000     0.00000     0.00000     0.00000     0.00000
  -------------------------------------------------------------------------------------
  Total      -6.89940    -6.89940    -6.89940     0.00000     0.00000     0.00000
  in kB      -3.79884    -3.79884    -3.79884     0.00000     0.00000     0.00000
  external pressure =       -3.80 kB  Pullay stress =        0.00 kB


 VOLUME and BASIS-vectors are now :
 -----------------------------------------------------------------------------
  energy-cutoff  :      350.00
  volume of cell :     2909.85
      direct lattice vectors                 reciprocal lattice vectors
    14.276564406 -0.000000594 -0.000000589     0.070044863  0.000000003  0.000000003
    -0.000000603 14.276563856 -0.000000038     0.000000003  0.070044866  0.000000000
    -0.000000575 -0.000000040 14.276564111     0.000000003  0.000000000  0.070044865

  length of vectors
    14.276564406 14.276563856 14.276564111     0.070044863  0.070044866  0.070044865


 FORCES acting on ions
    electron-ion (+dipol)            ewald-force                    non-local-force                 convergence-correction
 -----------------------------------------------------------------------------------------------
   -.275E-03 0.165E-03 0.559E-03   -.387E-03 0.261E-03 0.481E-03   -.435E-21 -.108E-20 0.500E-21   0.148E-05 -.114E-05 -.507E-06
   0.259E-03 -.302E-03 -.107E-03   -.691E-04 -.275E-03 -.186E-03   0.155E-21 0.199E-21 0.503E-21   0.134E-06 0.123E-05 0.494E-06
   -.974E-03 -.267E-02 0.109E-03   -.629E-03 -.134E-02 0.102E-03   -.705E-21 -.109E-20 -.513E-21   0.228E-05 0.183E-05 -.375E-06
   0.163E-02 0.150E-03 0.586E-03   0.105E-02 -.969E-04 0.305E-03   -.527E-22 0.772E-21 0.240E-21   -.230E-05 0.983E-06 -.651E-06
   -.791E-03 0.108E-03 -.197E-03   -.661E-03 0.113E-04 -.113E-04   -.187E-21 -.510E-21 -.951E-22   0.106E-05 -.589E-07 0.120E-06
   -.439E-03 0.439E-04 -.534E-03   -.529E-03 0.631E-04 -.224E-03   0.427E-21 -.474E-21 -.480E-21   0.217E-05 -.216E-06 0.803E-07
   -.155E-02 -.769E-03 -.473E-03   -.105E-02 -.412E-03 -.254E-03   0.369E-21 0.781E-21 -.835E-21   0.219E-05 0.119E-05 -.965E-07
   0.724E-03 0.796E-03 0.800E-03   0.407E-03 0.367E-03 0.374E-03   -.275E-21 -.278E-21 0.609E-21   -.167E-05 -.127E-05 -.477E-06
   0.128E-02 0.504E-03 -.320E-03   0.774E-03 0.379E-03 -.280E-03   -.171E-21 -.453E-21 -.225E-21   -.268E-05 -.126E-05 0.267E-06
   -.473E-03 0.473E-03 0.555E-03   -.131E-03 0.158E-03 0.248E-03   0.864E-21 0.605E-21 -.331E-21   -.123E-06 -.381E-06 -.416E-06
   -.850E-03 -.854E-04 0.395E-04   -.509E-03 -.871E-04 0.680E-04   0.465E-21 -.660E-21 0.613E-21   0.595E-06 0.266E-06 -.413E-06
   -.146E-02 0.372E-03 0.101E-03   -.814E-03 0.454E-03 0.233E-04   -.741E-21 -.596E-21 0.744E-21   0.222E-05 -.960E-06 -.277E-06
   0.159E-02 0.726E-04 0.119E-02   0.643E-03 0.262E-04 0.621E-03   -.205E-21 -.219E-21 0.639E-21   -.176E-05 0.440E-06 -.484E-06
   -.138E-02 -.455E-03 0.191E-03   -.726E-03 -.375E-03 -.101E-03   -.330E-21 -.321E-21 0.116E-22   0.151E-05 0.695E-06 0.155E-06
   0.919E-04 -.567E-03 0.374E-03   -.904E-04 -.294E-03 0.131E-03   0.591E-21 -.128E-20 0.377E-21   -.418E-07 0.136E-05 -.309E-06
   0.843E-04 0.108E-02 0.443E-03   0.254E-03 0.479E-03 0.110E-03   0.196E-21 0.457E-21 0.490E-21   -.535E-06 -.142E-05 -.280E-06
   0.430E-03 0.488E-03 0.184E-03   -.465E-04 0.310E-03 -.928E-05   -.377E-21 0.715E-21 0.943E-22   0.395E-06 -.126E-05 0.109E-06
   -.405E-03 0.649E-04 -.144E-03   -.432E-03 -.708E-04 -.944E-04   0.821E-21 -.364E-21 -.546E-21   0.446E-06 0.479E-06 0.204E-06
   -.250E-03 -.106E-02 -.679E-03   -.459E-04 -.719E-03 -.319E-03   0.474E-21 -.266E-21 -.232E-21   0.133E-05 0.154E-05 -.156E-06
   0.135E-02 -.156E-02 -.417E-03   0.675E-03 -.608E-03 -.286E-03   0.491E-21 0.323E-22 -.156E-21   -.206E-05 0.111E-05 0.298E-06
   -.836E-03 -.177E-02 -.519E-03   -.644E-03 -.880E-03 -.271E-03   0.750E-21 -.736E-22 -.136E-20   0.246E-05 0.158E-05 0.115E-06
   -.204E-02 -.110E-03 -.274E-03   -.123E-02 -.753E-04 -.198E-03   -.127E-21 0.184E-21 -.199E-21   0.261E-05 -.536E-06 0.379E-06
   0.110E-02 0.392E-03 -.560E-04   0.427E-03 0.197E-03 -.219E-04   -.107E-20 -.101E-20 -.811E-21   -.153E-06 -.964E-06 -.177E-06
   0.106E-02 0.285E-03 0.139E-02   0.565E-03 0.248E-03 0.718E-03   -.159E-20 -.920E-21 0.199E-21   -.224E-05 -.387E-06 -.679E-06
   0.104E-02 0.613E-04 -.988E-03   0.786E-03 -.162E-03 -.444E-03   -.401E-21 0.172E-21 0.357E-21   -.265E-05 0.173E-06 0.576E-06
   0.833E-04 0.487E-03 0.799E-03   0.156E-03 0.214E-03 0.473E-03   0.832E-22 -.630E-21 -.145E-21   -.122E-05 0.311E-06 -.546E-06
   0.830E-03 -.407E-04 -.473E-03   0.291E-03 -.108E-04 -.206E-03   -.433E-21 0.332E-21 0.644E-21   0.525E-08 -.698E-07 0.181E-06
   -.138E-02 0.497E-03 0.132E-02   -.855E-03 0.351E-03 0.751E-03   -.159E-21 0.102E-20 -.148E-21   0.259E-05 -.512E-06 -.868E-06
   0.905E-03 -.167E-02 -.726E-03   0.549E-03 -.747E-03 -.383E-03   0.490E-21 -.446E-21 -.812E-21   -.159E-05 0.131E-05 0.432E-06
   0.156E-04 -.175E-02 -.816E-03   0.161E-03 -.913E-03 -.409E-03   0.197E-20 0.167E-21 -.199E-21   -.138E-05 0.159E-05 0.776E-06
   0.499E-03 -.801E-03 -.308E-03   0.340E-03 -.401E-03 0.153E-04   0.105E-20 -.923E-21 -.132E-22   -.398E-06 0.140E-05 -.432E-06
   0.607E-03 -.106E-02 -.204E-03   0.481E-03 -.761E-03 -.297E-03   0.136E-20 -.768E-21 -.180E-20   -.225E-05 0.167E-05 0.432E-06
   0.594E-03 0.179E-02 0.217E-03   0.432E-03 0.847E-03 -.222E-04   0.117E-20 0.973E-21 0.251E-21   -.180E-05 -.122E-05 0.356E-06
   -.223E-03 -.102E-02 -.910E-03   -.226E-03 -.374E-03 -.394E-03   0.114E-21 -.749E-22 0.611E-21   0.166E-05 -.137E-07 0.483E-06
   0.142E-02 -.213E-03 0.100E-03   0.675E-03 -.288E-04 -.213E-04   0.110E-20 0.961E-21 -.735E-21   -.426E-06 -.213E-06 -.833E-07
   -.138E-02 0.493E-04 -.202E-02   -.713E-03 0.171E-03 -.102E-02   -.141E-21 0.414E-23 0.199E-21   0.235E-05 -.422E-06 0.936E-06
   0.100E-02 -.445E-03 -.107E-03   0.584E-03 -.177E-03 0.906E-05   -.927E-21 0.480E-21 0.916E-21   -.181E-05 -.315E-06 -.251E-07
   -.173E-02 0.144E-02 0.238E-03   -.855E-03 0.840E-03 0.169E-03   0.507E-21 -.484E-21 -.243E-21   0.253E-05 -.167E-05 -.442E-06
   -.166E-02 -.576E-03 -.682E-03   -.828E-03 -.427E-03 -.395E-03   0.729E-21 -.789E-21 -.250E-21   0.210E-05 0.120E-05 0.574E-06
   -.215E-02 -.476E-03 -.131E-03   -.996E-03 -.305E-03 -.160E-03   0.361E-21 0.667E-21 -.441E-21   0.293E-05 -.333E-06 0.449E-06
   0.140E-02 -.234E-03 -.112E-02   0.882E-03 -.210E-03 -.739E-03   -.119E-21 0.410E-21 -.662E-21   -.262E-05 0.400E-06 0.815E-06
   -.727E-05 -.150E-02 -.236E-04   -.190E-05 -.749E-03 -.332E-04   0.652E-21 0.665E-21 -.123E-21   -.114E-05 0.125E-05 0.200E-06
   0.148E-02 -.175E-03 0.984E-03   0.731E-03 -.189E-03 0.557E-03   0.107E-20 0.425E-21 0.163E-20   -.199E-05 0.974E-06 -.341E-06
   0.123E-02 0.134E-02 0.227E-03   0.673E-03 0.513E-03 0.235E-03   0.459E-21 -.268E-21 -.592E-21   -.223E-05 0.590E-06 -.449E-06
   -.165E-02 0.190E-03 0.113E-02   -.108E-02 0.274E-03 0.476E-03   0.338E-21 -.993E-23 0.291E-21   0.280E-05 -.668E-06 -.148E-06
   -.332E-03 0.756E-03 -.248E-03   -.208E-03 0.307E-03 -.221E-03   0.166E-20 0.706E-21 -.655E-21   0.149E-05 -.837E-06 0.190E-06
   -.139E-02 -.397E-03 -.771E-03   -.840E-03 -.245E-03 -.341E-03   0.352E-21 0.678E-21 -.122E-20   0.267E-05 -.461E-06 0.428E-06
   -.125E-02 0.881E-03 -.121E-03   -.827E-03 0.340E-03 -.250E-04   0.162E-22 -.503E-21 0.000E+00   0.212E-05 0.131E-07 0.233E-06
   -.816E-03 -.361E-04 -.923E-04   -.397E-03 -.717E-04 0.304E-04   0.817E-21 -.331E-23 -.791E-21   0.357E-06 0.911E-06 -.326E-06
   -.594E-03 -.126E-04 0.278E-03   -.274E-03 0.621E-05 0.203E-03   -.753E-21 -.203E-22 -.165E-20   0.374E-06 0.910E-07 -.152E-06
   0.246E-03 0.491E-03 0.394E-03   0.103E-03 0.216E-03 0.234E-03   -.117E-21 0.165E-21 0.625E-21   0.568E-07 -.915E-06 -.196E-06
   -.685E-03 -.136E-03 -.494E-03   -.604E-03 -.580E-04 -.306E-03   -.395E-21 0.596E-22 -.444E-21   0.189E-05 -.290E-06 0.422E-06
   0.566E-03 0.859E-04 -.379E-03   0.454E-03 0.230E-03 -.161E-03   -.105E-20 -.543E-21 0.485E-21   -.715E-06 -.121E-05 0.361E-06
   0.179E-02 -.117E-02 -.758E-03   0.103E-02 -.513E-03 -.409E-03   -.187E-21 -.761E-22 0.993E-23   -.207E-05 0.134E-05 0.244E-06
   0.133E-02 0.984E-04 -.788E-03   0.618E-03 0.178E-03 -.244E-03   -.413E-21 0.556E-21 -.572E-21   -.173E-05 -.100E-05 -.614E-08
   -.132E-03 -.448E-03 -.341E-03   -.573E-04 -.349E-03 -.184E-03   0.303E-21 -.414E-23 -.505E-21   0.147E-05 0.603E-06 0.633E-07
   -.111E-02 -.519E-03 -.110E-02   -.775E-03 -.450E-03 -.680E-03   0.367E-21 -.830E-21 0.926E-22   0.274E-05 0.687E-06 0.966E-06
   -.190E-02 0.279E-03 -.897E-03   -.962E-03 -.675E-04 -.505E-03   0.698E-21 -.447E-22 0.523E-21   0.273E-05 0.424E-06 0.489E-06
   0.893E-03 0.682E-05 -.378E-03   0.633E-03 0.372E-04 -.221E-03   -.943E-22 -.341E-21 0.480E-22   -.711E-06 0.529E-07 0.486E-06
   -.143E-02 0.117E-02 0.497E-03   -.863E-03 0.747E-03 0.323E-03   0.806E-22 0.279E-21 0.136E-21   0.195E-05 -.155E-05 -.645E-06
   0.349E-03 -.826E-04 0.982E-04   0.438E-03 0.107E-03 0.118E-03   -.857E-22 -.625E-21 0.334E-21   -.208E-05 -.469E-06 -.445E-06
   0.307E-03 0.386E-05 0.950E-03   0.539E-04 -.236E-04 0.411E-03   0.482E-21 0.100E-20 0.268E-21   -.122E-05 0.696E-06 -.599E-06
   0.145E-02 -.117E-03 -.115E-04   0.863E-03 -.854E-04 0.753E-04   0.220E-21 0.776E-21 -.735E-21   -.233E-05 -.431E-06 -.289E-06
   -.106E-02 0.428E-03 0.855E-03   -.664E-03 0.352E-03 0.461E-03   0.348E-21 -.152E-21 -.137E-20   0.192E-05 -.698E-06 -.556E-06
   0.147E-02 0.163E-02 0.662E-03   0.824E-03 0.615E-03 0.204E-03   -.463E-21 -.355E-21 0.144E-20   -.224E-05 -.113E-05 -.189E-06
   0.905E-03 0.367E-03 0.416E-03   0.725E-03 0.360E-03 0.287E-03   -.926E-22 0.146E-21 0.672E-21   -.265E-05 -.206E-06 0.149E-07
   0.109E-02 -.298E-03 -.495E-03   0.702E-03 -.283E-03 -.386E-03   -.684E-21 0.766E-21 -.984E-21   -.247E-05 0.807E-07 0.548E-06
   0.193E-02 0.942E-03 0.442E-03   0.123E-02 0.619E-03 0.809E-04   -.111E-22 -.405E-22 0.694E-21   -.271E-05 -.147E-05 0.131E-06
   -.173E-02 0.295E-03 0.129E-02   -.101E-02 -.638E-04 0.678E-03   0.158E-21 0.127E-21 0.270E-21   0.272E-05 0.363E-06 -.550E-06
   -.565E-03 -.496E-03 0.451E-03   -.368E-03 -.131E-03 0.225E-03   -.159E-21 -.146E-21 0.549E-21   0.634E-06 -.183E-06 -.218E-06
   -.897E-03 -.151E-03 0.166E-02   -.654E-03 -.865E-04 0.799E-03   -.197E-21 -.976E-21 0.774E-21   0.185E-05 0.766E-06 -.835E-06
   0.378E-03 -.668E-03 -.769E-03   0.170E-03 -.353E-03 -.410E-03   -.554E-21 0.265E-22 0.513E-21   -.143E-05 0.979E-06 0.208E-06
   -.169E-02 0.884E-03 0.230E-03   -.879E-03 0.494E-03 -.131E-04   -.156E-21 -.130E-20 0.533E-21   0.257E-05 0.314E-06 0.363E-06
   -.758E-03 0.779E-04 0.211E-03   -.564E-03 0.150E-03 0.184E-03   -.103E-21 0.711E-21 0.165E-21   0.233E-05 0.520E-06 -.103E-06
   0.766E-03 -.147E-02 -.232E-03   0.653E-03 -.698E-03 -.175E-03   -.458E-21 0.131E-20 0.107E-20   -.253E-05 0.684E-06 -.855E-08
   -.413E-03 0.771E-03 -.121E-03   -.419E-03 0.541E-03 0.889E-04   -.314E-21 -.430E-21 -.500E-21   0.156E-05 -.102E-05 -.446E-06
   -.260E-03 0.848E-03 0.518E-03   -.653E-04 0.441E-03 0.230E-03   -.103E-21 0.910E-21 -.179E-21   -.241E-07 -.142E-05 -.368E-06
   0.364E-03 -.142E-03 -.470E-03   0.360E-03 -.180E-03 -.195E-03   -.342E-21 -.108E-21 -.493E-21   -.145E-05 -.355E-06 -.802E-07
   -.102E-02 0.662E-03 -.389E-03   -.643E-03 0.432E-03 -.353E-03   0.495E-21 0.106E-20 -.476E-21   0.172E-05 -.117E-05 0.379E-06
   -.132E-02 0.818E-04 0.157E-03   -.584E-03 0.167E-04 0.105E-03   0.630E-21 0.308E-21 -.996E-21   0.337E-06 -.417E-06 -.319E-06
   0.915E-03 0.179E-03 0.232E-03   0.495E-03 0.710E-04 -.515E-04   0.636E-22 0.662E-22 0.248E-22   -.236E-05 -.804E-06 -.688E-07
   -.870E-03 -.599E-03 -.422E-03   -.590E-03 -.168E-03 -.935E-04   -.148E-21 0.199E-21 0.556E-21   0.630E-06 0.427E-06 0.461E-06
   0.599E-03 0.177E-03 0.105E-03   0.550E-03 0.896E-05 -.460E-04   -.118E-21 -.976E-22 -.109E-21   -.546E-06 0.216E-06 0.793E-07
   0.725E-03 -.277E-03 -.136E-03   0.484E-03 0.578E-04 -.664E-04   -.523E-21 0.629E-21 -.383E-21   -.160E-05 0.410E-06 -.859E-07
   -.287E-03 0.585E-03 -.342E-03   -.346E-03 0.443E-03 -.191E-03   0.437E-21 -.549E-21 0.239E-21   0.610E-06 -.125E-05 0.264E-06
   0.141E-03 0.138E-02 0.619E-03   0.335E-03 0.639E-03 0.255E-03   0.275E-21 -.628E-21 -.764E-21   -.173E-05 -.129E-05 -.130E-06
   -.181E-02 -.438E-03 -.221E-03   -.100E-02 -.334E-03 -.239E-03   -.328E-21 0.773E-21 -.596E-22   0.228E-05 0.614E-07 0.581E-06
   0.767E-03 0.514E-03 0.705E-03   0.577E-03 0.256E-04 0.466E-03   -.587E-21 0.529E-22 0.847E-21   -.237E-05 0.109E-05 -.517E-06
   -.386E-03 0.868E-03 -.880E-03   -.150E-03 0.499E-03 -.474E-03   0.846E-22 -.764E-21 0.258E-21   0.130E-05 -.144E-06 0.631E-06
   0.417E-03 -.760E-03 0.721E-04   0.347E-03 -.494E-03 -.571E-04   0.548E-21 0.488E-22 0.468E-21   -.271E-06 0.126E-05 0.358E-06
   0.113E-02 -.173E-04 0.170E-03   0.439E-03 0.171E-04 0.233E-04   -.375E-21 -.496E-22 -.562E-22   -.158E-05 0.450E-06 -.369E-06
   0.161E-02 0.769E-03 -.333E-03   0.977E-03 0.208E-03 -.161E-03   -.290E-21 -.599E-21 -.443E-21   -.121E-05 -.444E-06 0.352E-06
   0.954E-03 0.529E-03 -.511E-03   0.526E-03 0.283E-03 -.203E-03   -.429E-21 -.427E-21 0.695E-21   -.748E-06 -.549E-06 0.383E-06
   -.110E-03 0.105E-02 0.579E-03   0.374E-04 0.548E-03 0.241E-03   -.152E-20 -.845E-21 0.668E-21   -.111E-05 -.124E-05 -.248E-06
   0.344E-03 0.323E-03 -.109E-02   0.374E-03 0.136E-03 -.483E-03   -.998E-24 0.711E-21 0.127E-21   -.170E-05 -.750E-06 0.387E-06
   0.183E-02 -.118E-02 -.119E-02   0.935E-03 -.625E-03 -.563E-03   -.776E-22 0.513E-21 0.602E-21   -.221E-05 0.128E-05 0.732E-06
   0.186E-02 0.124E-02 -.432E-03   0.894E-03 0.948E-03 -.293E-04   -.522E-21 0.254E-22 -.100E-20   -.283E-05 -.211E-05 0.129E-06
   -.120E-02 -.679E-03 0.164E-02   -.532E-03 -.413E-03 0.786E-03   -.268E-21 -.551E-21 0.846E-21   0.165E-05 0.118E-05 -.796E-06
   0.940E-04 -.940E-03 -.738E-03   -.149E-03 -.452E-03 -.412E-03   -.841E-21 -.463E-21 -.141E-20   0.150E-05 0.102E-05 0.614E-06
   0.635E-03 0.680E-03 0.873E-03   0.442E-03 0.321E-03 0.548E-03   0.138E-21 0.265E-21 -.797E-21   -.155E-05 -.976E-06 -.680E-06
   0.227E-02 0.325E-03 -.499E-03   0.122E-02 0.296E-03 -.212E-03   -.455E-22 -.138E-20 -.126E-21   -.270E-05 -.115E-05 0.352E-06
   -.322E-03 0.448E-03 -.491E-03   0.646E-04 0.296E-03 -.320E-03   0.485E-21 0.287E-21 -.473E-21   -.129E-05 -.100E-05 0.541E-06
   0.155E-02 -.983E-03 -.889E-03   0.965E-03 -.550E-03 -.353E-03   -.940E-21 0.294E-21 0.414E-22   -.228E-05 0.110E-05 0.555E-06
   0.953E-03 -.928E-03 -.732E-05   0.427E-03 -.346E-03 0.710E-04   -.509E-21 0.400E-21 0.107E-20   -.484E-06 0.446E-06 -.216E-06
   0.801E-03 0.603E-04 -.490E-03   0.203E-03 0.905E-04 -.140E-03   -.103E-21 -.152E-21 -.303E-21   0.118E-05 0.537E-06 0.318E-06
   0.159E-02 -.757E-03 0.843E-03   0.816E-03 -.127E-03 0.617E-03   0.426E-21 0.299E-21 0.936E-21   -.262E-05 0.851E-07 -.821E-06
   0.135E-02 0.169E-02 -.471E-04   0.799E-03 0.835E-03 -.742E-04   -.971E-21 -.121E-21 0.109E-20   -.214E-05 -.129E-05 0.235E-06
   0.531E-03 -.912E-03 -.179E-04   0.176E-03 -.536E-03 0.335E-04   -.556E-21 0.298E-21 0.121E-20   -.166E-06 0.131E-05 0.248E-06
   -.809E-03 -.166E-03 0.937E-03   -.410E-03 0.125E-03 0.485E-03   -.544E-21 0.129E-20 0.126E-20   0.175E-05 -.532E-06 -.652E-06
   0.140E-03 0.343E-03 -.633E-03   0.476E-04 0.329E-03 -.184E-03   0.611E-21 0.346E-21 0.496E-22   -.179E-06 -.124E-05 0.287E-06
   0.598E-04 -.335E-03 0.103E-02   0.245E-03 -.295E-03 0.521E-03   -.616E-21 -.575E-21 -.460E-21   -.162E-05 0.118E-05 -.368E-06
   -.173E-02 0.108E-02 0.662E-03   -.972E-03 0.603E-03 0.325E-03   -.722E-21 0.339E-21 0.115E-21   0.282E-05 -.150E-05 -.435E-06
   0.102E-03 -.156E-03 -.740E-03   -.620E-04 -.673E-04 -.450E-03   -.964E-21 0.943E-22 0.695E-21   0.121E-05 -.746E-06 0.772E-06
   -.262E-03 0.102E-02 0.184E-03   -.136E-03 0.509E-03 0.106E-03   0.453E-21 0.171E-21 -.485E-21   0.148E-05 -.125E-05 -.256E-06
   -.130E-02 0.118E-02 0.756E-03   -.935E-03 0.437E-03 0.511E-03   -.129E-20 0.697E-21 -.157E-21   0.267E-05 0.582E-07 -.905E-06
   0.102E-02 -.172E-02 -.569E-03   0.608E-03 -.115E-02 -.390E-03   0.687E-21 0.170E-21 -.579E-21   -.243E-05 0.215E-05 0.534E-06
   -.279E-02 -.416E-03 -.333E-03   -.130E-02 -.114E-03 -.739E-04   -.920E-22 -.109E-20 0.612E-21   0.241E-05 0.829E-06 0.379E-06
   -.158E-02 0.921E-03 0.530E-03   -.896E-03 0.409E-03 0.333E-03   0.159E-21 -.652E-21 0.668E-21   0.251E-05 -.101E-05 -.313E-06
   0.141E-02 -.197E-03 0.442E-03   0.787E-03 -.667E-04 0.103E-03   -.537E-21 0.103E-20 -.655E-21   -.736E-06 0.436E-06 -.449E-06
   -.451E-03 -.179E-03 0.255E-04   -.998E-04 -.920E-04 0.317E-04   0.361E-21 -.553E-21 -.880E-21   0.828E-07 0.882E-06 0.210E-07
   0.973E-03 0.352E-03 -.830E-03   0.500E-03 0.128E-03 -.248E-03   0.470E-21 -.159E-20 -.180E-21   -.187E-05 -.504E-06 0.122E-06
   -.117E-02 0.657E-03 0.817E-03   -.695E-03 0.229E-03 0.541E-03   0.397E-22 -.166E-21 -.551E-21   0.174E-05 0.223E-06 -.381E-06
   -.191E-02 -.857E-03 -.160E-03   -.990E-03 -.569E-03 0.388E-04   0.114E-20 -.736E-22 -.397E-21   0.187E-05 0.103E-05 -.406E-06
   0.104E-02 0.959E-03 0.569E-03   0.695E-03 0.713E-03 0.369E-03   -.319E-21 -.345E-21 0.801E-21   -.254E-05 -.168E-05 -.327E-06
   0.290E-04 -.364E-03 0.301E-04   0.161E-03 -.295E-03 -.147E-05   0.284E-22 0.695E-21 0.125E-20   -.402E-07 0.123E-05 -.531E-07
   -.146E-04 -.723E-03 -.176E-04   0.591E-04 -.566E-03 -.740E-04   0.607E-21 -.397E-21 0.724E-21   0.131E-05 0.101E-05 -.954E-07
   -.104E-02 0.670E-04 0.630E-03   -.534E-03 -.287E-04 0.301E-03   0.243E-21 0.182E-21 -.278E-21   0.191E-05 0.455E-06 -.201E-06
   -.106E-02 0.150E-04 -.181E-04   -.565E-03 0.715E-04 -.111E-03   0.234E-21 0.634E-21 0.341E-21   0.209E-05 -.465E-06 0.446E-06
 -----------------------------------------------------------------------------------------------
   0.151E-08 0.301E-09 0.188E-08   -.136E-11 0.341E-12 -.142E-11   0.177E-20 -.243E-20 0.124E-20   0.428E-11 0.441E-11 0.471E-11
 
 
 POSITION                                       TOTAL-FORCE (eV/Angst)
 -----------------------------------------------------------------------------------
      5.35371     12.49199     12.49199         0.000000     -0.000000     -0.000000
      7.13828      3.56914     10.70742        -0.000000     -0.000000      0.000000
      3.56914      3.56914      3.56914         0.000000      0.000000      0.000000
      8.92285      5.35371      1.78457        -0.000000     -0.000000     -0.000000
     -0.00000     14.27656     10.70742        -0.000000      0.000000     -0.000000
      3.56914     14.27656      3.56914         0.000000     -0.000000      0.000000
      1.78457      5.35371      1.78457         0.000000      0.000000      0.000000
      8.92285     12.49199      5.35371        -0.000000      0.000000      0.000000
     10.70742     10.70742     -0.00000        -0.000000     -0.000000      0.000000
      7.13828     14.27656     14.27656        -0.000000     -0.000000      0.000000
      0.00000      7.13828      3.56914        -0.000000     -0.000000     -0.000000
      1.78457      8.92285      1.78457        -0.000000     -0.000000      0.000000
      8.92285      1.78457      5.35371        -0.000000      0.000000      0.000000
      5.35371      1.78457      5.35371         0.000000      0.000000     -0.000000
      7.13828      3.56914     14.27656        -0.000000     -0.000000      0.000000
      7.13828     10.70742     14.27656         0.000000      0.000000     -0.000000
     14.27656     10.70742     14.27656        -0.000000      0.000000     -0.000000
      7.13828      7.13828      7.13828        -0.000000      0.000000      0.000000
      5.35371      5.35371      1.78457        -0.000000     -0.000000     -0.000000
      8.92285      1.78457     12.49199         0.000000     -0.000000      0.000000
      3.56914      3.56914      0.00000        -0.000000      0.000000      0.000000
      1.78457     12.49199      8.92285        -0.000000      0.000000      0.000000
     14.27656     10.70742      3.56914         0.000000      0.000000     -0.000000
     10.70742     14.27656      7.13828        -0.000000      0.000000      0.000000
     10.70742     14.27656     10.70742        -0.000000     -0.000000      0.000000
     12.49199      1.78457      5.35371        -0.000000     -0.000000      0.000000
     14.27656     -0.00000     -0.00000         0.000000     -0.000000     -0.000000
      3.56914     14.27656     14.27656         0.000000      0.000000     -0.000000
     12.49199      1.78457     12.49199         0.000000      0.000000      0.000000
      8.92285      5.35371      8.92285        -0.000000     -0.000000      0.000000
      7.13828      3.56914      3.56914         0.000000     -0.000000      0.000000
     10.70742      3.56914      7.13828         0.000000      0.000000      0.000000
      8.92285      8.92285      8.92285        -0.000000     -0.000000     -0.000000
      1.78457      8.92285      8.92285         0.000000     -0.000000     -0.000000
     14.27656     -0.00000      3.56914         0.000000     -0.000000      0.000000
      3.56914     14.27656      7.13828        -0.000000     -0.000000     -0.000000
     12.49199      8.92285      5.35371         0.000000     -0.000000      0.000000
      3.56914     10.70742      3.56914        -0.000000      0.000000      0.000000
      5.35371      5.35371     12.49199         0.000000      0.000000      0.000000
      3.56914     10.70742     10.70742         0.000000     -0.000000     -0.000000
     10.70742      7.13828      7.13828         0.000000     -0.000000     -0.000000
     12.49199      1.78457      8.92285        -0.000000     -0.000000      0.000000
     12.49199      5.35371     12.49199        -0.000000     -0.000000      0.000000
     10.70742      3.56914      3.56914        -0.000000      0.000000      0.000000
      3.56914     14.27656     10.70742        -0.000000     -0.000000     -0.000000
      1.78457     12.49199      5.35371         0.000000     -0.000000     -0.000000
      3.56914     10.70742      7.13828         0.000000      0.000000     -0.000000
      1.78457      1.78457      8.92285        -0.000000     -0.000000      0.000000
      0.00000      3.56914      3.56914         0.000000      0.000000     -0.000000
     -0.00000      7.13828     14.27656         0.000000      0.000000     -0.000000
     14.27656     10.70742      7.13828         0.000000      0.000000     -0.000000
      5.35371      8.92285     12.49199         0.000000      0.000000     -0.000000
      7.13828     10.70742     10.70742         0.000000     -0.000000     -0.000000
      8.92285      5.35371      5.35371        -0.000000      0.000000      0.000000
      8.92285     12.49199      1.78457         0.000000      0.000000      0.000000
      1.78457      1.78457      5.35371        -0.000000     -0.000000     -0.000000
      3.56914      7.13828     10.70742         0.000000      0.000000      0.000000
      3.56914      7.13828      0.00000         0.000000     -0.000000      0.000000
     14.27656      7.13828     10.70742         0.000000      0.000000     -0.000000
      5.35371     12.49199      1.78457        -0.000000      0.000000     -0.000000
     10.70742     -0.00000      3.56914         0.000000     -0.000000     -0.000000
     12.49199      5.35371      1.78457        -0.000000     -0.000000      0.000000
      8.92285      8.92285      1.78457        -0.000000      0.000000     -0.000000
      5.35371      8.92285      5.35371        -0.000000     -0.000000     -0.000000
      8.92285      8.92285     12.49199        -0.000000     -0.000000     -0.000000
     10.70742      7.13828     10.70742        -0.000000      0.000000     -0.000000
     10.70742     -0.00000     -0.00000        -0.000000      0.000000      0.000000
      8.92285     12.49199      8.92285        -0.000000      0.000000     -0.000000
      3.56914      7.13828      7.13828         0.000000      0.000000     -0.000000
      0.00000      0.00000      7.13828        -0.000000     -0.000000      0.000000
      1.78457      5.35371      5.35371        -0.000000     -0.000000     -0.000000
     12.49199      5.35371      5.35371        -0.000000     -0.000000     -0.000000
      3.56914      3.56914     10.70742         0.000000     -0.000000      0.000000
      3.56914      3.56914      7.13828        -0.000000     -0.000000     -0.000000
     10.70742      7.13828      3.56914        -0.000000      0.000000     -0.000000
      5.35371      8.92285      1.78457         0.000000      0.000000     -0.000000
      7.13828     10.70742      3.56914        -0.000000      0.000000      0.000000
     12.49199      8.92285      1.78457         0.000000      0.000000     -0.000000
      5.35371     12.49199      5.35371        -0.000000      0.000000      0.000000
      7.13828     14.27656      3.56914         0.000000      0.000000      0.000000
     10.70742     10.70742      3.56914         0.000000      0.000000     -0.000000
      7.13828      7.13828     10.70742         0.000000     -0.000000      0.000000
     14.27656      7.13828      7.13828        -0.000000     -0.000000      0.000000
     12.49199      1.78457      1.78457        -0.000000      0.000000     -0.000000
     -0.00000     10.70742     10.70742        -0.000000     -0.000000      0.000000
     12.49199      8.92285     12.49199        -0.000000     -0.000000     -0.000000
      5.35371      8.92285      8.92285        -0.000000      0.000000     -0.000000
     10.70742      3.56914     14.27656         0.000000      0.000000      0.000000
      5.35371      1.78457      8.92285         0.000000     -0.000000     -0.000000
     14.27656      3.56914     10.70742        -0.000000     -0.000000      0.000000
      8.92285      1.78457      1.78457         0.000000     -0.000000      0.000000
      7.13828     14.27656     10.70742         0.000000     -0.000000      0.000000
      7.13828     14.27656      7.13828         0.000000     -0.000000     -0.000000
     12.49199     12.49199      8.92285        -0.000000      0.000000     -0.000000
     12.49199     12.49199      1.78457         0.000000     -0.000000      0.000000
     12.49199      5.35371      8.92285        -0.000000      0.000000      0.000000
     10.70742     10.70742     10.70742        -0.000000     -0.000000     -0.000000
      5.35371      5.35371      5.35371         0.000000     -0.000000     -0.000000
      1.78457      5.35371     12.49199         0.000000      0.000000      0.000000
     12.49199     12.49199      5.35371        -0.000000     -0.000000     -0.000000
      8.92285     12.49199     12.49199        -0.000000     -0.000000      0.000000
     12.49199     12.49199     12.49199        -0.000000      0.000000      0.000000
      8.92285      1.78457      8.92285         0.000000     -0.000000     -0.000000
      7.13828      7.13828     -0.00000         0.000000     -0.000000     -0.000000
      1.78457      5.35371      8.92285         0.000000     -0.000000     -0.000000
     10.70742      7.13828     14.27656         0.000000     -0.000000      0.000000
     12.49199      8.92285      8.92285        -0.000000      0.000000      0.000000
      7.13828      3.56914      7.13828         0.000000      0.000000     -0.000000
      1.78457      8.92285      5.35371        -0.000000      0.000000     -0.000000
      7.13828     10.70742      7.13828        -0.000000     -0.000000      0.000000
      8.92285      5.35371     12.49199         0.000000      0.000000      0.000000
      3.56914     10.70742     14.27656        -0.000000      0.000000     -0.000000
      5.35371     12.49199      8.92285        -0.000000     -0.000000     -0.000000
      1.78457     12.49199      1.78457        -0.000000      0.000000     -0.000000
      3.56914      7.13828      3.56914         0.000000     -0.000000      0.000000
     10.70742      3.56914     10.70742         0.000000      0.000000      0.000000
      5.35371      5.35371      8.92285        -0.000000      0.000000     -0.000000
      1.78457     12.49199     12.49199         0.000000     -0.000000      0.000000
      7.13828      7.13828      3.56914         0.000000     -0.000000      0.000000
     -0.00000      3.56914      7.13828         0.000000      0.000000     -0.000000
      8.92285      8.92285      5.35371        -0.000000     -0.000000      0.000000
      5.35371      1.78457     12.49199        -0.000000     -0.000000      0.000000
      5.35371      1.78457      1.78457        -0.000000     -0.000000      0.000000
     10.70742     10.70742      7.13828         0.000000      0.000000      0.000000
     14.27656      3.56914     14.27656        -0.000000      0.000000     -0.000000
      1.78457      1.78457      1.78457         0.000000      0.000000     -0.000000
      1.78457      1.78457     12.49199        -0.000000      0.000000     -0.000000
      1.78457      8.92285     12.49199        -0.000000     -0.000000      0.000000
 -----------------------------------------------------------------------------------
    total drift:                                0.000000      0.000000      0.000000


--------------------------------------------------------------------------------------------------------



  FREE ENERGIE OF THE ION-ELECTRON SYSTEM (eV)
  ---------------------------------------------------
  free  energy   TOTEN  =     -1075.45576512 eV

  energy  without entropy=    -1075.39124475  energy(sigma->0) =    -1075.43425833
 d Force = 0.0000000E+00[ 0.000E+00, 0.000E+00]  d Energy = 0.2715283E+02-0.272E+02
 d Force = 0.0000000E+00[ 0.000E+00, 0.000E+00]  d Ewald  = 0.8286640E+04-0.829E+04
 


--------------------------------------------------------------------------------------------------------


    POTLOK:  cpu time      0.1199: real time      0.0230


--------------------------------------------------------------------------------------------------------




--------------------------------------------------------------------------------------------------------


      MLFF:  cpu time      0.0368: real time      0.0323
    WAVPRE:  cpu time      0.3781: real time      0.1440
    FEWALD:  cpu time      0.1784: real time      0.1702
    GENKIN:  cpu time      0.0065: real time      0.0065
    ORTHCH:  cpu time      0.5508: real time      0.5504
     LOOP+:  cpu time     56.3635: real time     50.0752


--------------------------------------- Ionic step        4  -------------------------------------------




--------------------------------------- Iteration      4(   1)  ---------------------------------------


    POTLOK:  cpu time      0.0077: real time      0.0074
    SETDIJ:  cpu time      0.0875: real time      0.0060
     EDDAV:  cpu time      3.3930: real time      3.3400
       DOS:  cpu time      0.0014: real time      0.0014
    CHARGE:  cpu time      0.4515: real time      0.3054
    MIXING:  cpu time      0.0357: real time      0.0035
    --------------------------------------------
      LOOP:  cpu time      3.9769: real time      3.6636

 eigenvalue-minimisations  :  8552
 total energy-change (2. order) :-0.1935269E+00  (-0.5864123E+00)
 number of electron    1535.9999963 magnetization 
 augmentation part       22.3186840 magnetization 

 Broyden mixing:
  rms(total) = 0.42485E+00    rms(broyden)= 0.42483E+00
  rms(prec ) = 0.44643E+00
  weight for this iteration     100.00

 Free energy of the ion-electron system (eV)
  ---------------------------------------------------
  alpha Z        PSCENC =      7508.67029722
  Ewald energy   TEWEN  =   -135480.81405450
  -Hartree energ DENC   =    -26998.21983744
  -exchange      EXHF   =         0.00000000
  -V(xc)+E(xc)   XCENC  =      6310.69726535
  PAW double counting   =    188524.87292330  -185928.02447228
  entropy T*S    EENTRO =        -0.08118319
  eigenvalues    EBANDS =    -19390.66666843
  atomic energy  EATOM  =    164377.91643804
  Solvation  Ediel_sol  =         0.00000000
  ---------------------------------------------------
  free energy    TOTEN  =     -1075.64929192 eV

  energy without entropy =    -1075.56810873  energy(sigma->0) =    -1075.62223086


--------------------------------------------------------------------------------------------------------




--------------------------------------- Iteration      4(   2)  ---------------------------------------


    POTLOK:  cpu time      0.0366: real time      0.0115
    SETDIJ:  cpu time      0.0941: real time      0.0062
     EDDAV:  cpu time      3.4555: real time      3.4019
       DOS:  cpu time      0.0013: real time      0.0013
    CHARGE:  cpu time      0.4510: real time      0.3020
    MIXING:  cpu time      0.0392: real time      0.0035
    --------------------------------------------
      LOOP:  cpu time      4.0776: real time      3.7264

 eigenvalue-minimisations  :  8780
 total energy-change (2. order) : 0.1610093E+00  (-0.5266160E-01)
 number of electron    1535.9999960 magnetization 
 augmentation part       23.0638584 magnetization 

 Broyden mixing:
  rms(total) = 0.12313E+00    rms(broyden)= 0.12312E+00
  rms(prec ) = 0.13528E+00
  weight for this iteration     100.00

 eigenvalues of (default mixing * dielectric matrix)
  average eigenvalue GAMMA=   1.2304
  1.2304

 Free energy of the ion-electron system (eV)
  ---------------------------------------------------
  alpha Z        PSCENC =      7508.67029722
  Ewald energy   TEWEN  =   -135480.81405450
  -Hartree energ DENC   =    -26924.85500840
  -exchange      EXHF   =         0.00000000
  -V(xc)+E(xc)   XCENC  =      6306.78055676
  PAW double counting   =    189588.68510607  -186998.63872386
  entropy T*S    EENTRO =        -0.07486718
  eigenvalues    EBANDS =    -19453.15802681
  atomic energy  EATOM  =    164377.91643804
  Solvation  Ediel_sol  =         0.00000000
  ---------------------------------------------------
  free energy    TOTEN  =     -1075.48828266 eV

  energy without entropy =    -1075.41341548  energy(sigma->0) =    -1075.46332694


--------------------------------------------------------------------------------------------------------




--------------------------------------- Iteration      4(   3)  ---------------------------------------


    POTLOK:  cpu time      0.0361: real time      0.0140
    SETDIJ:  cpu time      0.0927: real time      0.0062
     EDDAV:  cpu time      3.3385: real time      3.2855
       DOS:  cpu time      0.0013: real time      0.0013
    CHARGE:  cpu time      0.4477: real time      0.3035
    MIXING:  cpu time      0.0424: real time      0.0038
    --------------------------------------------
      LOOP:  cpu time      3.9586: real time      3.6142

 eigenvalue-minimisations  :  8452
 total energy-change (2. order) : 0.2860616E-01  (-0.1433620E-01)
 number of electron    1535.9999964 magnetization 
 augmentation part       22.5744295 magnetization 

 Broyden mixing:
  rms(total) = 0.65687E-01    rms(broyden)= 0.65684E-01
  rms(prec ) = 0.65856E-01
  weight for this iteration     100.00

 eigenvalues of (default mixing * dielectric matrix)
  average eigenvalue GAMMA=   1.2782
  1.2782  1.2782

 Free energy of the ion-electron system (eV)
  ---------------------------------------------------
  alpha Z        PSCENC =      7508.67029722
  Ewald energy   TEWEN  =   -135480.81405450
  -Hartree energ DENC   =    -26890.31649443
  -exchange      EXHF   =         0.00000000
  -V(xc)+E(xc)   XCENC  =      6304.96263493
  PAW double counting   =    189713.57407973  -187128.01828896
  entropy T*S    EENTRO =        -0.07207875
  eigenvalues    EBANDS =    -19481.36220978
  atomic energy  EATOM  =    164377.91643804
  Solvation  Ediel_sol  =         0.00000000
  ---------------------------------------------------
  free energy    TOTEN  =     -1075.45967650 eV

  energy without entropy =    -1075.38759775  energy(sigma->0) =    -1075.43565025


--------------------------------------------------------------------------------------------------------




--------------------------------------- Iteration      4(   4)  ---------------------------------------


    POTLOK:  cpu time      0.0360: real time      0.0150
    SETDIJ:  cpu time      0.0904: real time      0.0059
     EDDAV:  cpu time      3.5868: real time      3.5321
       DOS:  cpu time      0.0013: real time      0.0013
    CHARGE:  cpu time      0.4484: real time      0.3031
    MIXING:  cpu time      0.0458: real time      0.0040
    --------------------------------------------
      LOOP:  cpu time      4.2087: real time      3.8615

 eigenvalue-minimisations  :  9264
 total energy-change (2. order) :-0.5269540E-02  (-0.1840165E-02)
 number of electron    1535.9999967 magnetization 
 augmentation part       22.2035158 magnetization 

 Broyden mixing:
  rms(total) = 0.26594E-01    rms(broyden)= 0.26582E-01
  rms(prec ) = 0.26833E-01
  weight for this iteration     100.00

 eigenvalues of (default mixing * dielectric matrix)
  average eigenvalue GAMMA=   1.6673
  1.4570  1.4570  2.0879

 Free energy of the ion-electron system (eV)
  ---------------------------------------------------
  alpha Z        PSCENC =      7508.67029722
  Ewald energy   TEWEN  =   -135480.81405450
  -Hartree energ DENC   =    -26895.51317587
  -exchange      EXHF   =         0.00000000
  -V(xc)+E(xc)   XCENC  =      6305.23042933
  PAW double counting   =    189492.99208619  -186903.40798529
  entropy T*S    EENTRO =        -0.07252656
  eigenvalues    EBANDS =    -19480.46645459
  atomic energy  EATOM  =    164377.91643804
  Solvation  Ediel_sol  =         0.00000000
  ---------------------------------------------------
  free energy    TOTEN  =     -1075.46494604 eV

  energy without entropy =    -1075.39241947  energy(sigma->0) =    -1075.44077052


--------------------------------------------------------------------------------------------------------




--------------------------------------- Iteration      4(   5)  ---------------------------------------


    POTLOK:  cpu time      0.0364: real time      0.0117
    SETDIJ:  cpu time      0.0911: real time      0.0063
     EDDAV:  cpu time      3.5820: real time      3.5277
       DOS:  cpu time      0.0013: real time      0.0013
    CHARGE:  cpu time      0.4490: real time      0.3035
    MIXING:  cpu time      0.0495: real time      0.0043
    --------------------------------------------
      LOOP:  cpu time      4.2094: real time      3.8548

 eigenvalue-minimisations  :  9200
 total energy-change (2. order) :-0.4011385E-02  (-0.1199664E-02)
 number of electron    1535.9999969 magnetization 
 augmentation part       21.9119608 magnetization 

 Broyden mixing:
  rms(total) = 0.16873E-01    rms(broyden)= 0.16860E-01
  rms(prec ) = 0.17560E-01
  weight for this iteration     100.00

 eigenvalues of (default mixing * dielectric matrix)
  average eigenvalue GAMMA=   1.5887
  2.2526  1.6119  1.6119  0.8783

 Free energy of the ion-electron system (eV)
  ---------------------------------------------------
  alpha Z        PSCENC =      7508.67029722
  Ewald energy   TEWEN  =   -135480.81405450
  -Hartree energ DENC   =    -26896.99696930
  -exchange      EXHF   =         0.00000000
  -V(xc)+E(xc)   XCENC  =      6305.27823439
  PAW double counting   =    189395.12065443  -186798.25494119
  entropy T*S    EENTRO =        -0.07227933
  eigenvalues    EBANDS =    -19486.31633718
  atomic energy  EATOM  =    164377.91643804
  Solvation  Ediel_sol  =         0.00000000
  ---------------------------------------------------
  free energy    TOTEN  =     -1075.46895742 eV

  energy without entropy =    -1075.39667810  energy(sigma->0) =    -1075.44486431


--------------------------------------------------------------------------------------------------------




--------------------------------------- Iteration      4(   6)  ---------------------------------------


    POTLOK:  cpu time      0.0361: real time      0.0128
    SETDIJ:  cpu time      0.0924: real time      0.0062
     EDDAV:  cpu time      3.3216: real time      3.2688
       DOS:  cpu time      0.0014: real time      0.0014
    CHARGE:  cpu time      0.4494: real time      0.3021
    MIXING:  cpu time      0.0541: real time      0.0046
    --------------------------------------------
      LOOP:  cpu time      3.9549: real time      3.5959

 eigenvalue-minimisations  :  8384
 total energy-change (2. order) :-0.2405438E-03  (-0.6309145E-04)
 number of electron    1535.9999970 magnetization 
 augmentation part       21.8835275 magnetization 

 Broyden mixing:
  rms(total) = 0.27490E-02    rms(broyden)= 0.27434E-02
  rms(prec ) = 0.29120E-02
  weight for this iteration     100.00

 eigenvalues of (default mixing * dielectric matrix)
  average eigenvalue GAMMA=   1.6031
  2.1291  2.1291  1.6470  1.0552  1.0552

 Free energy of the ion-electron system (eV)
  ---------------------------------------------------
  alpha Z        PSCENC =      7508.67029722
  Ewald energy   TEWEN  =   -135480.81405450
  -Hartree energ DENC   =    -26900.65505315
  -exchange      EXHF   =         0.00000000
  -V(xc)+E(xc)   XCENC  =      6305.46145196
  PAW double counting   =    189376.42964624  -186777.16156230
  entropy T*S    EENTRO =        -0.07247102
  eigenvalues    EBANDS =    -19485.24389046
  atomic energy  EATOM  =    164377.91643804
  Solvation  Ediel_sol  =         0.00000000
  ---------------------------------------------------
  free energy    TOTEN  =     -1075.46919797 eV

  energy without entropy =    -1075.39672695  energy(sigma->0) =    -1075.44504096


--------------------------------------------------------------------------------------------------------




--------------------------------------- Iteration      4(   7)  ---------------------------------------


    POTLOK:  cpu time      0.0398: real time      0.0152
    SETDIJ:  cpu time      0.0912: real time      0.0060
     EDDAV:  cpu time      3.4728: real time      3.4192
       DOS:  cpu time      0.0013: real time      0.0013
    CHARGE:  cpu time      0.4543: real time      0.3032
    MIXING:  cpu time      0.0601: real time      0.0048
    --------------------------------------------
      LOOP:  cpu time      4.1196: real time      3.7499

 eigenvalue-minimisations  :  8880
 total energy-change (2. order) :-0.2280265E-04  (-0.2686678E-05)
 number of electron    1535.9999969 magnetization 
 augmentation part       21.8854269 magnetization 

 Broyden mixing:
  rms(total) = 0.76378E-03    rms(broyden)= 0.76249E-03
  rms(prec ) = 0.81500E-03
  weight for this iteration     100.00

 eigenvalues of (default mixing * dielectric matrix)
  average eigenvalue GAMMA=   1.5248
  2.1869  2.1869  1.7899  1.1300  1.1300  0.7249

 Free energy of the ion-electron system (eV)
  ---------------------------------------------------
  alpha Z        PSCENC =      7508.67029722
  Ewald energy   TEWEN  =   -135480.81405450
  -Hartree energ DENC   =    -26901.16550569
  -exchange      EXHF   =         0.00000000
  -V(xc)+E(xc)   XCENC  =      6305.48591013
  PAW double counting   =    189385.57246088  -186785.86677869
  entropy T*S    EENTRO =        -0.07248065
  eigenvalues    EBANDS =    -19485.19550752
  atomic energy  EATOM  =    164377.91643804
  Solvation  Ediel_sol  =         0.00000000
  ---------------------------------------------------
  free energy    TOTEN  =     -1075.46922077 eV

  energy without entropy =    -1075.39674012  energy(sigma->0) =    -1075.44506055


--------------------------------------------------------------------------------------------------------




--------------------------------------- Iteration      4(   8)  ---------------------------------------


    POTLOK:  cpu time      0.0382: real time      0.0118
    SETDIJ:  cpu time      0.0908: real time      0.0057
     EDDAV:  cpu time      2.0076: real time      1.9633
       DOS:  cpu time      0.0013: real time      0.0013
    CHARGE:  cpu time      0.4543: real time      0.3024
    MIXING:  cpu time      0.0622: real time      0.0051
    --------------------------------------------
      LOOP:  cpu time      2.6545: real time      2.2897

 eigenvalue-minimisations  :  3904
 total energy-change (2. order) :-0.5263995E-05  (-0.5745059E-07)
 number of electron    1535.9999969 magnetization 
 augmentation part       21.8852968 magnetization 

 Broyden mixing:
  rms(total) = 0.47902E-03    rms(broyden)= 0.47892E-03
  rms(prec ) = 0.50264E-03
  weight for this iteration     100.00

 eigenvalues of (default mixing * dielectric matrix)
  average eigenvalue GAMMA=   1.6385
  2.4535  2.4535  2.0143  1.5089  0.9408  1.0275  1.0711

 Free energy of the ion-electron system (eV)
  ---------------------------------------------------
  alpha Z        PSCENC =      7508.67029722
  Ewald energy   TEWEN  =   -135480.81405450
  -Hartree energ DENC   =    -26901.29250741
  -exchange      EXHF   =         0.00000000
  -V(xc)+E(xc)   XCENC  =      6305.49206780
  PAW double counting   =    189388.41583831  -186788.60675057
  entropy T*S    EENTRO =        -0.07248546
  eigenvalues    EBANDS =    -19485.17806947
  atomic energy  EATOM  =    164377.91643804
  Solvation  Ediel_sol  =         0.00000000
  ---------------------------------------------------
  free energy    TOTEN  =     -1075.46922603 eV

  energy without entropy =    -1075.39674058  energy(sigma->0) =    -1075.44506422


--------------------------------------------------------------------------------------------------------




--------------------------------------- Iteration      4(   9)  ---------------------------------------


    POTLOK:  cpu time      0.0357: real time      0.0457
    SETDIJ:  cpu time      0.0908: real time      0.0060
     EDDAV:  cpu time      1.9749: real time      1.9309
       DOS:  cpu time      0.0014: real time      0.0014
    CHARGE:  cpu time      0.4543: real time      0.3033
    MIXING:  cpu time      0.0625: real time      0.0054
    --------------------------------------------
      LOOP:  cpu time      2.6195: real time      2.2927

 eigenvalue-minimisations  :  3812
 total energy-change (2. order) :-0.6381379E-05  (-0.5605152E-07)
 number of electron    1535.9999969 magnetization 
 augmentation part       21.8846377 magnetization 

 Broyden mixing:
  rms(total) = 0.63929E-04    rms(broyden)= 0.63814E-04
  rms(prec ) = 0.67134E-04
  weight for this iteration     100.00

 eigenvalues of (default mixing * dielectric matrix)
  average eigenvalue GAMMA=   1.6120
  2.4370  2.3554  2.3554  1.5119  1.3408  1.0074  1.0074  0.8804

 Free energy of the ion-electron system (eV)
  ---------------------------------------------------
  alpha Z        PSCENC =      7508.67029722
  Ewald energy   TEWEN  =   -135480.81405450
  -Hartree energ DENC   =    -26901.45381284
  -exchange      EXHF   =         0.00000000
  -V(xc)+E(xc)   XCENC  =      6305.50026873
  PAW double counting   =    189388.66138868  -186788.76821120
  entropy T*S    EENTRO =        -0.07249703
  eigenvalues    EBANDS =    -19485.10904951
  atomic energy  EATOM  =    164377.91643804
  Solvation  Ediel_sol  =         0.00000000
  ---------------------------------------------------
  free energy    TOTEN  =     -1075.46923242 eV

  energy without entropy =    -1075.39673538  energy(sigma->0) =    -1075.44506674


--------------------------------------------------------------------------------------------------------




--------------------------------------- Iteration      4(  10)  ---------------------------------------


    POTLOK:  cpu time      0.0384: real time      0.0133
    SETDIJ:  cpu time      0.0934: real time      0.0059
     EDDAV:  cpu time      1.9759: real time      1.9318
       DOS:  cpu time      0.0014: real time      0.0014
    --------------------------------------------
      LOOP:  cpu time      2.1092: real time      1.9527

 eigenvalue-minimisations  :  3804
 total energy-change (2. order) : 0.5113689E-06  (-0.1104483E-07)
 number of electron    1535.9999969 magnetization 
 augmentation part       21.8846377 magnetization 

 Free energy of the ion-electron system (eV)
  ---------------------------------------------------
  alpha Z        PSCENC =      7508.67029722
  Ewald energy   TEWEN  =   -135480.81405450
  -Hartree energ DENC   =    -26901.44321166
  -exchange      EXHF   =         0.00000000
  -V(xc)+E(xc)   XCENC  =      6305.49980422
  PAW double counting   =    189388.35338793  -186788.47505596
  entropy T*S    EENTRO =        -0.07249776
  eigenvalues    EBANDS =    -19485.10433945
  atomic energy  EATOM  =    164377.91643804
  Solvation  Ediel_sol  =         0.00000000
  ---------------------------------------------------
  free energy    TOTEN  =     -1075.46923190 eV

  energy without entropy =    -1075.39673415  energy(sigma->0) =    -1075.44506599


--------------------------------------------------------------------------------------------------------




 average (electrostatic) potential at core
  the test charge radii are     1.0638
  (the norm of the test charge is              1.0000)
       1 -74.1309       2 -74.1309       3 -74.1307       4 -74.1308       5 -74.1305
       6 -74.1306       7 -74.1307       8 -74.1308       9 -74.1307      10 -74.1308
      11 -74.1306      12 -74.1307      13 -74.1307      14 -74.1307      15 -74.1308
      16 -74.1309      17 -74.1306      18 -74.1309      19 -74.1309      20 -74.1308
      21 -74.1307      22 -74.1306      23 -74.1306      24 -74.1306      25 -74.1305
      26 -74.1306      27 -74.1305      28 -74.1306      29 -74.1306      30 -74.1309
      31 -74.1308      32 -74.1306      33 -74.1309      34 -74.1306      35 -74.1306
      36 -74.1307      37 -74.1307      38 -74.1307      39 -74.1308      40 -74.1308
      41 -74.1308      42 -74.1305      43 -74.1307      44 -74.1306      45 -74.1308
      46 -74.1306      47 -74.1307      48 -74.1306      49 -74.1306      50 -74.1307
      51 -74.1306      52 -74.1309      53 -74.1309      54 -74.1308      55 -74.1308
      56 -74.1306      57 -74.1307      58 -74.1308      59 -74.1307      60 -74.1307
      61 -74.1307      62 -74.1306      63 -74.1308      64 -74.1308      65 -74.1309
      66 -74.1309      67 -74.1306      68 -74.1307      69 -74.1307      70 -74.1305
      71 -74.1307      72 -74.1306      73 -74.1307      74 -74.1306      75 -74.1307
      76 -74.1309      77 -74.1309      78 -74.1306      79 -74.1307      80 -74.1308
      81 -74.1307      82 -74.1309      83 -74.1306      84 -74.1306      85 -74.1306
      86 -74.1307      87 -74.1308      88 -74.1307      89 -74.1308      90 -74.1306
      91 -74.1308      92 -74.1308      93 -74.1308      94 -74.1305      95 -74.1306
      96 -74.1307      97 -74.1307      98 -74.1309      99 -74.1306     100 -74.1306
     101 -74.1307     102 -74.1305     103 -74.1307     104 -74.1309     105 -74.1306
     106 -74.1307     107 -74.1307     108 -74.1308     109 -74.1306     110 -74.1308
     111 -74.1309     112 -74.1308     113 -74.1309     114 -74.1305     115 -74.1309
     116 -74.1307     117 -74.1308     118 -74.1306     119 -74.1309     120 -74.1306
     121 -74.1308     122 -74.1308     123 -74.1307     124 -74.1307     125 -74.1306
     126 -74.1305     127 -74.1306     128 -74.1307
 
 
 
 E-fermi :   9.0326     XC(G=0): -11.2010     alpha+bet :-16.3834

 val. band max:        8.9980319539   @ k =   0.5000   0.0000   0.0000
 cond. band min:       9.0396307298   @ k =   0.5000   0.5000   0.5000
 fundamental gap:      0.0415987758
 Fermi energy:         9.0326152727

 k-point     1 :       0.0000    0.0000    0.0000
  band No.  band energies     occupation 
      1     -39.3929      2.00000
      2     -39.3457      2.00000
      3     -39.3457      2.00000
      4     -39.3456      2.00000
      5     -39.3456      2.00000
      6     -39.3456      2.00000
      7     -39.3456      2.00000
      8     -39.3095      2.00000
      9     -39.3095      2.00000
     10     -39.3095      2.00000
     11     -39.3095      2.00000
     12     -39.3095      2.00000
     13     -39.3095      2.00000
     14     -39.3095      2.00000
     15     -39.3095      2.00000
     16     -39.3095      2.00000
     17     -39.3095      2.00000
     18     -39.3095      2.00000
     19     -39.3095      2.00000
     20     -39.2816      2.00000
     21     -39.2816      2.00000
     22     -39.2816      2.00000
     23     -39.2816      2.00000
     24     -39.2816      2.00000
     25     -39.2816      2.00000
     26     -39.2816      2.00000
     27     -39.2816      2.00000
     28     -39.2373      2.00000
     29     -39.2373      2.00000
     30     -39.2373      2.00000
     31     -39.2373      2.00000
     32     -39.2373      2.00000
     33     -39.2373      2.00000
     34     -39.2304      2.00000
     35     -39.2304      2.00000
     36     -39.2304      2.00000
     37     -39.2304      2.00000
     38     -39.2304      2.00000
     39     -39.2304      2.00000
     40     -39.2304      2.00000
     41     -39.2304      2.00000
     42     -39.2304      2.00000
     43     -39.2304      2.00000
     44     -39.2304      2.00000
     45     -39.2304      2.00000
     46     -39.2304      2.00000
     47     -39.2304      2.00000
     48     -39.2304      2.00000
     49     -39.2304      2.00000
     50     -39.2304      2.00000
     51     -39.2304      2.00000
     52     -39.2304      2.00000
     53     -39.2304      2.00000
     54     -39.2304      2.00000
     55     -39.2304      2.00000
     56     -39.2304      2.00000
     57     -39.2304      2.00000
     58     -39.2238      2.00000
     59     -39.2238      2.00000
     60     -39.2238      2.00000
     61     -39.2238      2.00000
     62     -39.2238      2.00000
     63     -39.2238      2.00000
     64     -39.2238      2.00000
     65     -39.2238      2.00000
     66     -39.2238      2.00000
     67     -39.2238      2.00000
     68     -39.2238      2.00000
     69     -39.2238      2.00000
     70     -39.2238      2.00000
     71     -39.2238      2.00000
     72     -39.2238      2.00000
     73     -39.2238      2.00000
     74     -39.2238      2.00000
     75     -39.2238      2.00000
     76     -39.2238      2.00000
     77     -39.2238      2.00000
     78     -39.2238      2.00000
     79     -39.2238      2.00000
     80     -39.2238      2.00000
     81     -39.2238      2.00000
     82     -39.2237      2.00000
     83     -39.2237      2.00000
     84     -39.2237      2.00000
     85     -39.2237      2.00000
     86     -39.2237      2.00000
     87     -39.2237      2.00000
     88     -39.2172      2.00000
     89     -39.2172      2.00000
     90     -39.2172      2.00000
     91     -39.2172      2.00000
     92     -39.2172      2.00000
     93     -39.2172      2.00000
     94     -39.2172      2.00000
     95     -39.2172      2.00000
     96     -39.2172      2.00000
     97     -39.2172      2.00000
     98     -39.2172      2.00000
     99     -39.2171      2.00000
    100     -39.2106      2.00000
    101     -39.2106      2.00000
    102     -39.1786      2.00000
    103     -39.1786      2.00000
    104     -39.1786      2.00000
    105     -39.1786      2.00000
    106     -39.1786      2.00000
    107     -39.1786      2.00000
    108     -39.1786      2.00000
    109     -39.1786      2.00000
    110     -39.1640      2.00000
    111     -39.1639      2.00000
    112     -39.1639      2.00000
    113     -39.1639      2.00000
    114     -39.1639      2.00000
    115     -39.1639      2.00000
    116     -39.1639      2.00000
    117     -39.1639      2.00000
    118     -39.1639      2.00000
    119     -39.1639      2.00000
    120     -39.1639      2.00000
    121     -39.1639      2.00000
    122     -39.1402      2.00000
    123     -39.1401      2.00000
    124     -39.1401      2.00000
    125     -39.1401      2.00000
    126     -39.1401      2.00000
    127     -39.1401      2.00000
    128     -39.1036      2.00000
    129     -17.9333      2.00000
    130     -17.9333      2.00000
    131     -17.9333      2.00000
    132     -17.9333      2.00000
    133     -17.9333      2.00000
    134     -17.9333      2.00000
    135     -17.7815      2.00000
    136     -17.7815      2.00000
    137     -17.7815      2.00000
    138     -17.7815      2.00000
    139     -17.7815      2.00000
    140     -17.7815      2.00000
    141     -17.7815      2.00000
    142     -17.7815      2.00000
    143     -17.7815      2.00000
    144     -17.7815      2.00000
    145     -17.7815      2.00000
    146     -17.7815      2.00000
    147     -17.7703      2.00000
    148     -17.7703      2.00000
    149     -17.7703      2.00000
    150     -17.7703      2.00000
    151     -17.7703      2.00000
    152     -17.7703      2.00000
    153     -17.7703      2.00000
    154     -17.7703      2.00000
    155     -17.7703      2.00000
    156     -17.7703      2.00000
    157     -17.7703      2.00000
    158     -17.7703      2.00000
    159     -17.7509      2.00000
    160     -17.7509      2.00000
    161     -17.7509      2.00000
    162     -17.7509      2.00000
    163     -17.7509      2.00000
    164     -17.7509      2.00000
    165     -17.7509      2.00000
    166     -17.7509      2.00000
    167     -17.7509      2.00000
    168     -17.7509      2.00000
    169     -17.7509      2.00000
    170     -17.7509      2.00000
    171     -17.7509      2.00000
    172     -17.7509      2.00000
    173     -17.7509      2.00000
    174     -17.7509      2.00000
    175     -17.7509      2.00000
    176     -17.7509      2.00000
    177     -17.7509      2.00000
    178     -17.7509      2.00000
    179     -17.7509      2.00000
    180     -17.7509      2.00000
    181     -17.7509      2.00000
    182     -17.7509      2.00000
    183     -17.7425      2.00000
    184     -17.7425      2.00000
    185     -17.7425      2.00000
    186     -17.7425      2.00000
    187     -17.7425      2.00000
    188     -17.7425      2.00000
    189     -17.7425      2.00000
    190     -17.7425      2.00000
    191     -17.7425      2.00000
    192     -17.7425      2.00000
    193     -17.7425      2.00000
    194     -17.7425      2.00000
    195     -17.7425      2.00000
    196     -17.7425      2.00000
    197     -17.7424      2.00000
    198     -17.7424      2.00000
    199     -17.7424      2.00000
    200     -17.7424      2.00000
    201     -17.7424      2.00000
    202     -17.7424      2.00000
    203     -17.7424      2.00000
    204     -17.7424      2.00000
    205     -17.7424      2.00000
    206     -17.7424      2.00000
    207     -17.6386      2.00000
    208     -17.6386      2.00000
    209     -17.6386      2.00000
    210     -17.6386      2.00000
    211     -17.6386      2.00000
    212     -17.6386      2.00000
    213     -17.6386      2.00000
    214     -17.6386      2.00000
    215     -17.6386      2.00000
    216     -17.6386      2.00000
    217     -17.6386      2.00000
    218     -17.6386      2.00000
    219     -17.6386      2.00000
    220     -17.6386      2.00000
    221     -17.6386      2.00000
    222     -17.6386      2.00000
    223     -17.6011      2.00000
    224     -17.6010      2.00000
    225     -17.6010      2.00000
    226     -17.5972      2.00000
    227     -17.5972      2.00000
    228     -17.5972      2.00000
    229     -17.5972      2.00000
    230     -17.5972      2.00000
    231     -17.5972      2.00000
    232     -17.5745      2.00000
    233     -17.5745      2.00000
    234     -17.5745      2.00000
    235     -17.5745      2.00000
    236     -17.5745      2.00000
    237     -17.5745      2.00000
    238     -17.5745      2.00000
    239     -17.5745      2.00000
    240     -17.4921      2.00000
    241     -17.4921      2.00000
    242     -17.4921      2.00000
    243     -17.4921      2.00000
    244     -17.4921      2.00000
    245     -17.4921      2.00000
    246     -17.4921      2.00000
    247     -17.4921      2.00000
    248     -17.4921      2.00000
    249     -17.4921      2.00000
    250     -17.4921      2.00000
    251     -17.4921      2.00000
    252     -17.4491      2.00000
    253     -17.4491      2.00000
    254     -17.4491      2.00000
    255     -17.4491      2.00000
    256     -17.4491      2.00000
    257     -17.4491      2.00000
    258     -17.4263      2.00000
    259     -17.4263      2.00000
    260     -17.4263      2.00000
    261     -17.4263      2.00000
    262     -17.4263      2.00000
    263     -17.4263      2.00000
    264     -17.4263      2.00000
    265     -17.4263      2.00000
    266     -17.4263      2.00000
    267     -17.4263      2.00000
    268     -17.4263      2.00000
    269     -17.4263      2.00000
    270     -17.4129      2.00000
    271     -17.4129      2.00000
    272     -17.4129      2.00000
    273     -17.4129      2.00000
    274     -17.4129      2.00000
    275     -17.4129      2.00000
    276     -17.4103      2.00000
    277     -17.4103      2.00000
    278     -17.4103      2.00000
    279     -17.4103      2.00000
    280     -17.4103      2.00000
    281     -17.4103      2.00000
    282     -17.4103      2.00000
    283     -17.4103      2.00000
    284     -17.4103      2.00000
    285     -17.4103      2.00000
    286     -17.4103      2.00000
    287     -17.4103      2.00000
    288     -17.3239      2.00000
    289     -17.3239      2.00000
    290     -17.3239      2.00000
    291     -17.3239      2.00000
    292     -17.3239      2.00000
    293     -17.3239      2.00000
    294     -17.3239      2.00000
    295     -17.3239      2.00000
    296     -17.3239      2.00000
    297     -17.3239      2.00000
    298     -17.3239      2.00000
    299     -17.3239      2.00000
    300     -17.3239      2.00000
    301     -17.3239      2.00000
    302     -17.3239      2.00000
    303     -17.3239      2.00000
    304     -17.3239      2.00000
    305     -17.3239      2.00000
    306     -17.3239      2.00000
    307     -17.3239      2.00000
    308     -17.3239      2.00000
    309     -17.3239      2.00000
    310     -17.3239      2.00000
    311     -17.3239      2.00000
    312     -17.3138      2.00000
    313     -17.3138      2.00000
    314     -17.3138      2.00000
    315     -17.3138      2.00000
    316     -17.3138      2.00000
    317     -17.3138      2.00000
    318     -17.3138      2.00000
    319     -17.3138      2.00000
    320     -17.3138      2.00000
    321     -17.3138      2.00000
    322     -17.3138      2.00000
    323     -17.3137      2.00000
    324     -17.2566      2.00000
    325     -17.2566      2.00000
    326     -17.2566      2.00000
    327     -17.2566      2.00000
    328     -17.2566      2.00000
    329     -17.2566      2.00000
    330     -17.2566      2.00000
    331     -17.2566      2.00000
    332     -17.2566      2.00000
    333     -17.2566      2.00000
    334     -17.2566      2.00000
    335     -17.2566      2.00000
    336     -17.2336      2.00000
    337     -17.2336      2.00000
    338     -17.2336      2.00000
    339     -17.2336      2.00000
    340     -17.2336      2.00000
    341     -17.2336      2.00000
    342     -17.2336      2.00000
    343     -17.2336      2.00000
    344     -17.2336      2.00000
    345     -17.2336      2.00000
    346     -17.2336      2.00000
    347     -17.2336      2.00000
    348     -17.2228      2.00000
    349     -17.2228      2.00000
    350     -17.2228      2.00000
    351     -17.2227      2.00000
    352     -17.2227      2.00000
    353     -17.2227      2.00000
    354     -17.2227      2.00000
    355     -17.2227      2.00000
    356     -17.2227      2.00000
    357     -17.2227      2.00000
    358     -17.2227      2.00000
    359     -17.2227      2.00000
    360     -17.2227      2.00000
    361     -17.2227      2.00000
    362     -17.2227      2.00000
    363     -17.2227      2.00000
    364     -17.2227      2.00000
    365     -17.2227      2.00000
    366     -17.2227      2.00000
    367     -17.2227      2.00000
    368     -17.2227      2.00000
    369     -17.2227      2.00000
    370     -17.2227      2.00000
    371     -17.2227      2.00000
    372     -17.2126      2.00000
    373     -17.2126      2.00000
    374     -17.2126      2.00000
    375     -17.2126      2.00000
    376     -17.2126      2.00000
    377     -17.2126      2.00000
    378     -17.0940      2.00000
    379     -17.0940      2.00000
    380     -17.0940      2.00000
    381     -17.0940      2.00000
    382     -17.0940      2.00000
    383     -17.0940      2.00000
    384     -17.0813      2.00000
    385     -17.0813      2.00000
    386     -17.0813      2.00000
    387     -17.0813      2.00000
    388     -17.0813      2.00000
    389     -17.0813      2.00000
    390     -17.0813      2.00000
    391     -17.0813      2.00000
    392     -17.0497      2.00000
    393     -17.0497      2.00000
    394     -17.0497      2.00000
    395     -17.0497      2.00000
    396     -17.0497      2.00000
    397     -17.0497      2.00000
    398     -17.0497      2.00000
    399     -17.0497      2.00000
    400     -17.0497      2.00000
    401     -17.0497      2.00000
    402     -17.0497      2.00000
    403     -17.0497      2.00000
    404     -17.0433      2.00000
    405     -17.0433      2.00000
    406     -17.0433      2.00000
    407     -17.0433      2.00000
    408     -17.0433      2.00000
    409     -17.0433      2.00000
    410     -17.0433      2.00000
    411     -17.0433      2.00000
    412     -17.0433      2.00000
    413     -17.0433      2.00000
    414     -17.0433      2.00000
    415     -17.0433      2.00000
    416     -17.0121      2.00000
    417     -17.0121      2.00000
    418     -17.0121      2.00000
    419     -17.0121      2.00000
    420     -17.0121      2.00000
    421     -17.0121      2.00000
    422     -17.0121      2.00000
    423     -17.0121      2.00000
    424     -17.0121      2.00000
    425     -17.0121      2.00000
    426     -17.0121      2.00000
    427     -17.0121      2.00000
    428     -17.0121      2.00000
    429     -17.0121      2.00000
    430     -17.0121      2.00000
    431     -17.0121      2.00000
    432     -17.0025      2.00000
    433     -17.0025      2.00000
    434     -17.0025      2.00000
    435     -17.0025      2.00000
    436     -17.0025      2.00000
    437     -17.0025      2.00000
    438     -17.0025      2.00000
    439     -17.0025      2.00000
    440     -17.0025      2.00000
    441     -17.0025      2.00000
    442     -17.0025      2.00000
    443     -17.0025      2.00000
    444     -17.0025      2.00000
    445     -17.0025      2.00000
    446     -17.0025      2.00000
    447     -17.0025      2.00000
    448     -17.0025      2.00000
    449     -17.0025      2.00000
    450     -17.0025      2.00000
    451     -17.0025      2.00000
    452     -17.0025      2.00000
    453     -17.0025      2.00000
    454     -17.0025      2.00000
    455     -17.0025      2.00000
    456     -16.9918      2.00000
    457     -16.9918      2.00000
    458     -16.9918      2.00000
    459     -16.9918      2.00000
    460     -16.9918      2.00000
    461     -16.9918      2.00000
    462     -16.9918      2.00000
    463     -16.9918      2.00000
    464     -16.9918      2.00000
    465     -16.9918      2.00000
    466     -16.9918      2.00000
    467     -16.9918      2.00000
    468     -16.9918      2.00000
    469     -16.9918      2.00000
    470     -16.9918      2.00000
    471     -16.9918      2.00000
    472     -16.9918      2.00000
    473     -16.9918      2.00000
    474     -16.9918      2.00000
    475     -16.9918      2.00000
    476     -16.9918      2.00000
    477     -16.9918      2.00000
    478     -16.9918      2.00000
    479     -16.9918      2.00000
    480     -16.9823      2.00000
    481     -16.9823      2.00000
    482     -16.9823      2.00000
    483     -16.9823      2.00000
    484     -16.9823      2.00000
    485     -16.9823      2.00000
    486     -16.9823      2.00000
    487     -16.9823      2.00000
    488     -16.9823      2.00000
    489     -16.9823      2.00000
    490     -16.9823      2.00000
    491     -16.9823      2.00000
    492     -16.8903      2.00000
    493     -16.8903      2.00000
    494     -16.8903      2.00000
    495     -16.8903      2.00000
    496     -16.8903      2.00000
    497     -16.8903      2.00000
    498     -16.8856      2.00000
    499     -16.8856      2.00000
    500     -16.8856      2.00000
    501     -16.8856      2.00000
    502     -16.8856      2.00000
    503     -16.8856      2.00000
    504     -16.8856      2.00000
    505     -16.8856      2.00000
    506     -16.8856      2.00000
    507     -16.8856      2.00000
    508     -16.8856      2.00000
    509     -16.8856      2.00000
    510     -16.8792      2.00000
    511     -16.8792      2.00000
    512     -16.8792      2.00000
    513       3.6568      2.00000
    514       4.6854      2.00000
    515       4.6854      2.00000
    516       4.6854      2.00000
    517       4.6855      2.00000
    518       4.6855      2.00000
    519       4.6855      2.00000
    520       5.4212      2.00000
    521       5.4212      2.00000
    522       5.4212      2.00000
    523       5.4212      2.00000
    524       5.4213      2.00000
    525       5.4213      2.00000
    526       5.4213      2.00000
    527       5.4213      2.00000
    528       5.4213      2.00000
    529       5.4213      2.00000
    530       5.4213      2.00000
    531       5.4213      2.00000
    532       6.1816      2.00000
    533       6.1816      2.00000
    534       6.1816      2.00000
    535       6.1816      2.00000
    536       6.1816      2.00000
    537       6.1816      2.00000
    538       6.2629      2.00000
    539       6.2629      2.00000
    540       6.2629      2.00000
    541       6.2629      2.00000
    542       6.2629      2.00000
    543       6.2629      2.00000
    544       6.2630      2.00000
    545       6.2630      2.00000
    546       6.3781      2.00000
    547       6.3781      2.00000
    548       6.6169      2.00000
    549       6.6169      2.00000
    550       6.6169      2.00000
    551       6.6169      2.00000
    552       6.6169      2.00000
    553       6.6169      2.00000
    554       6.6169      2.00000
    555       6.6169      2.00000
    556       6.6169      2.00000
    557       6.6169      2.00000
    558       6.6169      2.00000
    559       6.6169      2.00000
    560       6.6169      2.00000
    561       6.6169      2.00000
    562       6.6169      2.00000
    563       6.6169      2.00000
    564       6.6169      2.00000
    565       6.6169      2.00000
    566       6.6169      2.00000
    567       6.6169      2.00000
    568       6.6169      2.00000
    569       6.6169      2.00000
    570       6.6169      2.00000
    571       6.6169      2.00000
    572       6.7945      2.00000
    573       6.7945      2.00000
    574       6.7945      2.00000
    575       6.7945      2.00000
    576       6.7945      2.00000
    577       6.7945      2.00000
    578       6.9836      2.00000
    579       6.9836      2.00000
    580       6.9836      2.00000
    581       6.9836      2.00000
    582       6.9836      2.00000
    583       6.9836      2.00000
    584       7.0643      2.00000
    585       7.0644      2.00000
    586       7.0644      2.00000
    587       7.0644      2.00000
    588       7.0644      2.00000
    589       7.0644      2.00000
    590       7.1361      2.00000
    591       7.1361      2.00000
    592       7.1361      2.00000
    593       7.1361      2.00000
    594       7.1361      2.00000
    595       7.1361      2.00000
    596       7.1361      2.00000
    597       7.1361      2.00000
    598       7.1361      2.00000
    599       7.1361      2.00000
    600       7.1361      2.00000
    601       7.1361      2.00000
    602       7.1903      2.00000
    603       7.1903      2.00000
    604       7.1903      2.00000
    605       7.1903      2.00000
    606       7.1903      2.00000
    607       7.1903      2.00000
    608       7.1903      2.00000
    609       7.1903      2.00000
    610       7.1903      2.00000
    611       7.1903      2.00000
    612       7.1903      2.00000
    613       7.1903      2.00000
    614       7.2405      2.00000
    615       7.2405      2.00000
    616       7.2405      2.00000
    617       7.2405      2.00000
    618       7.2405      2.00000
    619       7.2405      2.00000
    620       7.2405      2.00000
    621       7.2405      2.00000
    622       7.2405      2.00000
    623       7.2405      2.00000
    624       7.2405      2.00000
    625       7.2405      2.00000
    626       7.2405      2.00000
    627       7.2405      2.00000
    628       7.2405      2.00000
    629       7.2405      2.00000
    630       7.2405      2.00000
    631       7.2405      2.00000
    632       7.2405      2.00000
    633       7.2405      2.00000
    634       7.2405      2.00000
    635       7.2405      2.00000
    636       7.2405      2.00000
    637       7.2405      2.00000
    638       7.9165      2.00000
    639       7.9165      2.00000
    640       7.9165      2.00000
    641       7.9165      2.00000
    642       7.9165      2.00000
    643       7.9165      2.00000
    644       7.9165      2.00000
    645       7.9165      2.00000
    646       7.9165      2.00000
    647       7.9165      2.00000
    648       7.9165      2.00000
    649       7.9165      2.00000
    650       8.0857      2.00000
    651       8.0857      2.00000
    652       8.0857      2.00000
    653       8.0857      2.00000
    654       8.0857      2.00000
    655       8.0857      2.00000
    656       8.0857      2.00000
    657       8.0857      2.00000
    658       8.0857      2.00000
    659       8.0857      2.00000
    660       8.0857      2.00000
    661       8.0857      2.00000
    662       8.0857      2.00000
    663       8.0857      2.00000
    664       8.0857      2.00000
    665       8.0857      2.00000
    666       8.1940      2.00000
    667       8.1940      2.00000
    668       8.1940      2.00000
    669       8.1940      2.00000
    670       8.1940      2.00000
    671       8.1940      2.00000
    672       8.1940      2.00000
    673       8.1940      2.00000
    674       8.1940      2.00000
    675       8.1940      2.00000
    676       8.1940      2.00000
    677       8.1940      2.00000
    678       8.3146      2.00000
    679       8.3146      2.00000
    680       8.3146      2.00000
    681       8.3146      2.00000
    682       8.3146      2.00000
    683       8.3146      2.00000
    684       8.3312      2.00001
    685       8.3312      2.00001
    686       8.3312      2.00001
    687       8.3312      2.00001
    688       8.3312      2.00001
    689       8.3312      2.00001
    690       8.3312      2.00001
    691       8.3312      2.00001
    692       8.3312      2.00001
    693       8.3312      2.00001
    694       8.3312      2.00001
    695       8.3312      2.00001
    696       8.3312      2.00001
    697       8.3312      2.00001
    698       8.3312      2.00001
    699       8.3312      2.00001
    700       8.3312      2.00001
    701       8.3312      2.00001
    702       8.3312      2.00001
    703       8.3312      2.00001
    704       8.3312      2.00001
    705       8.3312      2.00001
    706       8.3312      2.00001
    707       8.3312      2.00001
    708       8.4803      2.00066
    709       8.4803      2.00066
    710       8.4803      2.00067
    711       8.4803      2.00067
    712       8.4803      2.00067
    713       8.4803      2.00067
    714       8.4803      2.00067
    715       8.4803      2.00067
    716       8.4959      2.00098
    717       8.4959      2.00098
    718       8.4959      2.00098
    719       8.4959      2.00098
    720       8.4959      2.00098
    721       8.4959      2.00098
    722       8.7173      2.04829
    723       8.7173      2.04829
    724       8.7173      2.04829
    725       8.7173      2.04829
    726       8.7173      2.04829
    727       8.7173      2.04829
    728       8.7211      2.05004
    729       8.7211      2.05004
    730       8.7211      2.05004
    731       8.7211      2.05004
    732       8.7211      2.05004
    733       8.7211      2.05004
    734       8.7211      2.05004
    735       8.7211      2.05004
    736       8.7211      2.05005
    737       8.7211      2.05005
    738       8.7211      2.05005
    739       8.7211      2.05005
    740       8.7211      2.05005
    741       8.7211      2.05005
    742       8.7211      2.05005
    743       8.7211      2.05005
    744       9.0635      0.74218
    745       9.0635      0.74217
    746       9.0635      0.74216
    747       9.0635      0.74214
    748       9.0635      0.74212
    749       9.0635      0.74212
    750       9.0635      0.74211
    751       9.0635      0.74210
    752       9.0635      0.74208
    753       9.0635      0.74208
    754       9.0635      0.74207
    755       9.0635      0.74206
    756       9.0635      0.74205
    757       9.0635      0.74204
    758       9.0635      0.74203
    759       9.0635      0.74201
    760       9.0635      0.74201
    761       9.0635      0.74200
    762       9.0635      0.74199
    763       9.0635      0.74198
    764       9.0635      0.74197
    765       9.0635      0.74197
    766       9.0635      0.74194
    767       9.0635      0.74193
    768       9.0768      0.63603
    769       9.0768      0.63602
    770       9.0768      0.63600
    771       9.0768      0.63600
    772       9.0768      0.63599
    773       9.0768      0.63599
    774       9.0768      0.63598
    775       9.0768      0.63598
    776       9.0768      0.63598
    777       9.0768      0.63597
    778       9.0768      0.63596
    779       9.0768      0.63595
    780       9.0768      0.63594
    781       9.0768      0.63593
    782       9.0768      0.63592
    783       9.0768      0.63592
    784       9.0768      0.63592
    785       9.0768      0.63591
    786       9.0768      0.63589
    787       9.0768      0.63589
    788       9.0768      0.63589
    789       9.0768      0.63589
    790       9.0768      0.63587
    791       9.0768      0.63586
    792       9.1103      0.39438
    793       9.1103      0.39437
    794       9.1103      0.39436
    795       9.1103      0.39436
    796       9.1103      0.39434
    797       9.1103      0.39434
    798       9.1103      0.39433
    799       9.1103      0.39433
    800       9.1103      0.39432
    801       9.1103      0.39432
    802       9.1103      0.39431
    803       9.1103      0.39431
    804       9.1103      0.39430
    805       9.1103      0.39429
    806       9.1103      0.39429
    807       9.1103      0.39429
    808       9.1103      0.39428
    809       9.1103      0.39427
    810       9.1103      0.39426
    811       9.1103      0.39426
    812       9.1103      0.39425
    813       9.1103      0.39424
    814       9.1103      0.39424
    815       9.1103      0.39423
    816       9.1155      0.36099
    817       9.1155      0.36098
    818       9.1155      0.36097
    819       9.1155      0.36097
    820       9.1155      0.36096
    821       9.1155      0.36095
    822       9.1155      0.36094
    823       9.1155      0.36094
    824       9.1155      0.36093
    825       9.1155      0.36093
    826       9.1155      0.36091
    827       9.1155      0.36091
    828       9.4585     -0.01030
    829       9.4585     -0.01030
    830       9.4585     -0.01030
    831       9.4585     -0.01030
    832       9.4585     -0.01030
    833       9.4585     -0.01030
    834       9.4585     -0.01030
    835       9.4585     -0.01030
    836       9.4585     -0.01030
    837       9.4585     -0.01030
    838       9.4585     -0.01030
    839       9.4585     -0.01030
    840       9.6910     -0.00003
    841       9.6910     -0.00003
    842       9.6910     -0.00003
    843       9.6910     -0.00003
    844       9.6910     -0.00003
    845       9.6910     -0.00003
    846       9.6910     -0.00003
    847       9.6910     -0.00003
    848       9.6910     -0.00003
    849       9.6910     -0.00003
    850       9.6910     -0.00003
    851       9.6910     -0.00003
    852      10.0660     -0.00000
    853      10.0660     -0.00000
    854      10.0660     -0.00000
    855      10.0660     -0.00000
    856      10.0660     -0.00000
    857      10.0660     -0.00000
    858      10.0660     -0.00000
    859      10.0660     -0.00000
    860      10.0660     -0.00000
    861      10.0660     -0.00000
    862      10.0660     -0.00000
    863      10.0660     -0.00000
    864      10.1639     -0.00000
    865      10.1639     -0.00000
    866      10.1639     -0.00000
    867      10.4256     -0.00000
    868      10.4256     -0.00000
    869      10.4256     -0.00000
    870      10.4256     -0.00000
    871      10.4256     -0.00000
    872      10.4256     -0.00000
    873      10.4256     -0.00000
    874      10.4256     -0.00000
    875      10.4256     -0.00000
    876      10.4256     -0.00000
    877      10.4256     -0.00000
    878      10.4256     -0.00000
    879      10.5364     -0.00000
    880      10.5364     -0.00000
    881      10.5364     -0.00000
    882      10.5364     -0.00000
    883      10.5364     -0.00000
    884      10.5364     -0.00000
    885      10.5364     -0.00000
    886      10.5364     -0.00000
    887      10.5364     -0.00000
    888      10.5364     -0.00000
    889      10.5364     -0.00000
    890      10.5364     -0.00000
    891      10.6663     -0.00000
    892      10.6663     -0.00000
    893      10.6663     -0.00000
    894      10.6663     -0.00000
    895      10.6663     -0.00000
    896      10.6663     -0.00000
    897      10.7355     -0.00000
    898      10.7355     -0.00000
    899      10.7355     -0.00000
    900      10.7355     -0.00000
    901      10.7355     -0.00000
    902      10.7355     -0.00000
    903      11.0893     -0.00000
    904      11.0893     -0.00000
    905      11.0893     -0.00000
    906      11.0893     -0.00000
    907      11.0893     -0.00000
    908      11.0893     -0.00000
    909      11.0893     -0.00000
    910      11.0893     -0.00000
    911      11.0893     -0.00000
    912      11.0893     -0.00000
    913      11.0893     -0.00000
    914      11.0893     -0.00000
    915      11.1716     -0.00000
    916      11.1716     -0.00000
    917      11.1716     -0.00000
    918      11.1716     -0.00000
    919      11.1716     -0.00000
    920      11.1716     -0.00000
    921      11.7202     -0.00000
    922      11.7202     -0.00000
    923      11.7202     -0.00000
    924      11.7202     -0.00000

 k-point     2 :       0.5000    0.0000    0.0000
  band No.  band energies     occupation 
      1     -39.3808      2.00000
      2     -39.3807      2.00000
      3     -39.3361      2.00000
      4     -39.3361      2.00000
      5     -39.3361      2.00000
      6     -39.3361      2.00000
      7     -39.3360      2.00000
      8     -39.3360      2.00000
      9     -39.3360      2.00000
     10     -39.3360      2.00000
     11     -39.3021      2.00000
     12     -39.3021      2.00000
     13     -39.3021      2.00000
     14     -39.3021      2.00000
     15     -39.3020      2.00000
     16     -39.3020      2.00000
     17     -39.3020      2.00000
     18     -39.3020      2.00000
     19     -39.2946      2.00000
     20     -39.2946      2.00000
     21     -39.2717      2.00000
     22     -39.2717      2.00000
     23     -39.2717      2.00000
     24     -39.2717      2.00000
     25     -39.2717      2.00000
     26     -39.2717      2.00000
     27     -39.2716      2.00000
     28     -39.2716      2.00000
     29     -39.2535      2.00000
     30     -39.2535      2.00000
     31     -39.2535      2.00000
     32     -39.2535      2.00000
     33     -39.2535      2.00000
     34     -39.2535      2.00000
     35     -39.2535      2.00000
     36     -39.2535      2.00000
     37     -39.2352      2.00000
     38     -39.2352      2.00000
     39     -39.2352      2.00000
     40     -39.2352      2.00000
     41     -39.2351      2.00000
     42     -39.2351      2.00000
     43     -39.2351      2.00000
     44     -39.2351      2.00000
     45     -39.2286      2.00000
     46     -39.2286      2.00000
     47     -39.2286      2.00000
     48     -39.2286      2.00000
     49     -39.2286      2.00000
     50     -39.2286      2.00000
     51     -39.2286      2.00000
     52     -39.2286      2.00000
     53     -39.2285      2.00000
     54     -39.2285      2.00000
     55     -39.2285      2.00000
     56     -39.2285      2.00000
     57     -39.2285      2.00000
     58     -39.2285      2.00000
     59     -39.2285      2.00000
     60     -39.2285      2.00000
     61     -39.2258      2.00000
     62     -39.2258      2.00000
     63     -39.2258      2.00000
     64     -39.2258      2.00000
     65     -39.2256      2.00000
     66     -39.2256      2.00000
     67     -39.2256      2.00000
     68     -39.2256      2.00000
     69     -39.2218      2.00000
     70     -39.2218      2.00000
     71     -39.2216      2.00000
     72     -39.2216      2.00000
     73     -39.2192      2.00000
     74     -39.2191      2.00000
     75     -39.2191      2.00000
     76     -39.2191      2.00000
     77     -39.2191      2.00000
     78     -39.2191      2.00000
     79     -39.2191      2.00000
     80     -39.2191      2.00000
     81     -39.2190      2.00000
     82     -39.2190      2.00000
     83     -39.2190      2.00000
     84     -39.2190      2.00000
     85     -39.2190      2.00000
     86     -39.2190      2.00000
     87     -39.2190      2.00000
     88     -39.2190      2.00000
     89     -39.2126      2.00000
     90     -39.2126      2.00000
     91     -39.2125      2.00000
     92     -39.2125      2.00000
     93     -39.1978      2.00000
     94     -39.1978      2.00000
     95     -39.1978      2.00000
     96     -39.1978      2.00000
     97     -39.1978      2.00000
     98     -39.1978      2.00000
     99     -39.1978      2.00000
    100     -39.1978      2.00000
    101     -39.1929      2.00000
    102     -39.1929      2.00000
    103     -39.1929      2.00000
    104     -39.1929      2.00000
    105     -39.1929      2.00000
    106     -39.1929      2.00000
    107     -39.1929      2.00000
    108     -39.1929      2.00000
    109     -39.1832      2.00000
    110     -39.1832      2.00000
    111     -39.1677      2.00000
    112     -39.1677      2.00000
    113     -39.1677      2.00000
    114     -39.1677      2.00000
    115     -39.1676      2.00000
    116     -39.1676      2.00000
    117     -39.1676      2.00000
    118     -39.1676      2.00000
    119     -39.1461      2.00000
    120     -39.1461      2.00000
    121     -39.1460      2.00000
    122     -39.1460      2.00000
    123     -39.1459      2.00000
    124     -39.1459      2.00000
    125     -39.1459      2.00000
    126     -39.1459      2.00000
    127     -39.1127      2.00000
    128     -39.1126      2.00000
    129     -17.8939      2.00000
    130     -17.8939      2.00000
    131     -17.8938      2.00000
    132     -17.8938      2.00000
    133     -17.8846      2.00000
    134     -17.8846      2.00000
    135     -17.8846      2.00000
    136     -17.8846      2.00000
    137     -17.8844      2.00000
    138     -17.8844      2.00000
    139     -17.8844      2.00000
    140     -17.8844      2.00000
    141     -17.8014      2.00000
    142     -17.8014      2.00000
    143     -17.8014      2.00000
    144     -17.8014      2.00000
    145     -17.8014      2.00000
    146     -17.8014      2.00000
    147     -17.8014      2.00000
    148     -17.8014      2.00000
    149     -17.7652      2.00000
    150     -17.7652      2.00000
    151     -17.7652      2.00000
    152     -17.7652      2.00000
    153     -17.7652      2.00000
    154     -17.7652      2.00000
    155     -17.7652      2.00000
    156     -17.7652      2.00000
    157     -17.7651      2.00000
    158     -17.7651      2.00000
    159     -17.7651      2.00000
    160     -17.7651      2.00000
    161     -17.7651      2.00000
    162     -17.7651      2.00000
    163     -17.7651      2.00000
    164     -17.7651      2.00000
    165     -17.7448      2.00000
    166     -17.7448      2.00000
    167     -17.7448      2.00000
    168     -17.7447      2.00000
    169     -17.7447      2.00000
    170     -17.7447      2.00000
    171     -17.7447      2.00000
    172     -17.7447      2.00000
    173     -17.7446      2.00000
    174     -17.7446      2.00000
    175     -17.7446      2.00000
    176     -17.7446      2.00000
    177     -17.7446      2.00000
    178     -17.7446      2.00000
    179     -17.7446      2.00000
    180     -17.7446      2.00000
    181     -17.7363      2.00000
    182     -17.7363      2.00000
    183     -17.7363      2.00000
    184     -17.7363      2.00000
    185     -17.7362      2.00000
    186     -17.7362      2.00000
    187     -17.7362      2.00000
    188     -17.7362      2.00000
    189     -17.7273      2.00000
    190     -17.7273      2.00000
    191     -17.7273      2.00000
    192     -17.7273      2.00000
    193     -17.7273      2.00000
    194     -17.7273      2.00000
    195     -17.7273      2.00000
    196     -17.7273      2.00000
    197     -17.6821      2.00000
    198     -17.6821      2.00000
    199     -17.6821      2.00000
    200     -17.6821      2.00000
    201     -17.6821      2.00000
    202     -17.6821      2.00000
    203     -17.6821      2.00000
    204     -17.6821      2.00000
    205     -17.6813      2.00000
    206     -17.6813      2.00000
    207     -17.6813      2.00000
    208     -17.6813      2.00000
    209     -17.6812      2.00000
    210     -17.6812      2.00000
    211     -17.6812      2.00000
    212     -17.6812      2.00000
    213     -17.6177      2.00000
    214     -17.6177      2.00000
    215     -17.6177      2.00000
    216     -17.6177      2.00000
    217     -17.6177      2.00000
    218     -17.6177      2.00000
    219     -17.6177      2.00000
    220     -17.6177      2.00000
    221     -17.6129      2.00000
    222     -17.6129      2.00000
    223     -17.6129      2.00000
    224     -17.6129      2.00000
    225     -17.6027      2.00000
    226     -17.6026      2.00000
    227     -17.5726      2.00000
    228     -17.5726      2.00000
    229     -17.5726      2.00000
    230     -17.5726      2.00000
    231     -17.5726      2.00000
    232     -17.5726      2.00000
    233     -17.5726      2.00000
    234     -17.5726      2.00000
    235     -17.5724      2.00000
    236     -17.5724      2.00000
    237     -17.5723      2.00000
    238     -17.5723      2.00000
    239     -17.5538      2.00000
    240     -17.5538      2.00000
    241     -17.5069      2.00000
    242     -17.5069      2.00000
    243     -17.5069      2.00000
    244     -17.5069      2.00000
    245     -17.5068      2.00000
    246     -17.5068      2.00000
    247     -17.5068      2.00000
    248     -17.5068      2.00000
    249     -17.4940      2.00000
    250     -17.4940      2.00000
    251     -17.4940      2.00000
    252     -17.4940      2.00000
    253     -17.4940      2.00000
    254     -17.4940      2.00000
    255     -17.4940      2.00000
    256     -17.4940      2.00000
    257     -17.4708      2.00000
    258     -17.4708      2.00000
    259     -17.4708      2.00000
    260     -17.4708      2.00000
    261     -17.4707      2.00000
    262     -17.4707      2.00000
    263     -17.4707      2.00000
    264     -17.4707      2.00000
    265     -17.4704      2.00000
    266     -17.4704      2.00000
    267     -17.4704      2.00000
    268     -17.4704      2.00000
    269     -17.4703      2.00000
    270     -17.4702      2.00000
    271     -17.4702      2.00000
    272     -17.4702      2.00000
    273     -17.3943      2.00000
    274     -17.3943      2.00000
    275     -17.3943      2.00000
    276     -17.3943      2.00000
    277     -17.3942      2.00000
    278     -17.3942      2.00000
    279     -17.3942      2.00000
    280     -17.3942      2.00000
    281     -17.3844      2.00000
    282     -17.3844      2.00000
    283     -17.3843      2.00000
    284     -17.3843      2.00000
    285     -17.3726      2.00000
    286     -17.3726      2.00000
    287     -17.3726      2.00000
    288     -17.3726      2.00000
    289     -17.3287      2.00000
    290     -17.3287      2.00000
    291     -17.3287      2.00000
    292     -17.3287      2.00000
    293     -17.3287      2.00000
    294     -17.3286      2.00000
    295     -17.3286      2.00000
    296     -17.3286      2.00000
    297     -17.3286      2.00000
    298     -17.3286      2.00000
    299     -17.3286      2.00000
    300     -17.3286      2.00000
    301     -17.3286      2.00000
    302     -17.3286      2.00000
    303     -17.3286      2.00000
    304     -17.3286      2.00000
    305     -17.3226      2.00000
    306     -17.3226      2.00000
    307     -17.3226      2.00000
    308     -17.3226      2.00000
    309     -17.3226      2.00000
    310     -17.3226      2.00000
    311     -17.3226      2.00000
    312     -17.3226      2.00000
    313     -17.2833      2.00000
    314     -17.2833      2.00000
    315     -17.2652      2.00000
    316     -17.2652      2.00000
    317     -17.2652      2.00000
    318     -17.2652      2.00000
    319     -17.2652      2.00000
    320     -17.2652      2.00000
    321     -17.2652      2.00000
    322     -17.2652      2.00000
    323     -17.2652      2.00000
    324     -17.2652      2.00000
    325     -17.2651      2.00000
    326     -17.2651      2.00000
    327     -17.2651      2.00000
    328     -17.2651      2.00000
    329     -17.2651      2.00000
    330     -17.2651      2.00000
    331     -17.2422      2.00000
    332     -17.2422      2.00000
    333     -17.2421      2.00000
    334     -17.2421      2.00000
    335     -17.2302      2.00000
    336     -17.2302      2.00000
    337     -17.2302      2.00000
    338     -17.2302      2.00000
    339     -17.2300      2.00000
    340     -17.2300      2.00000
    341     -17.2300      2.00000
    342     -17.2300      2.00000
    343     -17.2237      2.00000
    344     -17.2237      2.00000
    345     -17.2237      2.00000
    346     -17.2237      2.00000
    347     -17.2237      2.00000
    348     -17.2237      2.00000
    349     -17.2237      2.00000
    350     -17.2237      2.00000
    351     -17.2158      2.00000
    352     -17.2158      2.00000
    353     -17.2158      2.00000
    354     -17.2158      2.00000
    355     -17.2157      2.00000
    356     -17.2157      2.00000
    357     -17.2157      2.00000
    358     -17.2157      2.00000
    359     -17.2127      2.00000
    360     -17.2127      2.00000
    361     -17.2127      2.00000
    362     -17.2127      2.00000
    363     -17.1771      2.00000
    364     -17.1771      2.00000
    365     -17.1771      2.00000
    366     -17.1771      2.00000
    367     -17.1771      2.00000
    368     -17.1771      2.00000
    369     -17.1771      2.00000
    370     -17.1771      2.00000
    371     -17.1546      2.00000
    372     -17.1546      2.00000
    373     -17.1546      2.00000
    374     -17.1546      2.00000
    375     -17.1546      2.00000
    376     -17.1546      2.00000
    377     -17.1546      2.00000
    378     -17.1546      2.00000
    379     -17.1305      2.00000
    380     -17.1305      2.00000
    381     -17.1305      2.00000
    382     -17.1305      2.00000
    383     -17.1304      2.00000
    384     -17.1304      2.00000
    385     -17.1304      2.00000
    386     -17.1304      2.00000
    387     -17.1272      2.00000
    388     -17.1271      2.00000
    389     -17.1271      2.00000
    390     -17.1271      2.00000
    391     -17.1271      2.00000
    392     -17.1271      2.00000
    393     -17.1271      2.00000
    394     -17.1271      2.00000
    395     -17.1212      2.00000
    396     -17.1212      2.00000
    397     -17.1212      2.00000
    398     -17.1212      2.00000
    399     -17.1212      2.00000
    400     -17.1212      2.00000
    401     -17.1212      2.00000
    402     -17.1212      2.00000
    403     -17.0967      2.00000
    404     -17.0967      2.00000
    405     -17.0967      2.00000
    406     -17.0967      2.00000
    407     -17.0373      2.00000
    408     -17.0373      2.00000
    409     -17.0373      2.00000
    410     -17.0373      2.00000
    411     -17.0372      2.00000
    412     -17.0372      2.00000
    413     -17.0372      2.00000
    414     -17.0372      2.00000
    415     -17.0212      2.00000
    416     -17.0212      2.00000
    417     -17.0212      2.00000
    418     -17.0212      2.00000
    419     -17.0212      2.00000
    420     -17.0212      2.00000
    421     -17.0212      2.00000
    422     -17.0212      2.00000
    423     -17.0211      2.00000
    424     -17.0211      2.00000
    425     -17.0211      2.00000
    426     -17.0211      2.00000
    427     -17.0211      2.00000
    428     -17.0211      2.00000
    429     -17.0211      2.00000
    430     -17.0211      2.00000
    431     -17.0193      2.00000
    432     -17.0193      2.00000
    433     -17.0193      2.00000
    434     -17.0193      2.00000
    435     -17.0193      2.00000
    436     -17.0193      2.00000
    437     -17.0193      2.00000
    438     -17.0193      2.00000
    439     -16.9994      2.00000
    440     -16.9994      2.00000
    441     -16.9994      2.00000
    442     -16.9994      2.00000
    443     -16.9993      2.00000
    444     -16.9993      2.00000
    445     -16.9993      2.00000
    446     -16.9993      2.00000
    447     -16.9929      2.00000
    448     -16.9929      2.00000
    449     -16.9929      2.00000
    450     -16.9929      2.00000
    451     -16.9929      2.00000
    452     -16.9929      2.00000
    453     -16.9929      2.00000
    454     -16.9929      2.00000
    455     -16.9910      2.00000
    456     -16.9910      2.00000
    457     -16.9909      2.00000
    458     -16.9909      2.00000
    459     -16.9909      2.00000
    460     -16.9909      2.00000
    461     -16.9909      2.00000
    462     -16.9909      2.00000
    463     -16.9908      2.00000
    464     -16.9908      2.00000
    465     -16.9908      2.00000
    466     -16.9908      2.00000
    467     -16.9908      2.00000
    468     -16.9908      2.00000
    469     -16.9908      2.00000
    470     -16.9908      2.00000
    471     -16.9406      2.00000
    472     -16.9405      2.00000
    473     -16.9298      2.00000
    474     -16.9298      2.00000
    475     -16.9296      2.00000
    476     -16.9296      2.00000
    477     -16.9189      2.00000
    478     -16.9189      2.00000
    479     -16.9189      2.00000
    480     -16.9189      2.00000
    481     -16.9188      2.00000
    482     -16.9188      2.00000
    483     -16.9188      2.00000
    484     -16.9188      2.00000
    485     -16.9182      2.00000
    486     -16.9182      2.00000
    487     -16.9182      2.00000
    488     -16.9182      2.00000
    489     -16.9181      2.00000
    490     -16.9181      2.00000
    491     -16.9181      2.00000
    492     -16.9181      2.00000
    493     -16.9179      2.00000
    494     -16.9179      2.00000
    495     -16.9179      2.00000
    496     -16.9178      2.00000
    497     -16.9178      2.00000
    498     -16.9178      2.00000
    499     -16.9178      2.00000
    500     -16.9178      2.00000
    501     -16.9171      2.00000
    502     -16.9171      2.00000
    503     -16.9171      2.00000
    504     -16.9171      2.00000
    505     -16.9171      2.00000
    506     -16.9171      2.00000
    507     -16.9171      2.00000
    508     -16.9171      2.00000
    509     -16.9062      2.00000
    510     -16.9062      2.00000
    511     -16.9061      2.00000
    512     -16.9061      2.00000
    513       3.9277      2.00000
    514       3.9278      2.00000
    515       4.8913      2.00000
    516       4.8913      2.00000
    517       4.8914      2.00000
    518       4.8914      2.00000
    519       4.8915      2.00000
    520       4.8915      2.00000
    521       4.8915      2.00000
    522       4.8915      2.00000
    523       5.6597      2.00000
    524       5.6597      2.00000
    525       5.6597      2.00000
    526       5.6597      2.00000
    527       5.6598      2.00000
    528       5.6598      2.00000
    529       5.6598      2.00000
    530       5.6598      2.00000
    531       5.7505      2.00000
    532       5.7505      2.00000
    533       6.0585      2.00000
    534       6.0585      2.00000
    535       6.0585      2.00000
    536       6.0585      2.00000
    537       6.0585      2.00000
    538       6.0585      2.00000
    539       6.0585      2.00000
    540       6.0585      2.00000
    541       6.3106      2.00000
    542       6.3106      2.00000
    543       6.3106      2.00000
    544       6.3106      2.00000
    545       6.3108      2.00000
    546       6.3108      2.00000
    547       6.3108      2.00000
    548       6.3108      2.00000
    549       6.4569      2.00000
    550       6.4569      2.00000
    551       6.4571      2.00000
    552       6.4571      2.00000
    553       6.5306      2.00000
    554       6.5308      2.00000
    555       6.5884      2.00000
    556       6.5885      2.00000
    557       6.8104      2.00000
    558       6.8104      2.00000
    559       6.8104      2.00000
    560       6.8104      2.00000
    561       6.8106      2.00000
    562       6.8106      2.00000
    563       6.8106      2.00000
    564       6.8106      2.00000
    565       6.8401      2.00000
    566       6.8401      2.00000
    567       6.8401      2.00000
    568       6.8401      2.00000
    569       6.8401      2.00000
    570       6.8401      2.00000
    571       6.8401      2.00000
    572       6.8401      2.00000
    573       6.8402      2.00000
    574       6.8402      2.00000
    575       6.8402      2.00000
    576       6.8402      2.00000
    577       6.8402      2.00000
    578       6.8402      2.00000
    579       6.8403      2.00000
    580       6.8403      2.00000
    581       6.8674      2.00000
    582       6.8674      2.00000
    583       6.8674      2.00000
    584       6.8674      2.00000
    585       6.8674      2.00000
    586       6.8674      2.00000
    587       6.8674      2.00000
    588       6.8674      2.00000
    589       7.0116      2.00000
    590       7.0116      2.00000
    591       7.0116      2.00000
    592       7.0116      2.00000
    593       7.0116      2.00000
    594       7.0116      2.00000
    595       7.0116      2.00000
    596       7.0116      2.00000
    597       7.0627      2.00000
    598       7.0627      2.00000
    599       7.0627      2.00000
    600       7.0627      2.00000
    601       7.0628      2.00000
    602       7.0628      2.00000
    603       7.0628      2.00000
    604       7.0628      2.00000
    605       7.2506      2.00000
    606       7.2506      2.00000
    607       7.2506      2.00000
    608       7.2506      2.00000
    609       7.2506      2.00000
    610       7.2506      2.00000
    611       7.2506      2.00000
    612       7.2506      2.00000
    613       7.2507      2.00000
    614       7.2507      2.00000
    615       7.2507      2.00000
    616       7.2507      2.00000
    617       7.2507      2.00000
    618       7.2507      2.00000
    619       7.2507      2.00000
    620       7.2507      2.00000
    621       7.2873      2.00000
    622       7.2873      2.00000
    623       7.2873      2.00000
    624       7.2873      2.00000
    625       7.2874      2.00000
    626       7.2874      2.00000
    627       7.2874      2.00000
    628       7.2874      2.00000
    629       7.3056      2.00000
    630       7.3056      2.00000
    631       7.4087      2.00000
    632       7.4087      2.00000
    633       7.4087      2.00000
    634       7.4087      2.00000
    635       7.4088      2.00000
    636       7.4088      2.00000
    637       7.4088      2.00000
    638       7.4088      2.00000
    639       7.6851      2.00000
    640       7.6851      2.00000
    641       7.6851      2.00000
    642       7.6851      2.00000
    643       7.6851      2.00000
    644       7.6851      2.00000
    645       7.6851      2.00000
    646       7.6851      2.00000
    647       7.7225      2.00000
    648       7.7225      2.00000
    649       7.9652      2.00000
    650       7.9652      2.00000
    651       7.9652      2.00000
    652       7.9652      2.00000
    653       7.9653      2.00000
    654       7.9653      2.00000
    655       7.9653      2.00000
    656       7.9653      2.00000
    657       8.0669      2.00000
    658       8.0669      2.00000
    659       8.0670      2.00000
    660       8.0670      2.00000
    661       8.2167      2.00000
    662       8.2167      2.00000
    663       8.2167      2.00000
    664       8.2167      2.00000
    665       8.2167      2.00000
    666       8.2167      2.00000
    667       8.2167      2.00000
    668       8.2167      2.00000
    669       8.2371      2.00000
    670       8.2371      2.00000
    671       8.2371      2.00000
    672       8.2371      2.00000
    673       8.2664      2.00000
    674       8.2664      2.00000
    675       8.2665      2.00000
    676       8.2665      2.00000
    677       8.2969      2.00000
    678       8.2969      2.00000
    679       8.2969      2.00000
    680       8.2969      2.00000
    681       8.2969      2.00000
    682       8.2969      2.00000
    683       8.2969      2.00000
    684       8.2969      2.00000
    685       8.2970      2.00000
    686       8.2970      2.00000
    687       8.2970      2.00000
    688       8.2970      2.00000
    689       8.2970      2.00000
    690       8.2970      2.00000
    691       8.2970      2.00000
    692       8.2970      2.00000
    693       8.4822      2.00070
    694       8.4822      2.00070
    695       8.4822      2.00070
    696       8.4822      2.00070
    697       8.4822      2.00070
    698       8.4822      2.00070
    699       8.4822      2.00070
    700       8.4822      2.00070
    701       8.5069      2.00128
    702       8.5069      2.00128
    703       8.5069      2.00128
    704       8.5069      2.00128
    705       8.5071      2.00128
    706       8.5071      2.00128
    707       8.5071      2.00128
    708       8.5071      2.00128
    709       8.6004      2.00918
    710       8.6004      2.00918
    711       8.6004      2.00918
    712       8.6004      2.00918
    713       8.6004      2.00918
    714       8.6004      2.00918
    715       8.6004      2.00918
    716       8.6004      2.00918
    717       8.6004      2.00918
    718       8.6004      2.00918
    719       8.6004      2.00918
    720       8.6004      2.00918
    721       8.6004      2.00918
    722       8.6004      2.00918
    723       8.6004      2.00918
    724       8.6004      2.00918
    725       8.6005      2.00921
    726       8.6005      2.00921
    727       8.6005      2.00921
    728       8.6006      2.00921
    729       8.6006      2.00921
    730       8.6006      2.00921
    731       8.6006      2.00921
    732       8.6006      2.00921
    733       8.6589      2.02387
    734       8.6589      2.02388
    735       8.6589      2.02388
    736       8.6589      2.02388
    737       8.6590      2.02391
    738       8.6590      2.02391
    739       8.6590      2.02391
    740       8.6590      2.02391
    741       8.7218      2.05038
    742       8.7218      2.05038
    743       8.7218      2.05038
    744       8.7218      2.05038
    745       8.7218      2.05038
    746       8.7218      2.05038
    747       8.7218      2.05038
    748       8.7218      2.05038
    749       8.9178      1.81627
    750       8.9178      1.81626
    751       8.9178      1.81625
    752       8.9178      1.81624
    753       8.9178      1.81624
    754       8.9178      1.81623
    755       8.9178      1.81623
    756       8.9178      1.81623
    757       8.9206      1.80249
    758       8.9206      1.80249
    759       8.9206      1.80248
    760       8.9206      1.80248
    761       8.9206      1.80248
    762       8.9206      1.80247
    763       8.9206      1.80247
    764       8.9206      1.80245
    765       8.9889      1.36041
    766       8.9889      1.36040
    767       8.9889      1.36039
    768       8.9889      1.36039
    769       8.9890      1.35948
    770       8.9890      1.35947
    771       8.9890      1.35946
    772       8.9890      1.35945
    773       8.9980      1.28787
    774       8.9980      1.28787
    775       8.9980      1.28787
    776       8.9980      1.28787
    777       9.1506      0.16927
    778       9.1506      0.16927
    779       9.1506      0.16927
    780       9.1506      0.16927
    781       9.1507      0.16878
    782       9.1507      0.16878
    783       9.1507      0.16878
    784       9.1507      0.16877
    785       9.2750     -0.07086
    786       9.2750     -0.07086
    787       9.2750     -0.07086
    788       9.2750     -0.07086
    789       9.2750     -0.07086
    790       9.2750     -0.07086
    791       9.2750     -0.07086
    792       9.2750     -0.07086
    793       9.2750     -0.07087
    794       9.2750     -0.07087
    795       9.2750     -0.07087
    796       9.2750     -0.07087
    797       9.2751     -0.07087
    798       9.2751     -0.07087
    799       9.2751     -0.07087
    800       9.2751     -0.07087
    801       9.3174     -0.06173
    802       9.3174     -0.06173
    803       9.3174     -0.06173
    804       9.3174     -0.06173
    805       9.3174     -0.06173
    806       9.3174     -0.06173
    807       9.3174     -0.06173
    808       9.3174     -0.06173
    809       9.3175     -0.06169
    810       9.3175     -0.06169
    811       9.3175     -0.06169
    812       9.3175     -0.06168
    813       9.3175     -0.06168
    814       9.3175     -0.06168
    815       9.3175     -0.06168
    816       9.3175     -0.06168
    817       9.3454     -0.04946
    818       9.3454     -0.04946
    819       9.3454     -0.04946
    820       9.3454     -0.04946
    821       9.3454     -0.04946
    822       9.3454     -0.04946
    823       9.3454     -0.04946
    824       9.3454     -0.04946
    825       9.4545     -0.01105
    826       9.4545     -0.01105
    827       9.4545     -0.01105
    828       9.4545     -0.01105
    829       9.4546     -0.01104
    830       9.4546     -0.01104
    831       9.4546     -0.01104
    832       9.4546     -0.01104
    833       9.5734     -0.00089
    834       9.5734     -0.00089
    835       9.5734     -0.00089
    836       9.5734     -0.00089
    837       9.5734     -0.00089
    838       9.5734     -0.00089
    839       9.5734     -0.00089
    840       9.5734     -0.00089
    841       9.5918     -0.00056
    842       9.5918     -0.00056
    843       9.5918     -0.00056
    844       9.5918     -0.00056
    845       9.5918     -0.00056
    846       9.5918     -0.00056
    847       9.5918     -0.00056
    848       9.5918     -0.00056
    849       9.7660     -0.00000
    850       9.7660     -0.00000
    851       9.7660     -0.00000
    852       9.7660     -0.00000
    853       9.7661     -0.00000
    854       9.7661     -0.00000
    855       9.7661     -0.00000
    856       9.7661     -0.00000
    857       9.8966     -0.00000
    858       9.8966     -0.00000
    859       9.8966     -0.00000
    860       9.8966     -0.00000
    861       9.8967     -0.00000
    862       9.8967     -0.00000
    863       9.8967     -0.00000
    864       9.8967     -0.00000
    865       9.9078     -0.00000
    866       9.9078     -0.00000
    867      10.1056     -0.00000
    868      10.1056     -0.00000
    869      10.1056     -0.00000
    870      10.1056     -0.00000
    871      10.1057     -0.00000
    872      10.1057     -0.00000
    873      10.1057     -0.00000
    874      10.1057     -0.00000
    875      10.1188     -0.00000
    876      10.1188     -0.00000
    877      10.1189     -0.00000
    878      10.1189     -0.00000
    879      10.1624     -0.00000
    880      10.1624     -0.00000
    881      10.1624     -0.00000
    882      10.1624     -0.00000
    883      10.2910     -0.00000
    884      10.2911     -0.00000
    885      10.3978     -0.00000
    886      10.3978     -0.00000
    887      10.3980     -0.00000
    888      10.3980     -0.00000
    889      10.9477     -0.00000
    890      10.9477     -0.00000
    891      10.9477     -0.00000
    892      10.9477     -0.00000
    893      10.9478     -0.00000
    894      10.9478     -0.00000
    895      10.9478     -0.00000
    896      10.9478     -0.00000
    897      11.1934     -0.00000
    898      11.1934     -0.00000
    899      11.1934     -0.00000
    900      11.1934     -0.00000
    901      11.1934     -0.00000
    902      11.1934     -0.00000
    903      11.1934     -0.00000
    904      11.1934     -0.00000
    905      11.2555     -0.00000
    906      11.2555     -0.00000
    907      11.2555     -0.00000
    908      11.2555     -0.00000
    909      11.2705     -0.00000
    910      11.2705     -0.00000
    911      11.2755     -0.00000
    912      11.2755     -0.00000
    913      11.2755     -0.00000
    914      11.2755     -0.00000
    915      11.2755     -0.00000
    916      11.2755     -0.00000
    917      11.2755     -0.00000
    918      11.2755     -0.00000
    919      11.5249     -0.00000
    920      11.5250     -0.00000
    921      11.5250     -0.00000
    922      11.5250     -0.00000
    923      11.5250     -0.00000
    924      11.5250     -0.00000

 k-point     3 :       0.5000    0.5000    0.0000
  band No.  band energies     occupation 
      1     -39.3692      2.00000
      2     -39.3691      2.00000
      3     -39.3691      2.00000
      4     -39.3690      2.00000
      5     -39.3271      2.00000
      6     -39.3271      2.00000
      7     -39.3271      2.00000
      8     -39.3271      2.00000
      9     -39.3270      2.00000
     10     -39.3270      2.00000
     11     -39.3269      2.00000
     12     -39.3269      2.00000
     13     -39.2884      2.00000
     14     -39.2884      2.00000
     15     -39.2884      2.00000
     16     -39.2884      2.00000
     17     -39.2883      2.00000
     18     -39.2883      2.00000
     19     -39.2883      2.00000
     20     -39.2883      2.00000
     21     -39.2668      2.00000
     22     -39.2667      2.00000
     23     -39.2667      2.00000
     24     -39.2667      2.00000
     25     -39.2667      2.00000
     26     -39.2667      2.00000
     27     -39.2667      2.00000
     28     -39.2667      2.00000
     29     -39.2667      2.00000
     30     -39.2666      2.00000
     31     -39.2666      2.00000
     32     -39.2666      2.00000
     33     -39.2666      2.00000
     34     -39.2666      2.00000
     35     -39.2666      2.00000
     36     -39.2666      2.00000
     37     -39.2489      2.00000
     38     -39.2489      2.00000
     39     -39.2489      2.00000
     40     -39.2489      2.00000
     41     -39.2362      2.00000
     42     -39.2362      2.00000
     43     -39.2362      2.00000
     44     -39.2362      2.00000
     45     -39.2362      2.00000
     46     -39.2362      2.00000
     47     -39.2362      2.00000
     48     -39.2362      2.00000
     49     -39.2334      2.00000
     50     -39.2334      2.00000
     51     -39.2334      2.00000
     52     -39.2334      2.00000
     53     -39.2333      2.00000
     54     -39.2333      2.00000
     55     -39.2332      2.00000
     56     -39.2332      2.00000
     57     -39.2238      2.00000
     58     -39.2238      2.00000
     59     -39.2238      2.00000
     60     -39.2238      2.00000
     61     -39.2237      2.00000
     62     -39.2237      2.00000
     63     -39.2237      2.00000
     64     -39.2237      2.00000
     65     -39.2236      2.00000
     66     -39.2236      2.00000
     67     -39.2236      2.00000
     68     -39.2236      2.00000
     69     -39.2236      2.00000
     70     -39.2236      2.00000
     71     -39.2236      2.00000
     72     -39.2236      2.00000
     73     -39.2145      2.00000
     74     -39.2145      2.00000
     75     -39.2145      2.00000
     76     -39.2145      2.00000
     77     -39.2144      2.00000
     78     -39.2144      2.00000
     79     -39.2143      2.00000
     80     -39.2143      2.00000
     81     -39.2063      2.00000
     82     -39.2063      2.00000
     83     -39.2063      2.00000
     84     -39.2063      2.00000
     85     -39.2059      2.00000
     86     -39.2059      2.00000
     87     -39.2059      2.00000
     88     -39.2059      2.00000
     89     -39.2059      2.00000
     90     -39.2059      2.00000
     91     -39.2059      2.00000
     92     -39.2059      2.00000
     93     -39.1940      2.00000
     94     -39.1940      2.00000
     95     -39.1940      2.00000
     96     -39.1940      2.00000
     97     -39.1940      2.00000
     98     -39.1940      2.00000
     99     -39.1940      2.00000
    100     -39.1940      2.00000
    101     -39.1939      2.00000
    102     -39.1939      2.00000
    103     -39.1939      2.00000
    104     -39.1939      2.00000
    105     -39.1939      2.00000
    106     -39.1939      2.00000
    107     -39.1939      2.00000
    108     -39.1939      2.00000
    109     -39.1855      2.00000
    110     -39.1855      2.00000
    111     -39.1855      2.00000
    112     -39.1855      2.00000
    113     -39.1854      2.00000
    114     -39.1854      2.00000
    115     -39.1854      2.00000
    116     -39.1854      2.00000
    117     -39.1515      2.00000
    118     -39.1515      2.00000
    119     -39.1514      2.00000
    120     -39.1514      2.00000
    121     -39.1514      2.00000
    122     -39.1514      2.00000
    123     -39.1513      2.00000
    124     -39.1513      2.00000
    125     -39.1212      2.00000
    126     -39.1212      2.00000
    127     -39.1211      2.00000
    128     -39.1210      2.00000
    129     -17.8862      2.00000
    130     -17.8862      2.00000
    131     -17.8862      2.00000
    132     -17.8862      2.00000
    133     -17.8523      2.00000
    134     -17.8523      2.00000
    135     -17.8523      2.00000
    136     -17.8523      2.00000
    137     -17.8522      2.00000
    138     -17.8522      2.00000
    139     -17.8522      2.00000
    140     -17.8522      2.00000
    141     -17.8522      2.00000
    142     -17.8522      2.00000
    143     -17.8522      2.00000
    144     -17.8522      2.00000
    145     -17.8521      2.00000
    146     -17.8521      2.00000
    147     -17.8521      2.00000
    148     -17.8521      2.00000
    149     -17.7882      2.00000
    150     -17.7882      2.00000
    151     -17.7882      2.00000
    152     -17.7882      2.00000
    153     -17.7762      2.00000
    154     -17.7762      2.00000
    155     -17.7762      2.00000
    156     -17.7762      2.00000
    157     -17.7761      2.00000
    158     -17.7761      2.00000
    159     -17.7761      2.00000
    160     -17.7761      2.00000
    161     -17.7761      2.00000
    162     -17.7761      2.00000
    163     -17.7761      2.00000
    164     -17.7761      2.00000
    165     -17.7760      2.00000
    166     -17.7760      2.00000
    167     -17.7760      2.00000
    168     -17.7760      2.00000
    169     -17.7402      2.00000
    170     -17.7402      2.00000
    171     -17.7401      2.00000
    172     -17.7401      2.00000
    173     -17.7401      2.00000
    174     -17.7401      2.00000
    175     -17.7401      2.00000
    176     -17.7401      2.00000
    177     -17.7400      2.00000
    178     -17.7400      2.00000
    179     -17.7400      2.00000
    180     -17.7400      2.00000
    181     -17.7399      2.00000
    182     -17.7399      2.00000
    183     -17.7399      2.00000
    184     -17.7399      2.00000
    185     -17.6837      2.00000
    186     -17.6837      2.00000
    187     -17.6836      2.00000
    188     -17.6836      2.00000
    189     -17.6836      2.00000
    190     -17.6836      2.00000
    191     -17.6835      2.00000
    192     -17.6835      2.00000
    193     -17.6616      2.00000
    194     -17.6616      2.00000
    195     -17.6616      2.00000
    196     -17.6616      2.00000
    197     -17.6616      2.00000
    198     -17.6616      2.00000
    199     -17.6616      2.00000
    200     -17.6616      2.00000
    201     -17.6599      2.00000
    202     -17.6599      2.00000
    203     -17.6599      2.00000
    204     -17.6599      2.00000
    205     -17.6598      2.00000
    206     -17.6598      2.00000
    207     -17.6598      2.00000
    208     -17.6598      2.00000
    209     -17.6509      2.00000
    210     -17.6509      2.00000
    211     -17.6509      2.00000
    212     -17.6509      2.00000
    213     -17.6341      2.00000
    214     -17.6341      2.00000
    215     -17.6341      2.00000
    216     -17.6341      2.00000
    217     -17.6341      2.00000
    218     -17.6341      2.00000
    219     -17.6341      2.00000
    220     -17.6341      2.00000
    221     -17.6340      2.00000
    222     -17.6340      2.00000
    223     -17.6340      2.00000
    224     -17.6340      2.00000
    225     -17.6340      2.00000
    226     -17.6340      2.00000
    227     -17.6340      2.00000
    228     -17.6340      2.00000
    229     -17.6255      2.00000
    230     -17.6255      2.00000
    231     -17.6254      2.00000
    232     -17.6254      2.00000
    233     -17.6254      2.00000
    234     -17.6254      2.00000
    235     -17.6253      2.00000
    236     -17.6253      2.00000
    237     -17.5457      2.00000
    238     -17.5456      2.00000
    239     -17.5456      2.00000
    240     -17.5455      2.00000
    241     -17.5358      2.00000
    242     -17.5358      2.00000
    243     -17.5358      2.00000
    244     -17.5358      2.00000
    245     -17.5358      2.00000
    246     -17.5358      2.00000
    247     -17.5358      2.00000
    248     -17.5358      2.00000
    249     -17.5017      2.00000
    250     -17.5017      2.00000
    251     -17.5017      2.00000
    252     -17.5017      2.00000
    253     -17.4574      2.00000
    254     -17.4574      2.00000
    255     -17.4574      2.00000
    256     -17.4574      2.00000
    257     -17.4574      2.00000
    258     -17.4574      2.00000
    259     -17.4574      2.00000
    260     -17.4574      2.00000
    261     -17.4162      2.00000
    262     -17.4162      2.00000
    263     -17.4162      2.00000
    264     -17.4162      2.00000
    265     -17.4162      2.00000
    266     -17.4162      2.00000
    267     -17.4162      2.00000
    268     -17.4162      2.00000
    269     -17.3981      2.00000
    270     -17.3981      2.00000
    271     -17.3981      2.00000
    272     -17.3981      2.00000
    273     -17.3981      2.00000
    274     -17.3981      2.00000
    275     -17.3981      2.00000
    276     -17.3981      2.00000
    277     -17.3981      2.00000
    278     -17.3981      2.00000
    279     -17.3981      2.00000
    280     -17.3981      2.00000
    281     -17.3981      2.00000
    282     -17.3981      2.00000
    283     -17.3981      2.00000
    284     -17.3981      2.00000
    285     -17.3871      2.00000
    286     -17.3871      2.00000
    287     -17.3871      2.00000
    288     -17.3871      2.00000
    289     -17.3871      2.00000
    290     -17.3871      2.00000
    291     -17.3870      2.00000
    292     -17.3870      2.00000
    293     -17.3593      2.00000
    294     -17.3593      2.00000
    295     -17.3593      2.00000
    296     -17.3593      2.00000
    297     -17.3592      2.00000
    298     -17.3592      2.00000
    299     -17.3592      2.00000
    300     -17.3592      2.00000
    301     -17.3060      2.00000
    302     -17.3060      2.00000
    303     -17.3060      2.00000
    304     -17.3060      2.00000
    305     -17.3059      2.00000
    306     -17.3059      2.00000
    307     -17.3059      2.00000
    308     -17.3059      2.00000
    309     -17.2968      2.00000
    310     -17.2968      2.00000
    311     -17.2968      2.00000
    312     -17.2968      2.00000
    313     -17.2967      2.00000
    314     -17.2967      2.00000
    315     -17.2967      2.00000
    316     -17.2967      2.00000
    317     -17.2714      2.00000
    318     -17.2714      2.00000
    319     -17.2714      2.00000
    320     -17.2714      2.00000
    321     -17.2664      2.00000
    322     -17.2664      2.00000
    323     -17.2664      2.00000
    324     -17.2664      2.00000
    325     -17.2664      2.00000
    326     -17.2664      2.00000
    327     -17.2664      2.00000
    328     -17.2664      2.00000
    329     -17.2603      2.00000
    330     -17.2603      2.00000
    331     -17.2603      2.00000
    332     -17.2603      2.00000
    333     -17.2603      2.00000
    334     -17.2603      2.00000
    335     -17.2603      2.00000
    336     -17.2603      2.00000
    337     -17.2503      2.00000
    338     -17.2503      2.00000
    339     -17.2503      2.00000
    340     -17.2503      2.00000
    341     -17.2502      2.00000
    342     -17.2502      2.00000
    343     -17.2502      2.00000
    344     -17.2502      2.00000
    345     -17.2502      2.00000
    346     -17.2502      2.00000
    347     -17.2502      2.00000
    348     -17.2502      2.00000
    349     -17.2501      2.00000
    350     -17.2501      2.00000
    351     -17.2501      2.00000
    352     -17.2501      2.00000
    353     -17.2073      2.00000
    354     -17.2073      2.00000
    355     -17.2073      2.00000
    356     -17.2073      2.00000
    357     -17.2073      2.00000
    358     -17.2073      2.00000
    359     -17.2073      2.00000
    360     -17.2073      2.00000
    361     -17.1653      2.00000
    362     -17.1653      2.00000
    363     -17.1653      2.00000
    364     -17.1653      2.00000
    365     -17.1367      2.00000
    366     -17.1367      2.00000
    367     -17.1367      2.00000
    368     -17.1367      2.00000
    369     -17.1367      2.00000
    370     -17.1367      2.00000
    371     -17.1367      2.00000
    372     -17.1367      2.00000
    373     -17.1366      2.00000
    374     -17.1366      2.00000
    375     -17.1366      2.00000
    376     -17.1366      2.00000
    377     -17.1366      2.00000
    378     -17.1366      2.00000
    379     -17.1366      2.00000
    380     -17.1366      2.00000
    381     -17.1352      2.00000
    382     -17.1352      2.00000
    383     -17.1352      2.00000
    384     -17.1352      2.00000
    385     -17.1351      2.00000
    386     -17.1351      2.00000
    387     -17.1351      2.00000
    388     -17.1351      2.00000
    389     -17.1039      2.00000
    390     -17.1039      2.00000
    391     -17.1039      2.00000
    392     -17.1039      2.00000
    393     -17.1038      2.00000
    394     -17.1038      2.00000
    395     -17.1038      2.00000
    396     -17.1038      2.00000
    397     -17.0726      2.00000
    398     -17.0726      2.00000
    399     -17.0726      2.00000
    400     -17.0726      2.00000
    401     -17.0725      2.00000
    402     -17.0725      2.00000
    403     -17.0725      2.00000
    404     -17.0725      2.00000
    405     -17.0725      2.00000
    406     -17.0725      2.00000
    407     -17.0725      2.00000
    408     -17.0725      2.00000
    409     -17.0725      2.00000
    410     -17.0725      2.00000
    411     -17.0725      2.00000
    412     -17.0725      2.00000
    413     -17.0681      2.00000
    414     -17.0681      2.00000
    415     -17.0681      2.00000
    416     -17.0681      2.00000
    417     -17.0681      2.00000
    418     -17.0681      2.00000
    419     -17.0680      2.00000
    420     -17.0680      2.00000
    421     -17.0455      2.00000
    422     -17.0455      2.00000
    423     -17.0455      2.00000
    424     -17.0455      2.00000
    425     -17.0340      2.00000
    426     -17.0340      2.00000
    427     -17.0340      2.00000
    428     -17.0340      2.00000
    429     -17.0340      2.00000
    430     -17.0340      2.00000
    431     -17.0340      2.00000
    432     -17.0340      2.00000
    433     -17.0067      2.00000
    434     -17.0067      2.00000
    435     -17.0066      2.00000
    436     -17.0066      2.00000
    437     -17.0066      2.00000
    438     -17.0066      2.00000
    439     -17.0066      2.00000
    440     -17.0066      2.00000
    441     -17.0054      2.00000
    442     -17.0054      2.00000
    443     -17.0054      2.00000
    444     -17.0054      2.00000
    445     -17.0054      2.00000
    446     -17.0054      2.00000
    447     -17.0054      2.00000
    448     -17.0054      2.00000
    449     -17.0002      2.00000
    450     -17.0002      2.00000
    451     -17.0002      2.00000
    452     -17.0002      2.00000
    453     -16.9911      2.00000
    454     -16.9911      2.00000
    455     -16.9911      2.00000
    456     -16.9911      2.00000
    457     -16.9911      2.00000
    458     -16.9911      2.00000
    459     -16.9911      2.00000
    460     -16.9911      2.00000
    461     -16.9444      2.00000
    462     -16.9444      2.00000
    463     -16.9444      2.00000
    464     -16.9444      2.00000
    465     -16.9443      2.00000
    466     -16.9443      2.00000
    467     -16.9443      2.00000
    468     -16.9443      2.00000
    469     -16.9443      2.00000
    470     -16.9443      2.00000
    471     -16.9443      2.00000
    472     -16.9443      2.00000
    473     -16.9442      2.00000
    474     -16.9442      2.00000
    475     -16.9442      2.00000
    476     -16.9442      2.00000
    477     -16.9380      2.00000
    478     -16.9380      2.00000
    479     -16.9380      2.00000
    480     -16.9380      2.00000
    481     -16.9380      2.00000
    482     -16.9380      2.00000
    483     -16.9380      2.00000
    484     -16.9380      2.00000
    485     -16.9380      2.00000
    486     -16.9380      2.00000
    487     -16.9380      2.00000
    488     -16.9379      2.00000
    489     -16.9379      2.00000
    490     -16.9379      2.00000
    491     -16.9379      2.00000
    492     -16.9379      2.00000
    493     -16.9307      2.00000
    494     -16.9306      2.00000
    495     -16.9306      2.00000
    496     -16.9305      2.00000
    497     -16.9203      2.00000
    498     -16.9203      2.00000
    499     -16.9203      2.00000
    500     -16.9203      2.00000
    501     -16.9202      2.00000
    502     -16.9202      2.00000
    503     -16.9202      2.00000
    504     -16.9202      2.00000
    505     -16.8886      2.00000
    506     -16.8886      2.00000
    507     -16.8886      2.00000
    508     -16.8886      2.00000
    509     -16.8818      2.00000
    510     -16.8818      2.00000
    511     -16.8818      2.00000
    512     -16.8817      2.00000
    513       4.1840      2.00000
    514       4.1841      2.00000
    515       4.1842      2.00000
    516       4.1842      2.00000
    517       5.1074      2.00000
    518       5.1074      2.00000
    519       5.1075      2.00000
    520       5.1075      2.00000
    521       5.1075      2.00000
    522       5.1076      2.00000
    523       5.1076      2.00000
    524       5.1076      2.00000
    525       5.8650      2.00000
    526       5.8650      2.00000
    527       5.8651      2.00000
    528       5.8651      2.00000
    529       5.8651      2.00000
    530       5.8651      2.00000
    531       5.8652      2.00000
    532       5.8652      2.00000
    533       6.1667      2.00000
    534       6.1667      2.00000
    535       6.1667      2.00000
    536       6.1667      2.00000
    537       6.3001      2.00000
    538       6.3001      2.00000
    539       6.3001      2.00000
    540       6.3001      2.00000
    541       6.3002      2.00000
    542       6.3002      2.00000
    543       6.3002      2.00000
    544       6.3002      2.00000
    545       6.3002      2.00000
    546       6.3002      2.00000
    547       6.3002      2.00000
    548       6.3003      2.00000
    549       6.3003      2.00000
    550       6.3003      2.00000
    551       6.3003      2.00000
    552       6.3003      2.00000
    553       6.5762      2.00000
    554       6.5762      2.00000
    555       6.5762      2.00000
    556       6.5762      2.00000
    557       6.5763      2.00000
    558       6.5763      2.00000
    559       6.5763      2.00000
    560       6.5763      2.00000
    561       6.5764      2.00000
    562       6.5764      2.00000
    563       6.5764      2.00000
    564       6.5764      2.00000
    565       6.5764      2.00000
    566       6.5764      2.00000
    567       6.5764      2.00000
    568       6.5764      2.00000
    569       6.6080      2.00000
    570       6.6080      2.00000
    571       6.6080      2.00000
    572       6.6081      2.00000
    573       6.6895      2.00000
    574       6.6896      2.00000
    575       6.6896      2.00000
    576       6.6897      2.00000
    577       6.7813      2.00000
    578       6.7814      2.00000
    579       6.7814      2.00000
    580       6.7815      2.00000
    581       6.9039      2.00000
    582       6.9039      2.00000
    583       6.9039      2.00000
    584       6.9039      2.00000
    585       6.9040      2.00000
    586       6.9040      2.00000
    587       6.9041      2.00000
    588       6.9041      2.00000
    589       7.2111      2.00000
    590       7.2111      2.00000
    591       7.2111      2.00000
    592       7.2111      2.00000
    593       7.2111      2.00000
    594       7.2111      2.00000
    595       7.2111      2.00000
    596       7.2111      2.00000
    597       7.2650      2.00000
    598       7.2650      2.00000
    599       7.2650      2.00000
    600       7.2650      2.00000
    601       7.2650      2.00000
    602       7.2650      2.00000
    603       7.2650      2.00000
    604       7.2650      2.00000
    605       7.2651      2.00000
    606       7.2651      2.00000
    607       7.2651      2.00000
    608       7.2651      2.00000
    609       7.2651      2.00000
    610       7.2651      2.00000
    611       7.2651      2.00000
    612       7.2651      2.00000
    613       7.2788      2.00000
    614       7.2788      2.00000
    615       7.2789      2.00000
    616       7.2789      2.00000
    617       7.2789      2.00000
    618       7.2790      2.00000
    619       7.2790      2.00000
    620       7.2790      2.00000
    621       7.3091      2.00000
    622       7.3091      2.00000
    623       7.3091      2.00000
    624       7.3091      2.00000
    625       7.3092      2.00000
    626       7.3092      2.00000
    627       7.3092      2.00000
    628       7.3092      2.00000
    629       7.3829      2.00000
    630       7.3829      2.00000
    631       7.3830      2.00000
    632       7.3830      2.00000
    633       7.3831      2.00000
    634       7.3831      2.00000
    635       7.3831      2.00000
    636       7.3831      2.00000
    637       7.4164      2.00000
    638       7.4164      2.00000
    639       7.4164      2.00000
    640       7.4164      2.00000
    641       7.4164      2.00000
    642       7.4164      2.00000
    643       7.4164      2.00000
    644       7.4164      2.00000
    645       7.8384      2.00000
    646       7.8384      2.00000
    647       7.8384      2.00000
    648       7.8384      2.00000
    649       7.8384      2.00000
    650       7.8384      2.00000
    651       7.8384      2.00000
    652       7.8384      2.00000
    653       7.8762      2.00000
    654       7.8762      2.00000
    655       7.8763      2.00000
    656       7.8763      2.00000
    657       7.8763      2.00000
    658       7.8763      2.00000
    659       7.8764      2.00000
    660       7.8764      2.00000
    661       8.3193      2.00001
    662       8.3193      2.00001
    663       8.3193      2.00001
    664       8.3193      2.00001
    665       8.3193      2.00001
    666       8.3193      2.00001
    667       8.3193      2.00001
    668       8.3193      2.00001
    669       8.4117      2.00010
    670       8.4117      2.00010
    671       8.4117      2.00010
    672       8.4117      2.00010
    673       8.4118      2.00010
    674       8.4118      2.00010
    675       8.4118      2.00010
    676       8.4118      2.00010
    677       8.4178      2.00012
    678       8.4178      2.00012
    679       8.4178      2.00012
    680       8.4178      2.00012
    681       8.4179      2.00012
    682       8.4179      2.00012
    683       8.4179      2.00012
    684       8.4179      2.00012
    685       8.4179      2.00012
    686       8.4179      2.00012
    687       8.4179      2.00012
    688       8.4179      2.00012
    689       8.4180      2.00012
    690       8.4180      2.00012
    691       8.4180      2.00012
    692       8.4180      2.00012
    693       8.4189      2.00013
    694       8.4189      2.00013
    695       8.4189      2.00013
    696       8.4189      2.00013
    697       8.4189      2.00013
    698       8.4189      2.00013
    699       8.4189      2.00013
    700       8.4189      2.00013
    701       8.4384      2.00022
    702       8.4384      2.00022
    703       8.4384      2.00022
    704       8.4384      2.00022
    705       8.4384      2.00022
    706       8.4384      2.00022
    707       8.4384      2.00022
    708       8.4384      2.00022
    709       8.4384      2.00022
    710       8.4384      2.00022
    711       8.4384      2.00022
    712       8.4385      2.00022
    713       8.4385      2.00022
    714       8.4385      2.00022
    715       8.4385      2.00022
    716       8.4385      2.00022
    717       8.4908      2.00087
    718       8.4908      2.00087
    719       8.4909      2.00087
    720       8.4909      2.00087
    721       8.4909      2.00087
    722       8.4909      2.00087
    723       8.4910      2.00087
    724       8.4910      2.00087
    725       8.5317      2.00227
    726       8.5317      2.00227
    727       8.5317      2.00227
    728       8.5317      2.00227
    729       8.7426      2.05960
    730       8.7426      2.05960
    731       8.7426      2.05960
    732       8.7426      2.05960
    733       8.7426      2.05961
    734       8.7426      2.05961
    735       8.7426      2.05961
    736       8.7426      2.05961
    737       8.7426      2.05962
    738       8.7426      2.05962
    739       8.7426      2.05963
    740       8.7426      2.05963
    741       8.7426      2.05963
    742       8.7426      2.05963
    743       8.7426      2.05963
    744       8.7426      2.05963
    745       8.8579      2.01306
    746       8.8579      2.01306
    747       8.8580      2.01295
    748       8.8580      2.01295
    749       8.8580      2.01283
    750       8.8580      2.01283
    751       8.8581      2.01273
    752       8.8581      2.01273
    753       8.8583      2.01241
    754       8.8583      2.01240
    755       8.8583      2.01240
    756       8.8583      2.01240
    757       8.8583      2.01240
    758       8.8583      2.01239
    759       8.8583      2.01239
    760       8.8583      2.01238
    761       8.8620      2.00471
    762       8.8621      2.00469
    763       8.8621      2.00469
    764       8.8621      2.00467
    765       9.1220      0.32063
    766       9.1220      0.32060
    767       9.1220      0.32060
    768       9.1220      0.32060
    769       9.1220      0.32057
    770       9.1221      0.32056
    771       9.1221      0.32055
    772       9.1221      0.32051
    773       9.1264      0.29471
    774       9.1264      0.29471
    775       9.1264      0.29471
    776       9.1264      0.29471
    777       9.1264      0.29461
    778       9.1265      0.29460
    779       9.1265      0.29460
    780       9.1265      0.29460
    781       9.1265      0.29440
    782       9.1265      0.29440
    783       9.1265      0.29439
    784       9.1265      0.29439
    785       9.1265      0.29429
    786       9.1265      0.29428
    787       9.1265      0.29428
    788       9.1265      0.29428
    789       9.2301     -0.04759
    790       9.2301     -0.04759
    791       9.2301     -0.04759
    792       9.2301     -0.04759
    793       9.2301     -0.04760
    794       9.2302     -0.04760
    795       9.2302     -0.04760
    796       9.2302     -0.04761
    797       9.2302     -0.04762
    798       9.2302     -0.04762
    799       9.2302     -0.04762
    800       9.2302     -0.04763
    801       9.2302     -0.04763
    802       9.2302     -0.04763
    803       9.2302     -0.04763
    804       9.2302     -0.04764
    805       9.3847     -0.03201
    806       9.3847     -0.03201
    807       9.3847     -0.03200
    808       9.3847     -0.03200
    809       9.3847     -0.03200
    810       9.3847     -0.03200
    811       9.3847     -0.03199
    812       9.3847     -0.03199
    813       9.4162     -0.02065
    814       9.4162     -0.02065
    815       9.4162     -0.02064
    816       9.4162     -0.02064
    817       9.4163     -0.02063
    818       9.4163     -0.02063
    819       9.4163     -0.02063
    820       9.4163     -0.02063
    821       9.4230     -0.01862
    822       9.4230     -0.01862
    823       9.4230     -0.01861
    824       9.4230     -0.01861
    825       9.4230     -0.01861
    826       9.4230     -0.01861
    827       9.4230     -0.01860
    828       9.4231     -0.01860
    829       9.5432     -0.00182
    830       9.5432     -0.00182
    831       9.5432     -0.00182
    832       9.5432     -0.00182
    833       9.5919     -0.00056
    834       9.5919     -0.00056
    835       9.5919     -0.00056
    836       9.5919     -0.00056
    837       9.5919     -0.00056
    838       9.5919     -0.00056
    839       9.5920     -0.00056
    840       9.5920     -0.00056
    841       9.6863     -0.00004
    842       9.6863     -0.00004
    843       9.6864     -0.00004
    844       9.6864     -0.00004
    845       9.6864     -0.00004
    846       9.6864     -0.00004
    847       9.6864     -0.00004
    848       9.6864     -0.00004
    849       9.8192     -0.00000
    850       9.8192     -0.00000
    851       9.8192     -0.00000
    852       9.8192     -0.00000
    853       9.8566     -0.00000
    854       9.8566     -0.00000
    855       9.8566     -0.00000
    856       9.8566     -0.00000
    857       9.8705     -0.00000
    858       9.8705     -0.00000
    859       9.8705     -0.00000
    860       9.8705     -0.00000
    861       9.8706     -0.00000
    862       9.8706     -0.00000
    863       9.8706     -0.00000
    864       9.8706     -0.00000
    865       9.8706     -0.00000
    866       9.8706     -0.00000
    867       9.8706     -0.00000
    868       9.8706     -0.00000
    869       9.8707     -0.00000
    870       9.8707     -0.00000
    871       9.8707     -0.00000
    872       9.8707     -0.00000
    873      10.0032     -0.00000
    874      10.0033     -0.00000
    875      10.0033     -0.00000
    876      10.0034     -0.00000
    877      10.3865     -0.00000
    878      10.3865     -0.00000
    879      10.3865     -0.00000
    880      10.3865     -0.00000
    881      10.3865     -0.00000
    882      10.3865     -0.00000
    883      10.3865     -0.00000
    884      10.3865     -0.00000
    885      10.5438     -0.00000
    886      10.5438     -0.00000
    887      10.5438     -0.00000
    888      10.5438     -0.00000
    889      10.5439     -0.00000
    890      10.5439     -0.00000
    891      10.5439     -0.00000
    892      10.5439     -0.00000
    893      10.6902     -0.00000
    894      10.6903     -0.00000
    895      10.6903     -0.00000
    896      10.6903     -0.00000
    897      11.0097     -0.00000
    898      11.0097     -0.00000
    899      11.0097     -0.00000
    900      11.0097     -0.00000
    901      11.0097     -0.00000
    902      11.0097     -0.00000
    903      11.0097     -0.00000
    904      11.0097     -0.00000
    905      11.1418     -0.00000
    906      11.1418     -0.00000
    907      11.1418     -0.00000
    908      11.1418     -0.00000
    909      11.1419     -0.00000
    910      11.1419     -0.00000
    911      11.1419     -0.00000
    912      11.1419     -0.00000
    913      11.1918     -0.00000
    914      11.1918     -0.00000
    915      11.1918     -0.00000
    916      11.1918     -0.00000
    917      11.1918     -0.00000
    918      11.1918     -0.00000
    919      11.1918     -0.00000
    920      11.1918     -0.00000
    921      11.6978     -0.00000
    922      11.6982     -0.00000
    923      11.6986     -0.00000
    924      11.7178     -0.00000

 k-point     4 :       0.5000    0.5000    0.5000
  band No.  band energies     occupation 
      1     -39.3581      2.00000
      2     -39.3581      2.00000
      3     -39.3580      2.00000
      4     -39.3580      2.00000
      5     -39.3580      2.00000
      6     -39.3579      2.00000
      7     -39.3579      2.00000
      8     -39.3579      2.00000
      9     -39.2826      2.00000
     10     -39.2826      2.00000
     11     -39.2826      2.00000
     12     -39.2826      2.00000
     13     -39.2826      2.00000
     14     -39.2826      2.00000
     15     -39.2825      2.00000
     16     -39.2825      2.00000
     17     -39.2825      2.00000
     18     -39.2825      2.00000
     19     -39.2825      2.00000
     20     -39.2825      2.00000
     21     -39.2825      2.00000
     22     -39.2825      2.00000
     23     -39.2825      2.00000
     24     -39.2825      2.00000
     25     -39.2824      2.00000
     26     -39.2824      2.00000
     27     -39.2824      2.00000
     28     -39.2824      2.00000
     29     -39.2824      2.00000
     30     -39.2824      2.00000
     31     -39.2824      2.00000
     32     -39.2824      2.00000
     33     -39.2454      2.00000
     34     -39.2454      2.00000
     35     -39.2454      2.00000
     36     -39.2454      2.00000
     37     -39.2454      2.00000
     38     -39.2454      2.00000
     39     -39.2454      2.00000
     40     -39.2454      2.00000
     41     -39.2454      2.00000
     42     -39.2454      2.00000
     43     -39.2454      2.00000
     44     -39.2454      2.00000
     45     -39.2454      2.00000
     46     -39.2454      2.00000
     47     -39.2453      2.00000
     48     -39.2453      2.00000
     49     -39.2453      2.00000
     50     -39.2453      2.00000
     51     -39.2453      2.00000
     52     -39.2453      2.00000
     53     -39.2453      2.00000
     54     -39.2453      2.00000
     55     -39.2453      2.00000
     56     -39.2453      2.00000
     57     -39.2245      2.00000
     58     -39.2245      2.00000
     59     -39.2245      2.00000
     60     -39.2245      2.00000
     61     -39.2245      2.00000
     62     -39.2245      2.00000
     63     -39.2245      2.00000
     64     -39.2245      2.00000
     65     -39.2081      2.00000
     66     -39.2081      2.00000
     67     -39.2081      2.00000
     68     -39.2081      2.00000
     69     -39.2081      2.00000
     70     -39.2081      2.00000
     71     -39.2081      2.00000
     72     -39.2081      2.00000
     73     -39.2060      2.00000
     74     -39.2060      2.00000
     75     -39.2060      2.00000
     76     -39.2060      2.00000
     77     -39.2060      2.00000
     78     -39.2060      2.00000
     79     -39.2060      2.00000
     80     -39.2060      2.00000
     81     -39.2060      2.00000
     82     -39.2060      2.00000
     83     -39.2060      2.00000
     84     -39.2060      2.00000
     85     -39.2059      2.00000
     86     -39.2059      2.00000
     87     -39.2059      2.00000
     88     -39.2059      2.00000
     89     -39.2059      2.00000
     90     -39.2059      2.00000
     91     -39.2059      2.00000
     92     -39.2059      2.00000
     93     -39.2059      2.00000
     94     -39.2059      2.00000
     95     -39.2059      2.00000
     96     -39.2059      2.00000
     97     -39.1876      2.00000
     98     -39.1876      2.00000
     99     -39.1875      2.00000
    100     -39.1875      2.00000
    101     -39.1875      2.00000
    102     -39.1875      2.00000
    103     -39.1875      2.00000
    104     -39.1875      2.00000
    105     -39.1875      2.00000
    106     -39.1875      2.00000
    107     -39.1875      2.00000
    108     -39.1875      2.00000
    109     -39.1874      2.00000
    110     -39.1874      2.00000
    111     -39.1874      2.00000
    112     -39.1874      2.00000
    113     -39.1874      2.00000
    114     -39.1874      2.00000
    115     -39.1874      2.00000
    116     -39.1874      2.00000
    117     -39.1874      2.00000
    118     -39.1874      2.00000
    119     -39.1873      2.00000
    120     -39.1873      2.00000
    121     -39.1289      2.00000
    122     -39.1289      2.00000
    123     -39.1288      2.00000
    124     -39.1288      2.00000
    125     -39.1288      2.00000
    126     -39.1287      2.00000
    127     -39.1287      2.00000
    128     -39.1287      2.00000
    129     -17.8482      2.00000
    130     -17.8482      2.00000
    131     -17.8482      2.00000
    132     -17.8482      2.00000
    133     -17.8482      2.00000
    134     -17.8482      2.00000
    135     -17.8482      2.00000
    136     -17.8482      2.00000
    137     -17.8482      2.00000
    138     -17.8482      2.00000
    139     -17.8482      2.00000
    140     -17.8482      2.00000
    141     -17.8481      2.00000
    142     -17.8481      2.00000
    143     -17.8481      2.00000
    144     -17.8481      2.00000
    145     -17.8481      2.00000
    146     -17.8481      2.00000
    147     -17.8481      2.00000
    148     -17.8481      2.00000
    149     -17.8481      2.00000
    150     -17.8481      2.00000
    151     -17.8481      2.00000
    152     -17.8481      2.00000
    153     -17.7739      2.00000
    154     -17.7739      2.00000
    155     -17.7739      2.00000
    156     -17.7739      2.00000
    157     -17.7739      2.00000
    158     -17.7739      2.00000
    159     -17.7739      2.00000
    160     -17.7739      2.00000
    161     -17.7739      2.00000
    162     -17.7739      2.00000
    163     -17.7739      2.00000
    164     -17.7739      2.00000
    165     -17.7738      2.00000
    166     -17.7738      2.00000
    167     -17.7738      2.00000
    168     -17.7738      2.00000
    169     -17.7738      2.00000
    170     -17.7738      2.00000
    171     -17.7738      2.00000
    172     -17.7738      2.00000
    173     -17.7738      2.00000
    174     -17.7738      2.00000
    175     -17.7738      2.00000
    176     -17.7738      2.00000
    177     -17.7045      2.00000
    178     -17.7045      2.00000
    179     -17.7045      2.00000
    180     -17.7045      2.00000
    181     -17.7045      2.00000
    182     -17.7045      2.00000
    183     -17.7045      2.00000
    184     -17.7045      2.00000
    185     -17.6915      2.00000
    186     -17.6915      2.00000
    187     -17.6915      2.00000
    188     -17.6915      2.00000
    189     -17.6915      2.00000
    190     -17.6915      2.00000
    191     -17.6914      2.00000
    192     -17.6914      2.00000
    193     -17.6914      2.00000
    194     -17.6914      2.00000
    195     -17.6914      2.00000
    196     -17.6914      2.00000
    197     -17.6914      2.00000
    198     -17.6914      2.00000
    199     -17.6914      2.00000
    200     -17.6914      2.00000
    201     -17.6914      2.00000
    202     -17.6914      2.00000
    203     -17.6914      2.00000
    204     -17.6914      2.00000
    205     -17.6914      2.00000
    206     -17.6913      2.00000
    207     -17.6913      2.00000
    208     -17.6913      2.00000
    209     -17.6210      2.00000
    210     -17.6210      2.00000
    211     -17.6210      2.00000
    212     -17.6210      2.00000
    213     -17.6209      2.00000
    214     -17.6209      2.00000
    215     -17.6209      2.00000
    216     -17.6209      2.00000
    217     -17.6209      2.00000
    218     -17.6209      2.00000
    219     -17.6208      2.00000
    220     -17.6208      2.00000
    221     -17.6208      2.00000
    222     -17.6208      2.00000
    223     -17.6208      2.00000
    224     -17.6208      2.00000
    225     -17.5782      2.00000
    226     -17.5782      2.00000
    227     -17.5782      2.00000
    228     -17.5782      2.00000
    229     -17.5782      2.00000
    230     -17.5782      2.00000
    231     -17.5782      2.00000
    232     -17.5782      2.00000
    233     -17.5782      2.00000
    234     -17.5782      2.00000
    235     -17.5782      2.00000
    236     -17.5782      2.00000
    237     -17.5782      2.00000
    238     -17.5782      2.00000
    239     -17.5782      2.00000
    240     -17.5782      2.00000
    241     -17.4863      2.00000
    242     -17.4863      2.00000
    243     -17.4863      2.00000
    244     -17.4863      2.00000
    245     -17.4863      2.00000
    246     -17.4863      2.00000
    247     -17.4863      2.00000
    248     -17.4863      2.00000
    249     -17.4863      2.00000
    250     -17.4863      2.00000
    251     -17.4863      2.00000
    252     -17.4863      2.00000
    253     -17.4863      2.00000
    254     -17.4863      2.00000
    255     -17.4863      2.00000
    256     -17.4863      2.00000
    257     -17.4863      2.00000
    258     -17.4863      2.00000
    259     -17.4862      2.00000
    260     -17.4862      2.00000
    261     -17.4862      2.00000
    262     -17.4862      2.00000
    263     -17.4862      2.00000
    264     -17.4862      2.00000
    265     -17.4121      2.00000
    266     -17.4121      2.00000
    267     -17.4121      2.00000
    268     -17.4121      2.00000
    269     -17.4120      2.00000
    270     -17.4120      2.00000
    271     -17.4120      2.00000
    272     -17.4120      2.00000
    273     -17.4086      2.00000
    274     -17.4086      2.00000
    275     -17.4086      2.00000
    276     -17.4086      2.00000
    277     -17.4086      2.00000
    278     -17.4086      2.00000
    279     -17.4086      2.00000
    280     -17.4086      2.00000
    281     -17.4086      2.00000
    282     -17.4086      2.00000
    283     -17.4086      2.00000
    284     -17.4086      2.00000
    285     -17.4086      2.00000
    286     -17.4086      2.00000
    287     -17.4086      2.00000
    288     -17.4086      2.00000
    289     -17.4086      2.00000
    290     -17.4086      2.00000
    291     -17.4086      2.00000
    292     -17.4086      2.00000
    293     -17.4086      2.00000
    294     -17.4086      2.00000
    295     -17.4086      2.00000
    296     -17.4086      2.00000
    297     -17.3315      2.00000
    298     -17.3315      2.00000
    299     -17.3315      2.00000
    300     -17.3315      2.00000
    301     -17.3315      2.00000
    302     -17.3315      2.00000
    303     -17.3315      2.00000
    304     -17.3314      2.00000
    305     -17.3314      2.00000
    306     -17.3314      2.00000
    307     -17.3314      2.00000
    308     -17.3314      2.00000
    309     -17.3314      2.00000
    310     -17.3314      2.00000
    311     -17.3314      2.00000
    312     -17.3314      2.00000
    313     -17.3314      2.00000
    314     -17.3314      2.00000
    315     -17.3314      2.00000
    316     -17.3314      2.00000
    317     -17.3314      2.00000
    318     -17.3314      2.00000
    319     -17.3314      2.00000
    320     -17.3314      2.00000
    321     -17.1956      2.00000
    322     -17.1956      2.00000
    323     -17.1956      2.00000
    324     -17.1956      2.00000
    325     -17.1956      2.00000
    326     -17.1956      2.00000
    327     -17.1956      2.00000
    328     -17.1956      2.00000
    329     -17.1956      2.00000
    330     -17.1956      2.00000
    331     -17.1956      2.00000
    332     -17.1956      2.00000
    333     -17.1956      2.00000
    334     -17.1956      2.00000
    335     -17.1956      2.00000
    336     -17.1956      2.00000
    337     -17.1813      2.00000
    338     -17.1813      2.00000
    339     -17.1813      2.00000
    340     -17.1813      2.00000
    341     -17.1813      2.00000
    342     -17.1813      2.00000
    343     -17.1813      2.00000
    344     -17.1813      2.00000
    345     -17.1813      2.00000
    346     -17.1813      2.00000
    347     -17.1813      2.00000
    348     -17.1813      2.00000
    349     -17.1813      2.00000
    350     -17.1813      2.00000
    351     -17.1813      2.00000
    352     -17.1813      2.00000
    353     -17.1813      2.00000
    354     -17.1813      2.00000
    355     -17.1812      2.00000
    356     -17.1812      2.00000
    357     -17.1812      2.00000
    358     -17.1812      2.00000
    359     -17.1812      2.00000
    360     -17.1812      2.00000
    361     -17.1792      2.00000
    362     -17.1792      2.00000
    363     -17.1792      2.00000
    364     -17.1792      2.00000
    365     -17.1792      2.00000
    366     -17.1792      2.00000
    367     -17.1792      2.00000
    368     -17.1792      2.00000
    369     -17.1792      2.00000
    370     -17.1792      2.00000
    371     -17.1792      2.00000
    372     -17.1792      2.00000
    373     -17.1792      2.00000
    374     -17.1792      2.00000
    375     -17.1792      2.00000
    376     -17.1792      2.00000
    377     -17.1792      2.00000
    378     -17.1792      2.00000
    379     -17.1792      2.00000
    380     -17.1791      2.00000
    381     -17.1791      2.00000
    382     -17.1791      2.00000
    383     -17.1791      2.00000
    384     -17.1791      2.00000
    385     -17.1343      2.00000
    386     -17.1343      2.00000
    387     -17.1343      2.00000
    388     -17.1343      2.00000
    389     -17.1343      2.00000
    390     -17.1343      2.00000
    391     -17.1343      2.00000
    392     -17.1342      2.00000
    393     -17.1134      2.00000
    394     -17.1134      2.00000
    395     -17.1134      2.00000
    396     -17.1134      2.00000
    397     -17.1134      2.00000
    398     -17.1134      2.00000
    399     -17.1134      2.00000
    400     -17.1134      2.00000
    401     -17.1134      2.00000
    402     -17.1134      2.00000
    403     -17.1134      2.00000
    404     -17.1134      2.00000
    405     -17.1134      2.00000
    406     -17.1134      2.00000
    407     -17.1134      2.00000
    408     -17.1134      2.00000
    409     -17.1134      2.00000
    410     -17.1134      2.00000
    411     -17.1134      2.00000
    412     -17.1134      2.00000
    413     -17.1134      2.00000
    414     -17.1134      2.00000
    415     -17.1134      2.00000
    416     -17.1134      2.00000
    417     -17.0589      2.00000
    418     -17.0589      2.00000
    419     -17.0589      2.00000
    420     -17.0589      2.00000
    421     -17.0589      2.00000
    422     -17.0589      2.00000
    423     -17.0589      2.00000
    424     -17.0589      2.00000
    425     -16.9928      2.00000
    426     -16.9928      2.00000
    427     -16.9928      2.00000
    428     -16.9928      2.00000
    429     -16.9928      2.00000
    430     -16.9928      2.00000
    431     -16.9928      2.00000
    432     -16.9928      2.00000
    433     -16.9928      2.00000
    434     -16.9928      2.00000
    435     -16.9928      2.00000
    436     -16.9928      2.00000
    437     -16.9928      2.00000
    438     -16.9928      2.00000
    439     -16.9928      2.00000
    440     -16.9928      2.00000
    441     -16.9928      2.00000
    442     -16.9928      2.00000
    443     -16.9927      2.00000
    444     -16.9927      2.00000
    445     -16.9927      2.00000
    446     -16.9927      2.00000
    447     -16.9927      2.00000
    448     -16.9927      2.00000
    449     -16.9769      2.00000
    450     -16.9769      2.00000
    451     -16.9769      2.00000
    452     -16.9769      2.00000
    453     -16.9769      2.00000
    454     -16.9769      2.00000
    455     -16.9769      2.00000
    456     -16.9769      2.00000
    457     -16.9769      2.00000
    458     -16.9769      2.00000
    459     -16.9769      2.00000
    460     -16.9769      2.00000
    461     -16.9769      2.00000
    462     -16.9769      2.00000
    463     -16.9768      2.00000
    464     -16.9768      2.00000
    465     -16.9768      2.00000
    466     -16.9768      2.00000
    467     -16.9768      2.00000
    468     -16.9768      2.00000
    469     -16.9768      2.00000
    470     -16.9768      2.00000
    471     -16.9768      2.00000
    472     -16.9768      2.00000
    473     -16.9264      2.00000
    474     -16.9264      2.00000
    475     -16.9264      2.00000
    476     -16.9264      2.00000
    477     -16.9264      2.00000
    478     -16.9264      2.00000
    479     -16.9263      2.00000
    480     -16.9263      2.00000
    481     -16.9263      2.00000
    482     -16.9263      2.00000
    483     -16.9263      2.00000
    484     -16.9263      2.00000
    485     -16.9263      2.00000
    486     -16.9263      2.00000
    487     -16.9263      2.00000
    488     -16.9263      2.00000
    489     -16.9263      2.00000
    490     -16.9263      2.00000
    491     -16.9263      2.00000
    492     -16.9263      2.00000
    493     -16.9263      2.00000
    494     -16.9263      2.00000
    495     -16.9262      2.00000
    496     -16.9262      2.00000
    497     -16.9102      2.00000
    498     -16.9102      2.00000
    499     -16.9102      2.00000
    500     -16.9102      2.00000
    501     -16.9101      2.00000
    502     -16.9101      2.00000
    503     -16.9101      2.00000
    504     -16.9101      2.00000
    505     -16.9101      2.00000
    506     -16.9101      2.00000
    507     -16.9100      2.00000
    508     -16.9100      2.00000
    509     -16.9100      2.00000
    510     -16.9100      2.00000
    511     -16.9100      2.00000
    512     -16.9100      2.00000
    513       4.4321      2.00000
    514       4.4321      2.00000
    515       4.4322      2.00000
    516       4.4322      2.00000
    517       4.4323      2.00000
    518       4.4323      2.00000
    519       4.4323      2.00000
    520       4.4324      2.00000
    521       6.0176      2.00000
    522       6.0176      2.00000
    523       6.0176      2.00000
    524       6.0176      2.00000
    525       6.0177      2.00000
    526       6.0177      2.00000
    527       6.0177      2.00000
    528       6.0177      2.00000
    529       6.0177      2.00000
    530       6.0177      2.00000
    531       6.0177      2.00000
    532       6.0177      2.00000
    533       6.0177      2.00000
    534       6.0178      2.00000
    535       6.0178      2.00000
    536       6.0178      2.00000
    537       6.0178      2.00000
    538       6.0178      2.00000
    539       6.0178      2.00000
    540       6.0178      2.00000
    541       6.0178      2.00000
    542       6.0178      2.00000
    543       6.0178      2.00000
    544       6.0178      2.00000
    545       6.4483      2.00000
    546       6.4483      2.00000
    547       6.4483      2.00000
    548       6.4483      2.00000
    549       6.4483      2.00000
    550       6.4483      2.00000
    551       6.4483      2.00000
    552       6.4483      2.00000
    553       6.4483      2.00000
    554       6.4483      2.00000
    555       6.4483      2.00000
    556       6.4483      2.00000
    557       6.4484      2.00000
    558       6.4484      2.00000
    559       6.4484      2.00000
    560       6.4484      2.00000
    561       6.4484      2.00000
    562       6.4484      2.00000
    563       6.4484      2.00000
    564       6.4484      2.00000
    565       6.4484      2.00000
    566       6.4484      2.00000
    567       6.4484      2.00000
    568       6.4484      2.00000
    569       6.8558      2.00000
    570       6.8558      2.00000
    571       6.8558      2.00000
    572       6.8558      2.00000
    573       6.8558      2.00000
    574       6.8558      2.00000
    575       6.8558      2.00000
    576       6.8558      2.00000
    577       6.8558      2.00000
    578       6.8558      2.00000
    579       6.8558      2.00000
    580       6.8558      2.00000
    581       6.8558      2.00000
    582       6.8558      2.00000
    583       6.8558      2.00000
    584       6.8559      2.00000
    585       6.8559      2.00000
    586       6.8559      2.00000
    587       6.8559      2.00000
    588       6.8559      2.00000
    589       6.8559      2.00000
    590       6.8559      2.00000
    591       6.8559      2.00000
    592       6.8559      2.00000
    593       6.9089      2.00000
    594       6.9089      2.00000
    595       6.9089      2.00000
    596       6.9089      2.00000
    597       6.9090      2.00000
    598       6.9090      2.00000
    599       6.9090      2.00000
    600       6.9090      2.00000
    601       6.9090      2.00000
    602       6.9090      2.00000
    603       6.9091      2.00000
    604       6.9091      2.00000
    605       6.9091      2.00000
    606       6.9091      2.00000
    607       6.9091      2.00000
    608       6.9091      2.00000
    609       7.4873      2.00000
    610       7.4873      2.00000
    611       7.4873      2.00000
    612       7.4873      2.00000
    613       7.4873      2.00000
    614       7.4873      2.00000
    615       7.4873      2.00000
    616       7.4873      2.00000
    617       7.4873      2.00000
    618       7.4873      2.00000
    619       7.4873      2.00000
    620       7.4873      2.00000
    621       7.4874      2.00000
    622       7.4874      2.00000
    623       7.4874      2.00000
    624       7.4874      2.00000
    625       7.4874      2.00000
    626       7.4874      2.00000
    627       7.4874      2.00000
    628       7.4874      2.00000
    629       7.4874      2.00000
    630       7.4874      2.00000
    631       7.4875      2.00000
    632       7.4875      2.00000
    633       7.6807      2.00000
    634       7.6807      2.00000
    635       7.6807      2.00000
    636       7.6807      2.00000
    637       7.6807      2.00000
    638       7.6807      2.00000
    639       7.6807      2.00000
    640       7.6807      2.00000
    641       7.8435      2.00000
    642       7.8435      2.00000
    643       7.8435      2.00000
    644       7.8436      2.00000
    645       7.8436      2.00000
    646       7.8436      2.00000
    647       7.8436      2.00000
    648       7.8436      2.00000
    649       7.8436      2.00000
    650       7.8436      2.00000
    651       7.8436      2.00000
    652       7.8436      2.00000
    653       7.8436      2.00000
    654       7.8437      2.00000
    655       7.8437      2.00000
    656       7.8437      2.00000
    657       7.8437      2.00000
    658       7.8437      2.00000
    659       7.8437      2.00000
    660       7.8437      2.00000
    661       7.8437      2.00000
    662       7.8437      2.00000
    663       7.8437      2.00000
    664       7.8437      2.00000
    665       8.1532      2.00000
    666       8.1532      2.00000
    667       8.1532      2.00000
    668       8.1532      2.00000
    669       8.1532      2.00000
    670       8.1532      2.00000
    671       8.1532      2.00000
    672       8.1532      2.00000
    673       8.2733      2.00000
    674       8.2733      2.00000
    675       8.2733      2.00000
    676       8.2733      2.00000
    677       8.2733      2.00000
    678       8.2733      2.00000
    679       8.2733      2.00000
    680       8.2733      2.00000
    681       8.2733      2.00000
    682       8.2733      2.00000
    683       8.2733      2.00000
    684       8.2733      2.00000
    685       8.2733      2.00000
    686       8.2733      2.00000
    687       8.2733      2.00000
    688       8.2733      2.00000
    689       8.4570      2.00036
    690       8.4570      2.00036
    691       8.4570      2.00036
    692       8.4570      2.00036
    693       8.4571      2.00036
    694       8.4571      2.00036
    695       8.4571      2.00036
    696       8.4571      2.00036
    697       8.4571      2.00036
    698       8.4571      2.00036
    699       8.4571      2.00036
    700       8.4571      2.00036
    701       8.4571      2.00036
    702       8.4571      2.00036
    703       8.4571      2.00036
    704       8.4571      2.00036
    705       8.4571      2.00036
    706       8.4571      2.00036
    707       8.4571      2.00036
    708       8.4571      2.00036
    709       8.4572      2.00036
    710       8.4572      2.00036
    711       8.4572      2.00036
    712       8.4572      2.00037
    713       8.6562      2.02297
    714       8.6562      2.02297
    715       8.6562      2.02298
    716       8.6562      2.02298
    717       8.6562      2.02298
    718       8.6563      2.02298
    719       8.6563      2.02299
    720       8.6563      2.02299
    721       8.6563      2.02299
    722       8.6563      2.02299
    723       8.6563      2.02299
    724       8.6563      2.02299
    725       8.6563      2.02300
    726       8.6563      2.02300
    727       8.6563      2.02300
    728       8.6563      2.02300
    729       8.6563      2.02300
    730       8.6563      2.02300
    731       8.6563      2.02301
    732       8.6563      2.02301
    733       8.6563      2.02301
    734       8.6563      2.02301
    735       8.6563      2.02301
    736       8.6563      2.02301
    737       8.7290      2.05369
    738       8.7290      2.05369
    739       8.7290      2.05370
    740       8.7290      2.05370
    741       8.7290      2.05370
    742       8.7290      2.05370
    743       8.7290      2.05370
    744       8.7290      2.05370
    745       8.7290      2.05370
    746       8.7290      2.05370
    747       8.7290      2.05370
    748       8.7290      2.05370
    749       8.7291      2.05370
    750       8.7291      2.05370
    751       8.7291      2.05370
    752       8.7291      2.05370
    753       9.0396      0.94067
    754       9.0396      0.94065
    755       9.0396      0.94056
    756       9.0396      0.94055
    757       9.0397      0.94050
    758       9.0397      0.94047
    759       9.0397      0.94041
    760       9.0397      0.94039
    761       9.0397      0.94039
    762       9.0397      0.94033
    763       9.0397      0.94029
    764       9.0397      0.94023
    765       9.0397      0.94015
    766       9.0397      0.94008
    767       9.0397      0.94005
    768       9.0397      0.94001
    769       9.0397      0.93999
    770       9.0397      0.93998
    771       9.0397      0.93991
    772       9.0397      0.93989
    773       9.0397      0.93982
    774       9.0397      0.93981
    775       9.0397      0.93973
    776       9.0397      0.93971
    777       9.4285     -0.01708
    778       9.4285     -0.01708
    779       9.4285     -0.01707
    780       9.4285     -0.01707
    781       9.4285     -0.01707
    782       9.4285     -0.01707
    783       9.4285     -0.01707
    784       9.4285     -0.01707
    785       9.4285     -0.01707
    786       9.4285     -0.01707
    787       9.4285     -0.01707
    788       9.4285     -0.01707
    789       9.4286     -0.01706
    790       9.4286     -0.01706
    791       9.4286     -0.01706
    792       9.4286     -0.01706
    793       9.4286     -0.01706
    794       9.4286     -0.01706
    795       9.4286     -0.01706
    796       9.4286     -0.01706
    797       9.4286     -0.01706
    798       9.4286     -0.01705
    799       9.4286     -0.01705
    800       9.4286     -0.01705
    801       9.4312     -0.01636
    802       9.4312     -0.01636
    803       9.4312     -0.01636
    804       9.4312     -0.01635
    805       9.4312     -0.01635
    806       9.4312     -0.01635
    807       9.4312     -0.01635
    808       9.4313     -0.01634
    809       9.4313     -0.01634
    810       9.4313     -0.01634
    811       9.4313     -0.01634
    812       9.4313     -0.01634
    813       9.4313     -0.01634
    814       9.4313     -0.01634
    815       9.4313     -0.01633
    816       9.4313     -0.01633
    817       9.4313     -0.01633
    818       9.4313     -0.01633
    819       9.4313     -0.01633
    820       9.4313     -0.01633
    821       9.4313     -0.01632
    822       9.4313     -0.01632
    823       9.4313     -0.01632
    824       9.4313     -0.01632
    825       9.5288     -0.00252
    826       9.5288     -0.00252
    827       9.5288     -0.00252
    828       9.5288     -0.00252
    829       9.5288     -0.00252
    830       9.5288     -0.00252
    831       9.5288     -0.00252
    832       9.5288     -0.00252
    833       9.5288     -0.00252
    834       9.5288     -0.00252
    835       9.5288     -0.00252
    836       9.5288     -0.00252
    837       9.5288     -0.00252
    838       9.5288     -0.00252
    839       9.5289     -0.00252
    840       9.5289     -0.00252
    841       9.5289     -0.00252
    842       9.5289     -0.00252
    843       9.5289     -0.00252
    844       9.5289     -0.00252
    845       9.5289     -0.00252
    846       9.5289     -0.00252
    847       9.5289     -0.00252
    848       9.5289     -0.00252
    849       9.7027     -0.00002
    850       9.7027     -0.00002
    851       9.7027     -0.00002
    852       9.7027     -0.00002
    853       9.7028     -0.00002
    854       9.7028     -0.00002
    855       9.7028     -0.00002
    856       9.7028     -0.00002
    857       9.7028     -0.00002
    858       9.7028     -0.00002
    859       9.7029     -0.00002
    860       9.7029     -0.00002
    861       9.7029     -0.00002
    862       9.7029     -0.00002
    863       9.7029     -0.00002
    864       9.7029     -0.00002
    865       9.8914     -0.00000
    866       9.8914     -0.00000
    867       9.8914     -0.00000
    868       9.8914     -0.00000
    869       9.8914     -0.00000
    870       9.8914     -0.00000
    871       9.8914     -0.00000
    872       9.8914     -0.00000
    873       9.8914     -0.00000
    874       9.8914     -0.00000
    875       9.8914     -0.00000
    876       9.8914     -0.00000
    877       9.8914     -0.00000
    878       9.8914     -0.00000
    879       9.8914     -0.00000
    880       9.8914     -0.00000
    881       9.8914     -0.00000
    882       9.8914     -0.00000
    883       9.8914     -0.00000
    884       9.8914     -0.00000
    885       9.8914     -0.00000
    886       9.8914     -0.00000
    887       9.8915     -0.00000
    888       9.8915     -0.00000
    889      11.1027     -0.00000
    890      11.1027     -0.00000
    891      11.1027     -0.00000
    892      11.1027     -0.00000
    893      11.1027     -0.00000
    894      11.1027     -0.00000
    895      11.1027     -0.00000
    896      11.1028     -0.00000
    897      11.3366     -0.00000
    898      11.3366     -0.00000
    899      11.3366     -0.00000
    900      11.3366     -0.00000
    901      11.3366     -0.00000
    902      11.3366     -0.00000
    903      11.3366     -0.00000
    904      11.3366     -0.00000
    905      11.3366     -0.00000
    906      11.3367     -0.00000
    907      11.3367     -0.00000
    908      11.3367     -0.00000
    909      11.3367     -0.00000
    910      11.3367     -0.00000
    911      11.3367     -0.00000
    912      11.3367     -0.00000
    913      11.3367     -0.00000
    914      11.3367     -0.00000
    915      11.3367     -0.00000
    916      11.3367     -0.00000
    917      11.3367     -0.00000
    918      11.3367     -0.00000
    919      11.3367     -0.00000
    920      11.3367     -0.00000
    921      11.4730     -0.00000
    922      11.4730     -0.00000
    923      11.4730     -0.00000
    924      11.4730     -0.00000


--------------------------------------------------------------------------------------------------------


 soft charge-density along one line, spin component            1
         0         1         2         3         4         5         6         7         8         9
 total charge-density along one line
 
 pseudopotential strength for first ion, spin component:            1
 13.210 -25.594   0.000   0.000  -0.000  -0.000  -0.000   0.000
-25.594  13.401   0.000   0.000  -0.000  -0.000  -0.000   0.000
  0.000   0.000  -6.259   0.000  -0.000   4.841  -0.000   0.000
  0.000   0.000   0.000  -6.259  -0.000  -0.000   4.841   0.000
 -0.000  -0.000  -0.000  -0.000  -6.259   0.000   0.000   4.841
 -0.000  -0.000   4.841  -0.000   0.000   8.549   0.000  -0.000
 -0.000  -0.000  -0.000   4.841   0.000   0.000   8.549  -0.000
  0.000   0.000   0.000   0.000   4.841  -0.000  -0.000   8.549
 -0.000  -0.000  -0.000   0.000   0.000   0.000  -0.000  -0.000
  0.000   0.000   0.000   0.000   0.000  -0.000  -0.000  -0.000
 -0.000  -0.000  -0.000   0.000   0.000   0.000  -0.000  -0.000
 -0.000  -0.000   0.000  -0.000   0.000  -0.000   0.000  -0.000
  0.000   0.000  -0.000  -0.000  -0.000   0.000   0.000   0.000
 -0.000  -0.000  -0.000   0.000   0.000   0.000  -0.000  -0.000
  0.000   0.000   0.000   0.000   0.000  -0.000  -0.000  -0.000
 -0.000  -0.000  -0.000   0.000   0.000   0.000  -0.000  -0.000
 -0.000  -0.000   0.000  -0.000   0.000  -0.000   0.000  -0.000
  0.000   0.000  -0.000  -0.000  -0.000   0.000   0.000   0.000
 total augmentation occupancy for first ion, spin component:            1
  1.998  -0.025   0.000   0.000  -0.000   0.000   0.000   0.000  -0.000  -0.000  -0.000  -0.000   0.000   0.000   0.000   0.000
 -0.025   1.428  -0.000   0.000  -0.000   0.000   0.000   0.000  -0.000  -0.000  -0.000  -0.000   0.000   0.000   0.000   0.000
  0.000  -0.000   2.001  -0.000  -0.000  -0.022   0.000   0.000  -0.000   0.000   0.000  -0.000   0.000  -0.000  -0.000   0.000
  0.000   0.000  -0.000   2.001  -0.000   0.000  -0.022   0.000  -0.000   0.000  -0.000  -0.000   0.000   0.000  -0.000   0.000
 -0.000  -0.000  -0.000  -0.000   2.001   0.000   0.000  -0.022  -0.000   0.000  -0.000  -0.000  -0.000  -0.000   0.000  -0.000
  0.000   0.000  -0.022   0.000   0.000   0.033  -0.000  -0.000  -0.000  -0.000  -0.000  -0.000   0.000  -0.000   0.000  -0.000
  0.000   0.000   0.000  -0.022   0.000  -0.000   0.033  -0.000  -0.000  -0.000  -0.000  -0.000  -0.000  -0.000   0.000  -0.000
  0.000   0.000   0.000   0.000  -0.022  -0.000  -0.000   0.033  -0.000  -0.000   0.000  -0.000   0.000  -0.000  -0.000  -0.000
 -0.000  -0.000  -0.000  -0.000   0.000  -0.000  -0.000   0.000   3.540  -0.000   0.000  -0.000   0.000  -1.758   0.000  -0.000
 -0.000  -0.000   0.000   0.000  -0.000   0.000  -0.000  -0.000  -0.000   3.540  -0.000  -0.000   0.000   0.000  -1.758   0.000
 -0.000  -0.000   0.000  -0.000  -0.000   0.000  -0.000  -0.000   0.000  -0.000   3.790  -0.000  -0.000  -0.000   0.000  -1.969
 -0.000  -0.000  -0.000   0.000   0.000  -0.000  -0.000  -0.000  -0.000  -0.000  -0.000   3.540  -0.000   0.000   0.000   0.000
  0.000   0.000  -0.000   0.000  -0.000   0.000   0.000   0.000   0.000   0.000  -0.000  -0.000   3.790  -0.000  -0.000   0.000
  0.000   0.000  -0.000   0.000  -0.000  -0.000  -0.000  -0.000  -1.758   0.000  -0.000   0.000  -0.000   0.888  -0.000   0.000
  0.000   0.000  -0.000  -0.000   0.000   0.000   0.000  -0.000   0.000  -1.758   0.000   0.000  -0.000  -0.000   0.888  -0.000
  0.000   0.000   0.000   0.000  -0.000  -0.000   0.000  -0.000  -0.000   0.000  -1.969   0.000   0.000   0.000  -0.000   1.029
  0.000   0.000   0.000  -0.000  -0.000   0.000   0.000   0.000   0.000   0.000   0.000  -1.758   0.000  -0.000  -0.000  -0.000
 -0.000  -0.000  -0.000   0.000  -0.000  -0.000  -0.000  -0.000  -0.000  -0.000   0.000   0.000  -1.969   0.000   0.000  -0.000


------------------------ aborting loop because EDIFF is reached ----------------------------------------


    CHARGE:  cpu time      0.5357: real time      0.3852
    FORLOC:  cpu time      0.0160: real time      0.0018
    FORNL :  cpu time      1.0000: real time      0.7570
    STRESS:  cpu time      2.5105: real time      1.9000
    FORCOR:  cpu time      0.0375: real time      0.0086
    FORHAR:  cpu time      0.0025: real time      0.0024
    MIXING:  cpu time      0.0570: real time      0.0059
    OFIELD:  cpu time      0.0002: real time      0.0000

  FORCE on cell =-STRESS in cart. coord.  units (eV):
  Direction    XX          YY          ZZ          XY          YZ          ZX
  --------------------------------------------------------------------------------------
  Alpha Z  7508.67030  7508.67030  7508.67030
  Ewald  -45160.66547-45160.66519-45160.66532     0.00231     0.00015     0.00225
  Hartree  8967.15113  8967.15055  8967.15082    -0.00015    -0.00001    -0.00015
  E(xc)   -6524.22751 -6524.22753 -6524.22752    -0.00002    -0.00000    -0.00002
  Local    7226.84706  7226.84920  7226.84821     0.00031     0.00002     0.00030
  n-local -1985.12021 -2006.55865 -2026.25674    -0.00034    -0.00002    -0.00036
  augment   281.31823   281.31814   281.31818    -0.00010    -0.00001    -0.00010
  Kinetic 29670.55297 29692.75263 29753.99851     0.00050     0.00004     0.00054
  Fock        0.00000     0.00000     0.00000     0.00000     0.00000     0.00000
  -------------------------------------------------------------------------------------
  Total      -1.11587    -1.11587    -1.11587     0.00000     0.00000     0.00000
  in kB      -0.61667    -0.61667    -0.61667     0.00000     0.00000     0.00000
  external pressure =       -0.62 kB  Pullay stress =        0.00 kB


 VOLUME and BASIS-vectors are now :
 -----------------------------------------------------------------------------
  energy-cutoff  :      350.00
  volume of cell :     2899.16
      direct lattice vectors                 reciprocal lattice vectors
    14.259055673 -0.000000592 -0.000000588     0.070130871  0.000000003  0.000000003
    -0.000000601 14.259055125 -0.000000038     0.000000003  0.070130874  0.000000000
    -0.000000574 -0.000000040 14.259055379     0.000000003  0.000000000  0.070130873

  length of vectors
    14.259055673 14.259055125 14.259055379     0.070130871  0.070130874  0.070130873


 FORCES acting on ions
    electron-ion (+dipol)            ewald-force                    non-local-force                 convergence-correction
 -----------------------------------------------------------------------------------------------
   -.274E-03 0.165E-03 0.559E-03   -.388E-03 0.262E-03 0.482E-03   0.919E-22 0.625E-21 0.721E-21   0.324E-06 -.243E-06 -.575E-07
   0.259E-03 -.301E-03 -.107E-03   -.692E-04 -.276E-03 -.187E-03   -.595E-21 0.754E-21 -.953E-21   0.711E-08 0.268E-06 0.996E-07
   -.972E-03 -.267E-02 0.109E-03   -.630E-03 -.134E-02 0.102E-03   -.521E-21 -.267E-21 0.192E-21   0.488E-06 0.326E-06 -.847E-07
   0.162E-02 0.150E-03 0.585E-03   0.105E-02 -.971E-04 0.306E-03   -.555E-21 0.735E-21 0.125E-21   -.445E-06 0.230E-06 -.125E-06
   -.790E-03 0.107E-03 -.196E-03   -.662E-03 0.113E-04 -.114E-04   0.127E-20 0.277E-21 0.414E-21   0.167E-06 -.216E-07 0.332E-07
   -.438E-03 0.438E-04 -.533E-03   -.531E-03 0.632E-04 -.225E-03   0.350E-21 -.103E-22 0.172E-21   0.475E-06 -.613E-07 -.140E-07
   -.155E-02 -.767E-03 -.473E-03   -.105E-02 -.413E-03 -.255E-03   -.822E-21 -.324E-21 -.936E-21   0.434E-06 0.238E-06 -.462E-07
   0.722E-03 0.794E-03 0.798E-03   0.408E-03 0.368E-03 0.375E-03   -.707E-21 0.139E-21 0.596E-21   -.375E-06 -.266E-06 -.671E-07
   0.128E-02 0.503E-03 -.320E-03   0.776E-03 0.380E-03 -.281E-03   -.276E-21 -.605E-21 -.711E-21   -.573E-06 -.281E-06 0.299E-07
   -.472E-03 0.472E-03 0.554E-03   -.132E-03 0.158E-03 0.249E-03   0.168E-21 -.572E-21 -.394E-21   -.445E-07 -.798E-07 -.733E-07
   -.849E-03 -.853E-04 0.394E-04   -.510E-03 -.874E-04 0.682E-04   -.111E-21 -.668E-21 0.627E-21   0.805E-07 0.537E-07 -.867E-07
   -.146E-02 0.371E-03 0.101E-03   -.816E-03 0.455E-03 0.233E-04   0.466E-22 -.189E-20 0.529E-22   0.453E-06 -.174E-06 -.627E-07
   0.159E-02 0.725E-04 0.119E-02   0.645E-03 0.263E-04 0.623E-03   -.822E-21 0.446E-21 0.126E-21   -.372E-06 0.112E-06 -.676E-07
   -.138E-02 -.454E-03 0.191E-03   -.728E-03 -.376E-03 -.102E-03   0.128E-20 -.381E-22 0.639E-21   0.319E-06 0.127E-06 0.138E-07
   0.918E-04 -.566E-03 0.373E-03   -.907E-04 -.295E-03 0.132E-03   0.427E-21 0.811E-22 0.179E-21   -.176E-07 0.293E-06 -.636E-07
   0.842E-04 0.108E-02 0.442E-03   0.255E-03 0.480E-03 0.111E-03   -.626E-21 0.288E-21 -.510E-21   -.933E-07 -.300E-06 -.542E-07
   0.429E-03 0.488E-03 0.184E-03   -.466E-04 0.311E-03 -.930E-05   -.645E-22 0.468E-21 -.133E-21   0.778E-07 -.265E-06 0.164E-07
   -.404E-03 0.648E-04 -.144E-03   -.433E-03 -.709E-04 -.947E-04   0.859E-21 0.120E-20 -.767E-21   0.583E-07 0.100E-06 0.477E-07
   -.250E-03 -.105E-02 -.678E-03   -.461E-04 -.721E-03 -.320E-03   -.574E-21 0.121E-21 -.132E-21   0.315E-06 0.298E-06 -.671E-07
   0.135E-02 -.156E-02 -.416E-03   0.676E-03 -.610E-03 -.286E-03   -.910E-21 0.340E-21 -.102E-20   -.431E-06 0.215E-06 0.465E-07
   -.835E-03 -.176E-02 -.519E-03   -.646E-03 -.882E-03 -.272E-03   0.798E-21 -.950E-21 -.907E-21   0.524E-06 0.303E-06 -.669E-09
   -.204E-02 -.110E-03 -.274E-03   -.123E-02 -.755E-04 -.199E-03   -.186E-22 -.205E-21 -.976E-22   0.512E-06 -.147E-06 0.645E-07
   0.110E-02 0.391E-03 -.559E-04   0.428E-03 0.197E-03 -.220E-04   -.888E-21 -.296E-21 -.367E-21   0.122E-09 -.219E-06 -.446E-07
   0.106E-02 0.285E-03 0.139E-02   0.566E-03 0.248E-03 0.720E-03   -.516E-21 0.404E-21 0.261E-21   -.493E-06 -.730E-07 -.807E-07
   0.104E-02 0.612E-04 -.987E-03   0.788E-03 -.162E-03 -.446E-03   0.642E-21 0.351E-21 0.594E-21   -.559E-06 0.620E-08 0.921E-07
   0.831E-04 0.486E-03 0.798E-03   0.156E-03 0.215E-03 0.474E-03   -.165E-21 -.835E-22 -.349E-21   -.286E-06 0.962E-07 -.824E-07
   0.828E-03 -.406E-04 -.472E-03   0.292E-03 -.108E-04 -.207E-03   -.472E-21 -.481E-21 -.569E-21   0.315E-07 -.222E-07 0.242E-07
   -.138E-02 0.496E-03 0.132E-02   -.857E-03 0.351E-03 0.753E-03   -.837E-21 0.343E-21 0.778E-21   0.543E-06 -.935E-07 -.125E-06
   0.903E-03 -.167E-02 -.725E-03   0.550E-03 -.748E-03 -.384E-03   -.235E-21 -.166E-21 0.151E-22   -.340E-06 0.243E-06 0.701E-07
   0.156E-04 -.174E-02 -.815E-03   0.162E-03 -.915E-03 -.410E-03   0.866E-21 0.128E-20 -.113E-21   -.330E-06 0.303E-06 0.138E-06
   0.498E-03 -.799E-03 -.307E-03   0.340E-03 -.402E-03 0.154E-04   -.863E-21 -.443E-22 0.128E-20   -.578E-07 0.290E-06 -.921E-07
   0.606E-03 -.106E-02 -.203E-03   0.483E-03 -.762E-03 -.298E-03   0.508E-21 0.000E+00 -.667E-21   -.492E-06 0.323E-06 0.681E-07
   0.594E-03 0.179E-02 0.216E-03   0.433E-03 0.849E-03 -.222E-04   0.223E-21 0.415E-21 0.215E-21   -.400E-06 -.217E-06 0.769E-07
   -.223E-03 -.102E-02 -.909E-03   -.227E-03 -.374E-03 -.395E-03   -.706E-23 -.968E-22 0.810E-21   0.384E-06 -.432E-07 0.859E-07
   0.142E-02 -.212E-03 0.100E-03   0.677E-03 -.288E-04 -.214E-04   -.188E-22 0.225E-21 -.913E-21   -.309E-07 -.477E-07 -.293E-07
   -.138E-02 0.492E-04 -.201E-02   -.715E-03 0.172E-03 -.102E-02   0.595E-21 0.125E-21 -.364E-21   0.505E-06 -.890E-07 0.134E-06
   0.100E-02 -.444E-03 -.107E-03   0.586E-03 -.178E-03 0.908E-05   -.170E-20 0.791E-21 -.114E-20   -.381E-06 -.969E-07 -.189E-07
   -.173E-02 0.144E-02 0.238E-03   -.857E-03 0.842E-03 0.169E-03   0.282E-21 -.143E-21 -.893E-22   0.538E-06 -.307E-06 -.862E-07
   -.166E-02 -.575E-03 -.681E-03   -.830E-03 -.428E-03 -.396E-03   0.557E-21 -.434E-21 -.318E-21   0.423E-06 0.251E-06 0.912E-07
   -.215E-02 -.475E-03 -.130E-03   -.999E-03 -.306E-03 -.160E-03   0.599E-21 0.281E-22 0.529E-21   0.610E-06 -.134E-06 0.869E-07
   0.139E-02 -.234E-03 -.112E-02   0.884E-03 -.210E-03 -.740E-03   -.692E-21 0.112E-20 -.218E-21   -.556E-06 0.740E-07 0.116E-06
   -.726E-05 -.149E-02 -.236E-04   -.190E-05 -.751E-03 -.333E-04   0.111E-20 0.993E-22 0.510E-22   -.282E-06 0.223E-06 0.421E-07
   0.148E-02 -.175E-03 0.982E-03   0.733E-03 -.190E-03 0.558E-03   0.446E-21 0.357E-21 -.784E-21   -.410E-06 0.212E-06 -.246E-07
   0.123E-02 0.134E-02 0.227E-03   0.675E-03 0.514E-03 0.236E-03   -.153E-21 0.346E-21 -.129E-21   -.484E-06 0.189E-06 -.876E-07
   -.165E-02 0.190E-03 0.113E-02   -.108E-02 0.274E-03 0.478E-03   0.580E-21 -.199E-21 0.108E-20   0.577E-06 -.115E-06 0.584E-08
   -.332E-03 0.755E-03 -.248E-03   -.209E-03 0.308E-03 -.222E-03   0.572E-21 -.295E-21 -.516E-21   0.356E-06 -.187E-06 0.130E-07
   -.139E-02 -.397E-03 -.769E-03   -.842E-03 -.245E-03 -.342E-03   0.827E-21 -.199E-21 -.261E-21   0.561E-06 -.144E-06 0.662E-07
   -.125E-02 0.880E-03 -.120E-03   -.829E-03 0.340E-03 -.250E-04   0.111E-20 0.364E-21 -.407E-21   0.435E-06 0.434E-07 0.522E-07
   -.815E-03 -.361E-04 -.922E-04   -.398E-03 -.719E-04 0.305E-04   -.116E-21 0.551E-21 -.543E-21   0.538E-07 0.212E-06 -.715E-07
   -.593E-03 -.126E-04 0.277E-03   -.274E-03 0.623E-05 0.203E-03   -.857E-21 -.869E-23 0.136E-21   0.579E-07 0.243E-07 -.209E-07
   0.246E-03 0.491E-03 0.393E-03   0.103E-03 0.216E-03 0.235E-03   -.264E-21 0.462E-21 0.374E-21   0.264E-07 -.207E-06 -.267E-07
   -.684E-03 -.136E-03 -.494E-03   -.606E-03 -.581E-04 -.307E-03   -.180E-21 -.359E-21 -.377E-21   0.396E-06 -.886E-07 0.694E-07
   0.566E-03 0.858E-04 -.378E-03   0.455E-03 0.231E-03 -.161E-03   0.636E-22 0.700E-21 -.960E-22   -.116E-06 -.266E-06 0.751E-07
   0.179E-02 -.116E-02 -.756E-03   0.103E-02 -.514E-03 -.410E-03   -.223E-21 0.433E-21 -.113E-20   -.408E-06 0.273E-06 0.206E-07
   0.133E-02 0.983E-04 -.787E-03   0.620E-03 0.179E-03 -.244E-03   -.229E-21 0.240E-22 -.115E-20   -.390E-06 -.232E-06 -.251E-07
   -.132E-03 -.447E-03 -.340E-03   -.574E-04 -.350E-03 -.184E-03   -.341E-21 0.915E-21 -.953E-21   0.339E-06 0.116E-06 -.395E-08
   -.111E-02 -.518E-03 -.109E-02   -.777E-03 -.452E-03 -.682E-03   0.558E-21 -.308E-21 -.220E-21   0.582E-06 0.118E-06 0.165E-06
   -.190E-02 0.278E-03 -.896E-03   -.965E-03 -.676E-04 -.506E-03   -.579E-21 0.210E-21 -.132E-20   0.576E-06 0.829E-07 0.506E-07
   0.891E-03 0.681E-05 -.377E-03   0.635E-03 0.373E-04 -.222E-03   -.419E-21 -.107E-20 -.610E-21   -.856E-07 0.207E-07 0.950E-07
   -.143E-02 0.117E-02 0.497E-03   -.865E-03 0.749E-03 0.324E-03   0.526E-21 0.562E-21 0.787E-21   0.379E-06 -.299E-06 -.115E-06
   0.348E-03 -.825E-04 0.980E-04   0.439E-03 0.108E-03 0.118E-03   0.893E-22 0.367E-21 0.490E-21   -.465E-06 -.842E-07 -.768E-07
   0.307E-03 0.385E-05 0.949E-03   0.540E-04 -.236E-04 0.412E-03   -.223E-21 0.850E-21 0.695E-22   -.304E-06 0.178E-06 -.105E-06
   0.145E-02 -.116E-03 -.115E-04   0.865E-03 -.856E-04 0.755E-04   0.258E-21 0.453E-21 -.179E-21   -.465E-06 -.121E-06 -.702E-07
   -.106E-02 0.428E-03 0.853E-03   -.666E-03 0.353E-03 0.462E-03   0.618E-21 -.136E-21 -.635E-21   0.394E-06 -.127E-06 -.843E-07
   0.146E-02 0.163E-02 0.661E-03   0.826E-03 0.617E-03 0.205E-03   -.897E-21 0.505E-21 0.887E-21   -.466E-06 -.218E-06 -.131E-07
   0.903E-03 0.366E-03 0.415E-03   0.727E-03 0.361E-03 0.288E-03   0.120E-20 0.960E-22 0.501E-21   -.573E-06 -.109E-07 0.335E-07
   0.109E-02 -.297E-03 -.495E-03   0.703E-03 -.283E-03 -.387E-03   -.926E-21 -.545E-21 -.114E-20   -.530E-06 -.605E-08 0.654E-07
   0.192E-02 0.940E-03 0.441E-03   0.124E-02 0.621E-03 0.811E-04   -.412E-21 0.165E-21 -.824E-21   -.523E-06 -.290E-06 0.391E-07
   -.172E-02 0.295E-03 0.129E-02   -.101E-02 -.639E-04 0.680E-03   0.575E-21 -.105E-20 0.158E-20   0.567E-06 0.825E-07 -.580E-07
   -.564E-03 -.495E-03 0.450E-03   -.369E-03 -.131E-03 0.226E-03   0.142E-21 -.430E-21 -.523E-21   0.107E-06 -.442E-07 -.279E-07
   -.895E-03 -.150E-03 0.166E-02   -.656E-03 -.867E-04 0.801E-03   0.397E-21 -.101E-20 0.424E-21   0.383E-06 0.179E-06 -.127E-06
   0.378E-03 -.667E-03 -.768E-03   0.171E-03 -.353E-03 -.411E-03   0.134E-20 -.139E-21 0.225E-21   -.331E-06 0.211E-06 0.995E-08
   -.169E-02 0.883E-03 0.229E-03   -.881E-03 0.495E-03 -.132E-04   0.403E-21 -.419E-21 -.552E-21   0.545E-06 0.131E-06 0.830E-07
   -.757E-03 0.778E-04 0.211E-03   -.565E-03 0.151E-03 0.185E-03   0.769E-22 -.361E-21 0.986E-21   0.501E-06 0.150E-06 0.235E-08
   0.765E-03 -.147E-02 -.231E-03   0.654E-03 -.700E-03 -.175E-03   0.739E-22 0.557E-21 0.426E-21   -.538E-06 0.109E-06 -.336E-07
   -.412E-03 0.770E-03 -.121E-03   -.420E-03 0.543E-03 0.891E-04   0.697E-21 -.447E-21 0.452E-21   0.346E-06 -.180E-06 -.968E-07
   -.259E-03 0.847E-03 0.517E-03   -.655E-04 0.442E-03 0.231E-03   0.618E-21 0.713E-21 -.248E-21   -.205E-07 -.292E-06 -.761E-07
   0.363E-03 -.142E-03 -.470E-03   0.361E-03 -.180E-03 -.196E-03   0.556E-22 0.108E-21 0.433E-21   -.334E-06 -.114E-06 -.304E-07
   -.102E-02 0.661E-03 -.388E-03   -.644E-03 0.433E-03 -.354E-03   -.849E-22 -.984E-21 -.860E-22   0.349E-06 -.246E-06 0.437E-07
   -.132E-02 0.817E-04 0.157E-03   -.586E-03 0.167E-04 0.105E-03   -.602E-21 -.248E-21 0.382E-21   0.212E-07 -.913E-07 -.668E-07
   0.913E-03 0.179E-03 0.231E-03   0.496E-03 0.711E-04 -.516E-04   -.464E-21 -.194E-21 0.228E-21   -.518E-06 -.214E-06 -.308E-07
   -.869E-03 -.598E-03 -.422E-03   -.591E-03 -.169E-03 -.937E-04   0.651E-21 -.602E-21 0.175E-21   0.769E-07 0.872E-07 0.997E-07
   0.598E-03 0.176E-03 0.105E-03   0.552E-03 0.898E-05 -.461E-04   -.922E-21 0.368E-21 0.387E-21   -.692E-07 0.484E-07 0.126E-07
   0.724E-03 -.277E-03 -.136E-03   0.486E-03 0.579E-04 -.665E-04   -.239E-22 -.125E-20 0.428E-21   -.335E-06 0.120E-06 -.297E-07
   -.287E-03 0.585E-03 -.341E-03   -.347E-03 0.444E-03 -.192E-03   -.265E-21 0.496E-21 -.133E-20   0.104E-06 -.258E-06 0.548E-07
   0.141E-03 0.138E-02 0.618E-03   0.336E-03 0.641E-03 0.256E-03   -.123E-20 -.816E-21 -.652E-21   -.378E-06 -.239E-06 0.125E-08
   -.180E-02 -.438E-03 -.220E-03   -.101E-02 -.334E-03 -.240E-03   0.125E-20 -.827E-24 -.285E-21   0.448E-06 -.319E-07 0.112E-06
   0.765E-03 0.513E-03 0.703E-03   0.578E-03 0.257E-04 0.467E-03   -.708E-22 0.103E-21 0.265E-22   -.516E-06 0.262E-06 -.778E-07
   -.385E-03 0.866E-03 -.879E-03   -.151E-03 0.500E-03 -.475E-03   -.525E-21 -.246E-21 0.199E-21   0.299E-06 0.227E-07 0.117E-06
   0.416E-03 -.759E-03 0.719E-04   0.348E-03 -.496E-03 -.572E-04   -.204E-21 0.348E-21 -.238E-22   -.230E-07 0.259E-06 0.749E-07
   0.113E-02 -.173E-04 0.170E-03   0.440E-03 0.172E-04 0.234E-04   -.547E-21 0.298E-21 -.122E-21   -.356E-06 0.124E-06 -.806E-07
   0.161E-02 0.768E-03 -.332E-03   0.979E-03 0.209E-03 -.161E-03   -.455E-21 -.450E-21 -.754E-21   -.186E-06 -.891E-07 0.706E-07
   0.952E-03 0.528E-03 -.511E-03   0.527E-03 0.284E-03 -.203E-03   0.811E-22 0.609E-21 -.357E-21   -.119E-06 -.109E-06 0.697E-07
   -.109E-03 0.104E-02 0.578E-03   0.375E-04 0.549E-03 0.242E-03   -.630E-21 -.229E-21 0.153E-20   -.279E-06 -.244E-06 -.232E-07
   0.344E-03 0.322E-03 -.108E-02   0.375E-03 0.136E-03 -.485E-03   -.162E-20 0.521E-22 -.467E-21   -.350E-06 -.184E-06 0.393E-07
   0.183E-02 -.118E-02 -.118E-02   0.937E-03 -.626E-03 -.565E-03   0.284E-21 0.437E-21 -.605E-21   -.440E-06 0.248E-06 0.120E-06
   0.185E-02 0.124E-02 -.431E-03   0.896E-03 0.950E-03 -.294E-04   0.941E-22 0.257E-21 -.116E-20   -.599E-06 -.388E-06 0.374E-07
   -.120E-02 -.678E-03 0.163E-02   -.533E-03 -.414E-03 0.788E-03   -.129E-20 -.831E-21 0.127E-20   0.355E-06 0.247E-06 -.116E-06
   0.939E-04 -.938E-03 -.737E-03   -.149E-03 -.453E-03 -.413E-03   0.588E-21 -.929E-21 -.160E-20   0.356E-06 0.213E-06 0.102E-06
   0.634E-03 0.679E-03 0.872E-03   0.443E-03 0.322E-03 0.549E-03   -.214E-21 0.283E-21 0.715E-21   -.330E-06 -.211E-06 -.992E-07
   0.226E-02 0.324E-03 -.499E-03   0.122E-02 0.297E-03 -.213E-03   0.176E-21 -.364E-21 -.875E-21   -.530E-06 -.250E-06 0.531E-07
   -.321E-03 0.447E-03 -.490E-03   0.648E-04 0.297E-03 -.321E-03   0.307E-21 0.698E-21 0.486E-21   -.303E-06 -.215E-06 0.834E-07
   0.155E-02 -.981E-03 -.888E-03   0.967E-03 -.551E-03 -.354E-03   -.800E-21 0.132E-22 0.251E-21   -.452E-06 0.203E-06 0.102E-06
   0.951E-03 -.926E-03 -.730E-05   0.428E-03 -.347E-03 0.712E-04   -.109E-20 0.235E-21 -.225E-21   -.703E-07 0.876E-07 -.488E-07
   0.800E-03 0.602E-04 -.489E-03   0.203E-03 0.907E-04 -.140E-03   -.296E-21 -.602E-21 -.232E-21   0.307E-06 0.147E-06 0.712E-07
   0.159E-02 -.756E-03 0.842E-03   0.818E-03 -.127E-03 0.618E-03   -.634E-21 0.138E-21 0.144E-20   -.563E-06 0.251E-07 -.116E-06
   0.135E-02 0.169E-02 -.470E-04   0.801E-03 0.837E-03 -.744E-04   -.303E-21 -.466E-21 0.610E-21   -.432E-06 -.228E-06 0.481E-07
   0.530E-03 -.910E-03 -.179E-04   0.176E-03 -.537E-03 0.336E-04   0.171E-21 -.407E-21 0.966E-21   -.263E-07 0.270E-06 0.563E-07
   -.808E-03 -.165E-03 0.936E-03   -.411E-03 0.125E-03 0.486E-03   -.961E-21 -.465E-21 0.620E-21   0.385E-06 -.107E-06 -.102E-06
   0.140E-03 0.342E-03 -.632E-03   0.477E-04 0.329E-03 -.184E-03   -.872E-21 -.660E-21 -.632E-21   -.397E-07 -.262E-06 0.553E-07
   0.598E-04 -.334E-03 0.103E-02   0.245E-03 -.295E-03 0.522E-03   0.360E-21 -.386E-21 0.867E-21   -.368E-06 0.253E-06 -.341E-07
   -.173E-02 0.108E-02 0.661E-03   -.975E-03 0.605E-03 0.326E-03   0.108E-20 -.210E-21 0.653E-21   0.588E-06 -.292E-06 -.669E-07
   0.102E-03 -.156E-03 -.739E-03   -.622E-04 -.674E-04 -.451E-03   0.331E-21 0.496E-22 -.103E-21   0.290E-06 -.190E-06 0.129E-06
   -.262E-03 0.102E-02 0.184E-03   -.137E-03 0.511E-03 0.106E-03   -.296E-21 0.136E-21 -.920E-21   0.361E-06 -.244E-06 -.514E-07
   -.130E-02 0.118E-02 0.754E-03   -.937E-03 0.438E-03 0.512E-03   -.392E-21 -.158E-20 0.329E-21   0.554E-06 0.423E-07 -.157E-06
   0.102E-02 -.172E-02 -.568E-03   0.610E-03 -.116E-02 -.391E-03   -.126E-21 0.105E-20 -.553E-21   -.530E-06 0.393E-06 0.970E-07
   -.279E-02 -.415E-03 -.333E-03   -.131E-02 -.114E-03 -.741E-04   0.289E-21 0.303E-21 0.462E-21   0.463E-06 0.199E-06 0.922E-07
   -.158E-02 0.920E-03 0.529E-03   -.898E-03 0.410E-03 0.334E-03   0.116E-20 0.170E-21 0.642E-21   0.508E-06 -.212E-06 -.265E-07
   0.141E-02 -.197E-03 0.441E-03   0.789E-03 -.668E-04 0.103E-03   0.467E-21 -.496E-23 -.658E-21   -.967E-07 0.936E-07 -.984E-07
   -.450E-03 -.179E-03 0.255E-04   -.100E-03 -.922E-04 0.318E-04   0.157E-20 -.807E-21 0.725E-21   0.173E-07 0.202E-06 0.739E-08
   0.972E-03 0.351E-03 -.828E-03   0.501E-03 0.128E-03 -.248E-03   -.237E-21 0.424E-21 -.369E-21   -.398E-06 -.119E-06 0.623E-08
   -.117E-02 0.656E-03 0.816E-03   -.697E-03 0.230E-03 0.542E-03   0.789E-21 -.730E-21 -.114E-21   0.356E-06 0.807E-07 -.396E-07
   -.191E-02 -.856E-03 -.160E-03   -.992E-03 -.570E-03 0.389E-04   -.292E-21 -.190E-21 0.279E-22   0.366E-06 0.181E-06 -.909E-07
   0.104E-02 0.958E-03 0.568E-03   0.696E-03 0.715E-03 0.370E-03   -.335E-21 0.122E-21 0.900E-21   -.548E-06 -.324E-06 -.365E-07
   0.290E-04 -.364E-03 0.300E-04   0.162E-03 -.295E-03 -.147E-05   0.129E-20 0.490E-21 -.893E-22   0.870E-08 0.263E-06 -.109E-07
   -.146E-04 -.722E-03 -.176E-04   0.592E-04 -.567E-03 -.742E-04   0.197E-22 0.794E-22 0.119E-20   0.326E-06 0.180E-06 -.377E-07
   -.104E-02 0.669E-04 0.629E-03   -.535E-03 -.287E-04 0.301E-03   0.948E-22 0.172E-21 0.870E-21   0.415E-06 0.112E-06 -.109E-07
   -.106E-02 0.150E-04 -.181E-04   -.566E-03 0.716E-04 -.111E-03   0.109E-21 0.519E-21 0.652E-21   0.448E-06 -.114E-06 0.791E-07
 -----------------------------------------------------------------------------------------------
   0.151E-08 0.300E-09 0.187E-08   0.258E-13 -.106E-11 0.971E-13   -.154E-20 -.672E-21 -.223E-20   0.529E-11 0.369E-11 0.401E-11
 
 
 POSITION                                       TOTAL-FORCE (eV/Angst)
 -----------------------------------------------------------------------------------
      5.34715     12.47667     12.47667         0.000000     -0.000000      0.000000
      7.12953      3.56476     10.69429        -0.000000     -0.000000      0.000000
      3.56476      3.56477      3.56476         0.000000      0.000000     -0.000000
      8.91191      5.34715      1.78238         0.000000      0.000000     -0.000000
     -0.00000     14.25906     10.69429         0.000000     -0.000000      0.000000
      3.56476     14.25905      3.56476        -0.000000     -0.000000      0.000000
      1.78238      5.34715      1.78238         0.000000     -0.000000     -0.000000
      8.91191     12.47667      5.34714        -0.000000     -0.000000      0.000000
     10.69429     10.69429     -0.00000         0.000000     -0.000000      0.000000
      7.12953     14.25905     14.25905        -0.000000      0.000000     -0.000000
      0.00000      7.12953      3.56476        -0.000000      0.000000     -0.000000
      1.78238      8.91191      1.78238         0.000000      0.000000     -0.000000
      8.91191      1.78238      5.34714         0.000000      0.000000      0.000000
      5.34715      1.78238      5.34715         0.000000      0.000000      0.000000
      7.12953      3.56476     14.25905        -0.000000      0.000000      0.000000
      7.12953     10.69429     14.25905        -0.000000      0.000000     -0.000000
     14.25905     10.69429     14.25905        -0.000000      0.000000      0.000000
      7.12953      7.12953      7.12953        -0.000000     -0.000000      0.000000
      5.34715      5.34715      1.78238        -0.000000      0.000000     -0.000000
      8.91191      1.78238     12.47667        -0.000000      0.000000      0.000000
      3.56476      3.56476      0.00000        -0.000000     -0.000000     -0.000000
      1.78238     12.47667      8.91191         0.000000     -0.000000     -0.000000
     14.25905     10.69429      3.56476        -0.000000      0.000000     -0.000000
     10.69429     14.25905      7.12953        -0.000000      0.000000      0.000000
     10.69429     14.25905     10.69429         0.000000      0.000000      0.000000
     12.47667      1.78238      5.34714         0.000000      0.000000      0.000000
     14.25906     -0.00000     -0.00000        -0.000000     -0.000000     -0.000000
      3.56476     14.25905     14.25905        -0.000000      0.000000     -0.000000
     12.47667      1.78238     12.47667         0.000000     -0.000000     -0.000000
      8.91191      5.34715      8.91191        -0.000000     -0.000000      0.000000
      7.12953      3.56476      3.56476        -0.000000     -0.000000     -0.000000
     10.69429      3.56476      7.12953        -0.000000     -0.000000      0.000000
      8.91191      8.91191      8.91191        -0.000000      0.000000      0.000000
      1.78238      8.91191      8.91191        -0.000000     -0.000000      0.000000
     14.25905     -0.00000      3.56476        -0.000000     -0.000000      0.000000
      3.56476     14.25905      7.12953         0.000000      0.000000     -0.000000
     12.47667      8.91191      5.34715         0.000000     -0.000000      0.000000
      3.56476     10.69429      3.56476         0.000000      0.000000     -0.000000
      5.34715      5.34715     12.47667        -0.000000     -0.000000      0.000000
      3.56476     10.69429     10.69429         0.000000     -0.000000      0.000000
     10.69429      7.12953      7.12953        -0.000000      0.000000     -0.000000
     12.47667      1.78238      8.91191         0.000000      0.000000      0.000000
     12.47667      5.34715     12.47667        -0.000000     -0.000000     -0.000000
     10.69429      3.56476      3.56476         0.000000      0.000000     -0.000000
      3.56476     14.25905     10.69429         0.000000     -0.000000      0.000000
      1.78238     12.47667      5.34715        -0.000000     -0.000000     -0.000000
      3.56476     10.69429      7.12953        -0.000000     -0.000000     -0.000000
      1.78238      1.78238      8.91191         0.000000     -0.000000     -0.000000
      0.00000      3.56476      3.56476         0.000000     -0.000000      0.000000
     -0.00000      7.12953     14.25906         0.000000      0.000000      0.000000
     14.25905     10.69429      7.12953        -0.000000     -0.000000     -0.000000
      5.34715      8.91191     12.47667         0.000000     -0.000000     -0.000000
      7.12953     10.69429     10.69429         0.000000      0.000000     -0.000000
      8.91191      5.34715      5.34715        -0.000000     -0.000000      0.000000
      8.91191     12.47667      1.78238        -0.000000      0.000000     -0.000000
      1.78238      1.78238      5.34715        -0.000000     -0.000000     -0.000000
      3.56476      7.12953     10.69429         0.000000      0.000000      0.000000
      3.56476      7.12953      0.00000         0.000000      0.000000      0.000000
     14.25905      7.12953     10.69429        -0.000000     -0.000000      0.000000
      5.34715     12.47667      1.78238        -0.000000     -0.000000     -0.000000
     10.69429     -0.00000      3.56476        -0.000000      0.000000     -0.000000
     12.47667      5.34715      1.78238         0.000000      0.000000     -0.000000
      8.91191      8.91191      1.78238         0.000000      0.000000     -0.000000
      5.34715      8.91191      5.34715        -0.000000     -0.000000      0.000000
      8.91191      8.91191     12.47667         0.000000      0.000000     -0.000000
     10.69429      7.12953     10.69429        -0.000000      0.000000      0.000000
     10.69429     -0.00000     -0.00000        -0.000000      0.000000     -0.000000
      8.91191     12.47667      8.91191         0.000000      0.000000     -0.000000
      3.56476      7.12953      7.12953         0.000000      0.000000     -0.000000
      0.00000      0.00000      7.12953         0.000000     -0.000000      0.000000
      1.78238      5.34715      5.34714         0.000000     -0.000000      0.000000
     12.47667      5.34715      5.34715        -0.000000      0.000000     -0.000000
      3.56476      3.56476     10.69429        -0.000000     -0.000000      0.000000
      3.56476      3.56476      7.12953         0.000000     -0.000000      0.000000
     10.69429      7.12953      3.56476         0.000000     -0.000000     -0.000000
      5.34715      8.91191      1.78238         0.000000     -0.000000     -0.000000
      7.12953     10.69429      3.56476        -0.000000      0.000000      0.000000
     12.47667      8.91191      1.78238        -0.000000     -0.000000      0.000000
      5.34715     12.47667      5.34715        -0.000000      0.000000      0.000000
      7.12953     14.25905      3.56476        -0.000000      0.000000     -0.000000
     10.69429     10.69429      3.56476         0.000000      0.000000      0.000000
      7.12953      7.12953     10.69429         0.000000     -0.000000      0.000000
     14.25905      7.12953      7.12953         0.000000      0.000000      0.000000
     12.47667      1.78238      1.78238         0.000000      0.000000     -0.000000
     -0.00000     10.69429     10.69429        -0.000000      0.000000     -0.000000
     12.47667      8.91191     12.47667         0.000000     -0.000000      0.000000
      5.34715      8.91191      8.91191         0.000000     -0.000000      0.000000
     10.69429      3.56476     14.25905        -0.000000     -0.000000     -0.000000
      5.34715      1.78238      8.91191         0.000000     -0.000000     -0.000000
     14.25905      3.56476     10.69429         0.000000      0.000000     -0.000000
      8.91191      1.78238      1.78238        -0.000000      0.000000      0.000000
      7.12953     14.25905     10.69429         0.000000      0.000000      0.000000
      7.12953     14.25905      7.12953         0.000000     -0.000000     -0.000000
     12.47667     12.47667      8.91191        -0.000000      0.000000     -0.000000
     12.47667     12.47667      1.78238        -0.000000      0.000000      0.000000
     12.47667      5.34715      8.91191         0.000000     -0.000000      0.000000
     10.69429     10.69429     10.69429         0.000000      0.000000      0.000000
      5.34715      5.34715      5.34714        -0.000000      0.000000     -0.000000
      1.78238      5.34715     12.47667         0.000000      0.000000     -0.000000
     12.47667     12.47667      5.34714        -0.000000      0.000000     -0.000000
      8.91191     12.47667     12.47667        -0.000000     -0.000000     -0.000000
     12.47667     12.47667     12.47667         0.000000      0.000000      0.000000
      8.91191      1.78238      8.91191        -0.000000      0.000000     -0.000000
      7.12953      7.12953     -0.00000        -0.000000      0.000000     -0.000000
      1.78238      5.34715      8.91191         0.000000      0.000000      0.000000
     10.69429      7.12953     14.25905        -0.000000     -0.000000      0.000000
     12.47667      8.91191      8.91191        -0.000000      0.000000     -0.000000
      7.12953      3.56476      7.12953         0.000000      0.000000     -0.000000
      1.78238      8.91191      5.34715        -0.000000      0.000000     -0.000000
      7.12953     10.69429      7.12953        -0.000000     -0.000000     -0.000000
      8.91191      5.34715     12.47667        -0.000000      0.000000     -0.000000
      3.56476     10.69429     14.25905         0.000000     -0.000000      0.000000
      5.34714     12.47667      8.91191         0.000000     -0.000000     -0.000000
      1.78238     12.47667      1.78238        -0.000000     -0.000000     -0.000000
      3.56476      7.12953      3.56476        -0.000000      0.000000     -0.000000
     10.69429      3.56476     10.69429        -0.000000     -0.000000      0.000000
      5.34715      5.34715      8.91191        -0.000000      0.000000      0.000000
      1.78238     12.47667     12.47667         0.000000      0.000000      0.000000
      7.12953      7.12953      3.56476         0.000000     -0.000000     -0.000000
     -0.00000      3.56476      7.12953        -0.000000     -0.000000     -0.000000
      8.91191      8.91191      5.34715        -0.000000     -0.000000     -0.000000
      5.34715      1.78238     12.47667        -0.000000      0.000000     -0.000000
      5.34715      1.78238      1.78238        -0.000000     -0.000000      0.000000
     10.69429     10.69429      7.12953         0.000000     -0.000000      0.000000
     14.25905      3.56476     14.25905        -0.000000      0.000000     -0.000000
      1.78238      1.78238      1.78238        -0.000000     -0.000000     -0.000000
      1.78238      1.78238     12.47667        -0.000000      0.000000     -0.000000
      1.78238      8.91191     12.47667         0.000000      0.000000      0.000000
 -----------------------------------------------------------------------------------
    total drift:                                0.000000      0.000000      0.000000


--------------------------------------------------------------------------------------------------------



  FREE ENERGIE OF THE ION-ELECTRON SYSTEM (eV)
  ---------------------------------------------------
  free  energy   TOTEN  =     -1075.46923190 eV

  energy  without entropy=    -1075.39673415  energy(sigma->0) =    -1075.44506599
 d Force = 0.0000000E+00[ 0.000E+00, 0.000E+00]  d Energy = 0.1346678E-01-0.135E-01
 d Force = 0.0000000E+00[ 0.000E+00, 0.000E+00]  d Ewald  = 0.1661532E+03-0.166E+03
 


--------------------------------------------------------------------------------------------------------


    POTLOK:  cpu time      0.1222: real time      0.0212


--------------------------------------------------------------------------------------------------------




--------------------------------------------------------------------------------------------------------


      MLFF:  cpu time      0.0368: real time      0.0484
    WAVPRE:  cpu time      0.3592: real time      0.1383
    FEWALD:  cpu time      0.1892: real time      0.1700
    GENKIN:  cpu time      0.0064: real time      0.0064
    ORTHCH:  cpu time      0.5467: real time      0.5464
     LOOP+:  cpu time     41.6486: real time     36.7956


--------------------------------------- Ionic step        5  -------------------------------------------




--------------------------------------- Iteration      5(   1)  ---------------------------------------


    POTLOK:  cpu time      0.0071: real time      0.0068
    SETDIJ:  cpu time      0.0885: real time      0.0059
     EDDAV:  cpu time      3.4040: real time      3.3509
       DOS:  cpu time      0.0013: real time      0.0013
    CHARGE:  cpu time      0.4562: real time      0.3041
    MIXING:  cpu time      0.0347: real time      0.0032
    --------------------------------------------
      LOOP:  cpu time      3.9920: real time      3.6723

 eigenvalue-minimisations  :  8568
 total energy-change (2. order) :-0.6788964E-02  (-0.2172316E-01)
 number of electron    1535.9999955 magnetization 
 augmentation part       21.9349398 magnetization 

 Broyden mixing:
  rms(total) = 0.81687E-01    rms(broyden)= 0.81684E-01
  rms(prec ) = 0.85843E-01
  weight for this iteration     100.00

 Free energy of the ion-electron system (eV)
  ---------------------------------------------------
  alpha Z        PSCENC =      7513.99398960
  Ewald energy   TEWEN  =   -135512.82539411
  -Hartree energ DENC   =    -26907.80482997
  -exchange      EXHF   =         0.00000000
  -V(xc)+E(xc)   XCENC  =      6306.91963342
  PAW double counting   =    189388.22294889  -186788.34224942
  entropy T*S    EENTRO =        -0.07580146
  eigenvalues    EBANDS =    -19453.48075637
  atomic energy  EATOM  =    164377.91643804
  Solvation  Ediel_sol  =         0.00000000
  ---------------------------------------------------
  free energy    TOTEN  =     -1075.47602138 eV

  energy without entropy =    -1075.40021992  energy(sigma->0) =    -1075.45075423


--------------------------------------------------------------------------------------------------------




--------------------------------------- Iteration      5(   2)  ---------------------------------------


    POTLOK:  cpu time      0.0360: real time      0.0273
    SETDIJ:  cpu time      0.0923: real time      0.0061
     EDDAV:  cpu time      3.4486: real time      3.3950
       DOS:  cpu time      0.0013: real time      0.0013
    CHARGE:  cpu time      0.4498: real time      0.3044
    MIXING:  cpu time      0.0386: real time      0.0036
    --------------------------------------------
      LOOP:  cpu time      4.0666: real time      3.7377

 eigenvalue-minimisations  :  8764
 total energy-change (2. order) : 0.6127462E-02  (-0.1957085E-02)
 number of electron    1535.9999954 magnetization 
 augmentation part       22.0804681 magnetization 

 Broyden mixing:
  rms(total) = 0.23791E-01    rms(broyden)= 0.23789E-01
  rms(prec ) = 0.26132E-01
  weight for this iteration     100.00

 eigenvalues of (default mixing * dielectric matrix)
  average eigenvalue GAMMA=   1.2331
  1.2331

 Free energy of the ion-electron system (eV)
  ---------------------------------------------------
  alpha Z        PSCENC =      7513.99398960
  Ewald energy   TEWEN  =   -135512.82539411
  -Hartree energ DENC   =    -26893.70576521
  -exchange      EXHF   =         0.00000000
  -V(xc)+E(xc)   XCENC  =      6306.16673350
  PAW double counting   =    189593.39056777  -186994.81572914
  entropy T*S    EENTRO =        -0.07447075
  eigenvalues    EBANDS =    -19465.51626362
  atomic energy  EATOM  =    164377.91643804
  Solvation  Ediel_sol  =         0.00000000
  ---------------------------------------------------
  free energy    TOTEN  =     -1075.46989392 eV

  energy without entropy =    -1075.39542317  energy(sigma->0) =    -1075.44507033


--------------------------------------------------------------------------------------------------------




--------------------------------------- Iteration      5(   3)  ---------------------------------------


    POTLOK:  cpu time      0.0384: real time      0.0119
    SETDIJ:  cpu time      0.0923: real time      0.0061
     EDDAV:  cpu time      3.3446: real time      3.2919
       DOS:  cpu time      0.0013: real time      0.0013
    CHARGE:  cpu time      0.4501: real time      0.3050
    MIXING:  cpu time      0.0417: real time      0.0037
    --------------------------------------------
      LOOP:  cpu time      3.9684: real time      3.6199

 eigenvalue-minimisations  :  8468
 total energy-change (2. order) : 0.1088899E-02  (-0.5342354E-03)
 number of electron    1535.9999955 magnetization 
 augmentation part       21.9854652 magnetization 

 Broyden mixing:
  rms(total) = 0.12616E-01    rms(broyden)= 0.12616E-01
  rms(prec ) = 0.12648E-01
  weight for this iteration     100.00

 eigenvalues of (default mixing * dielectric matrix)
  average eigenvalue GAMMA=   1.2747
  1.2747  1.2747

 Free energy of the ion-electron system (eV)
  ---------------------------------------------------
  alpha Z        PSCENC =      7513.99398960
  Ewald energy   TEWEN  =   -135512.82539411
  -Hartree energ DENC   =    -26887.03320991
  -exchange      EXHF   =         0.00000000
  -V(xc)+E(xc)   XCENC  =      6305.81553047
  PAW double counting   =    189617.76655076  -187020.06694699
  entropy T*S    EENTRO =        -0.07391610
  eigenvalues    EBANDS =    -19470.96184678
  atomic energy  EATOM  =    164377.91643804
  Solvation  Ediel_sol  =         0.00000000
  ---------------------------------------------------
  free energy    TOTEN  =     -1075.46880502 eV

  energy without entropy =    -1075.39488892  energy(sigma->0) =    -1075.44416632


--------------------------------------------------------------------------------------------------------




--------------------------------------- Iteration      5(   4)  ---------------------------------------


    POTLOK:  cpu time      0.0378: real time      0.0118
    SETDIJ:  cpu time      0.0929: real time      0.0062
     EDDAV:  cpu time      3.5464: real time      3.4923
       DOS:  cpu time      0.0013: real time      0.0013
    CHARGE:  cpu time      0.4497: real time      0.3040
    MIXING:  cpu time      0.0453: real time      0.0040
    --------------------------------------------
      LOOP:  cpu time      4.1734: real time      3.8197

 eigenvalue-minimisations  :  9132
 total energy-change (2. order) :-0.2804131E-03  (-0.6810893E-04)
 number of electron    1535.9999956 magnetization 
 augmentation part       21.9141440 magnetization 

 Broyden mixing:
  rms(total) = 0.52188E-02    rms(broyden)= 0.52167E-02
  rms(prec ) = 0.52642E-02
  weight for this iteration     100.00

 eigenvalues of (default mixing * dielectric matrix)
  average eigenvalue GAMMA=   1.6725
  1.4564  1.4564  2.1046

 Free energy of the ion-electron system (eV)
  ---------------------------------------------------
  alpha Z        PSCENC =      7513.99398960
  Ewald energy   TEWEN  =   -135512.82539411
  -Hartree energ DENC   =    -26888.04605123
  -exchange      EXHF   =         0.00000000
  -V(xc)+E(xc)   XCENC  =      6305.86774082
  PAW double counting   =    189575.67799838  -186977.20204516
  entropy T*S    EENTRO =        -0.07400286
  eigenvalues    EBANDS =    -19470.77775891
  atomic energy  EATOM  =    164377.91643804
  Solvation  Ediel_sol  =         0.00000000
  ---------------------------------------------------
  free energy    TOTEN  =     -1075.46908543 eV

  energy without entropy =    -1075.39508257  energy(sigma->0) =    -1075.44441781


--------------------------------------------------------------------------------------------------------




--------------------------------------- Iteration      5(   5)  ---------------------------------------


    POTLOK:  cpu time      0.0382: real time      0.0115
    SETDIJ:  cpu time      0.0907: real time      0.0060
     EDDAV:  cpu time      3.5889: real time      3.5345
       DOS:  cpu time      0.0013: real time      0.0013
    CHARGE:  cpu time      0.4501: real time      0.3044
    MIXING:  cpu time      0.0497: real time      0.0042
    --------------------------------------------
      LOOP:  cpu time      4.2190: real time      3.8619

 eigenvalue-minimisations  :  9216
 total energy-change (2. order) :-0.2566699E-03  (-0.4435755E-04)
 number of electron    1535.9999956 magnetization 
 augmentation part       21.8575716 magnetization 

 Broyden mixing:
  rms(total) = 0.30609E-02    rms(broyden)= 0.30582E-02
  rms(prec ) = 0.31932E-02
  weight for this iteration     100.00

 eigenvalues of (default mixing * dielectric matrix)
  average eigenvalue GAMMA=   1.5771
  2.1847  1.6246  1.6246  0.8745

 Free energy of the ion-electron system (eV)
  ---------------------------------------------------
  alpha Z        PSCENC =      7513.99398960
  Ewald energy   TEWEN  =   -135512.82539411
  -Hartree energ DENC   =    -26888.36771102
  -exchange      EXHF   =         0.00000000
  -V(xc)+E(xc)   XCENC  =      6305.87875213
  PAW double counting   =    189555.70837249  -186955.80139587
  entropy T*S    EENTRO =        -0.07395580
  eigenvalues    EBANDS =    -19471.89843756
  atomic energy  EATOM  =    164377.91643804
  Solvation  Ediel_sol  =         0.00000000
  ---------------------------------------------------
  free energy    TOTEN  =     -1075.46934210 eV

  energy without entropy =    -1075.39538630  energy(sigma->0) =    -1075.44469017


--------------------------------------------------------------------------------------------------------




--------------------------------------- Iteration      5(   6)  ---------------------------------------


    POTLOK:  cpu time      0.0358: real time      0.0120
    SETDIJ:  cpu time      0.0917: real time      0.0060
     EDDAV:  cpu time      3.1197: real time      3.0682
       DOS:  cpu time      0.0013: real time      0.0013
    CHARGE:  cpu time      0.4501: real time      0.3038
    MIXING:  cpu time      0.0545: real time      0.0045
    --------------------------------------------
      LOOP:  cpu time      3.7531: real time      3.3959

 eigenvalue-minimisations  :  7704
 total energy-change (2. order) :-0.3210526E-04  (-0.2199051E-05)
 number of electron    1535.9999956 magnetization 
 augmentation part       21.8519929 magnetization 

 Broyden mixing:
  rms(total) = 0.61625E-03    rms(broyden)= 0.61533E-03
  rms(prec ) = 0.65334E-03
  weight for this iteration     100.00

 eigenvalues of (default mixing * dielectric matrix)
  average eigenvalue GAMMA=   1.6175
  2.1791  2.1791  1.6153  1.0570  1.0570

 Free energy of the ion-electron system (eV)
  ---------------------------------------------------
  alpha Z        PSCENC =      7513.99398960
  Ewald energy   TEWEN  =   -135512.82539411
  -Hartree energ DENC   =    -26889.01727122
  -exchange      EXHF   =         0.00000000
  -V(xc)+E(xc)   XCENC  =      6305.91131616
  PAW double counting   =    189552.97701943  -186952.65088375
  entropy T*S    EENTRO =        -0.07399024
  eigenvalues    EBANDS =    -19471.70059811
  atomic energy  EATOM  =    164377.91643804
  Solvation  Ediel_sol  =         0.00000000
  ---------------------------------------------------
  free energy    TOTEN  =     -1075.46937421 eV

  energy without entropy =    -1075.39538396  energy(sigma->0) =    -1075.44471079


--------------------------------------------------------------------------------------------------------




--------------------------------------- Iteration      5(   7)  ---------------------------------------


    POTLOK:  cpu time      0.0357: real time      0.0128
    SETDIJ:  cpu time      0.0895: real time      0.0060
     EDDAV:  cpu time      1.9826: real time      1.9387
       DOS:  cpu time      0.0013: real time      0.0013
    CHARGE:  cpu time      0.4539: real time      0.3017
    MIXING:  cpu time      0.0586: real time      0.0048
    --------------------------------------------
      LOOP:  cpu time      2.6217: real time      2.2654

 eigenvalue-minimisations  :  3836
 total energy-change (2. order) :-0.5818729E-05  (-0.8096507E-07)
 number of electron    1535.9999956 magnetization 
 augmentation part       21.8522357 magnetization 

 Broyden mixing:
  rms(total) = 0.13520E-03    rms(broyden)= 0.13496E-03
  rms(prec ) = 0.14464E-03
  weight for this iteration     100.00

 eigenvalues of (default mixing * dielectric matrix)
  average eigenvalue GAMMA=   1.5772
  2.2325  2.2325  1.8944  1.1570  1.1570  0.7901

 Free energy of the ion-electron system (eV)
  ---------------------------------------------------
  alpha Z        PSCENC =      7513.99398960
  Ewald energy   TEWEN  =   -135512.82539411
  -Hartree energ DENC   =    -26889.14249806
  -exchange      EXHF   =         0.00000000
  -V(xc)+E(xc)   XCENC  =      6305.91733275
  PAW double counting   =    189555.13811254  -186954.70531603
  entropy T*S    EENTRO =        -0.07399284
  eigenvalues    EBANDS =    -19471.68805192
  atomic energy  EATOM  =    164377.91643804
  Solvation  Ediel_sol  =         0.00000000
  ---------------------------------------------------
  free energy    TOTEN  =     -1075.46938003 eV

  energy without entropy =    -1075.39538718  energy(sigma->0) =    -1075.44471574


--------------------------------------------------------------------------------------------------------




--------------------------------------- Iteration      5(   8)  ---------------------------------------


    POTLOK:  cpu time      0.0360: real time      0.0114
    SETDIJ:  cpu time      0.0904: real time      0.0057
     EDDAV:  cpu time      1.9540: real time      1.9102
       DOS:  cpu time      0.0013: real time      0.0013
    CHARGE:  cpu time      0.4525: real time      0.3013
    MIXING:  cpu time      0.0635: real time      0.0051
    --------------------------------------------
      LOOP:  cpu time      2.5976: real time      2.2349

 eigenvalue-minimisations  :  3748
 total energy-change (2. order) :-0.1742425E-05  (-0.2662273E-07)
 number of electron    1535.9999956 magnetization 
 augmentation part       21.8524574 magnetization 

 Broyden mixing:
  rms(total) = 0.11698E-03    rms(broyden)= 0.11697E-03
  rms(prec ) = 0.12067E-03
  weight for this iteration     100.00

 eigenvalues of (default mixing * dielectric matrix)
  average eigenvalue GAMMA=   1.5319
  2.3466  2.3466  1.6201  1.4766  1.0360  0.9487  0.9487

 Free energy of the ion-electron system (eV)
  ---------------------------------------------------
  alpha Z        PSCENC =      7513.99398960
  Ewald energy   TEWEN  =   -135512.82539411
  -Hartree energ DENC   =    -26889.17016110
  -exchange      EXHF   =         0.00000000
  -V(xc)+E(xc)   XCENC  =      6305.91864984
  PAW double counting   =    189555.78832696  -186955.32959768
  entropy T*S    EENTRO =        -0.07399381
  eigenvalues    EBANDS =    -19471.68763950
  atomic energy  EATOM  =    164377.91643804
  Solvation  Ediel_sol  =         0.00000000
  ---------------------------------------------------
  free energy    TOTEN  =     -1075.46938177 eV

  energy without entropy =    -1075.39538796  energy(sigma->0) =    -1075.44471716


--------------------------------------------------------------------------------------------------------




--------------------------------------- Iteration      5(   9)  ---------------------------------------


    POTLOK:  cpu time      0.0378: real time      0.0111
    SETDIJ:  cpu time      0.0919: real time      0.0062
     EDDAV:  cpu time      1.9610: real time      1.9174
       DOS:  cpu time      0.0014: real time      0.0014
    CHARGE:  cpu time      0.4479: real time      0.3012
    MIXING:  cpu time      0.0636: real time      0.0056
    --------------------------------------------
      LOOP:  cpu time      2.6035: real time      2.2428

 eigenvalue-minimisations  :  3756
 total energy-change (2. order) :-0.1028988E-05  (-0.1716604E-07)
 number of electron    1535.9999956 magnetization 
 augmentation part       21.8524674 magnetization 

 Broyden mixing:
  rms(total) = 0.34855E-04    rms(broyden)= 0.34847E-04
  rms(prec ) = 0.36738E-04
  weight for this iteration     100.00

 eigenvalues of (default mixing * dielectric matrix)
  average eigenvalue GAMMA=   1.6649
  2.6076  2.6076  2.4753  1.5947  1.3706  0.9784  0.9784  0.7065

 Free energy of the ion-electron system (eV)
  ---------------------------------------------------
  alpha Z        PSCENC =      7513.99398960
  Ewald energy   TEWEN  =   -135512.82539411
  -Hartree energ DENC   =    -26889.19876540
  -exchange      EXHF   =         0.00000000
  -V(xc)+E(xc)   XCENC  =      6305.92015554
  PAW double counting   =    189555.46957871  -186955.00239919
  entropy T*S    EENTRO =        -0.07399645
  eigenvalues    EBANDS =    -19471.66898953
  atomic energy  EATOM  =    164377.91643804
  Solvation  Ediel_sol  =         0.00000000
  ---------------------------------------------------
  free energy    TOTEN  =     -1075.46938280 eV

  energy without entropy =    -1075.39538635  energy(sigma->0) =    -1075.44471731


--------------------------------------------------------------------------------------------------------




--------------------------------------- Iteration      5(  10)  ---------------------------------------


    POTLOK:  cpu time      0.2536: real time      0.2293
    SETDIJ:  cpu time      0.0922: real time      0.0062
     EDDAV:  cpu time      1.9519: real time      1.9082
       DOS:  cpu time      0.0014: real time      0.0014
    --------------------------------------------
      LOOP:  cpu time      2.2992: real time      2.1453

 eigenvalue-minimisations  :  3744
 total energy-change (2. order) : 0.3301466E-06  (-0.7558139E-08)
 number of electron    1535.9999956 magnetization 
 augmentation part       21.8524674 magnetization 

 Free energy of the ion-electron system (eV)
  ---------------------------------------------------
  alpha Z        PSCENC =      7513.99398960
  Ewald energy   TEWEN  =   -135512.82539411
  -Hartree energ DENC   =    -26889.19103513
  -exchange      EXHF   =         0.00000000
  -V(xc)+E(xc)   XCENC  =      6305.91979910
  PAW double counting   =    189555.40027702  -186954.94054717
  entropy T*S    EENTRO =        -0.07399668
  eigenvalues    EBANDS =    -19471.66891313
  atomic energy  EATOM  =    164377.91643804
  Solvation  Ediel_sol  =         0.00000000
  ---------------------------------------------------
  free energy    TOTEN  =     -1075.46938247 eV

  energy without entropy =    -1075.39538579  energy(sigma->0) =    -1075.44471691


--------------------------------------------------------------------------------------------------------




 average (electrostatic) potential at core
  the test charge radii are     1.0638
  (the norm of the test charge is              1.0000)
       1 -74.1207       2 -74.1206       3 -74.1205       4 -74.1206       5 -74.1203
       6 -74.1203       7 -74.1205       8 -74.1206       9 -74.1205      10 -74.1206
      11 -74.1204      12 -74.1205      13 -74.1205      14 -74.1205      15 -74.1206
      16 -74.1207      17 -74.1204      18 -74.1207      19 -74.1207      20 -74.1206
      21 -74.1205      22 -74.1204      23 -74.1204      24 -74.1203      25 -74.1203
      26 -74.1204      27 -74.1203      28 -74.1204      29 -74.1204      30 -74.1207
      31 -74.1206      32 -74.1204      33 -74.1207      34 -74.1204      35 -74.1204
      36 -74.1205      37 -74.1205      38 -74.1205      39 -74.1206      40 -74.1206
      41 -74.1206      42 -74.1203      43 -74.1205      44 -74.1204      45 -74.1206
      46 -74.1204      47 -74.1205      48 -74.1204      49 -74.1204      50 -74.1204
      51 -74.1204      52 -74.1207      53 -74.1207      54 -74.1206      55 -74.1206
      56 -74.1204      57 -74.1205      58 -74.1206      59 -74.1205      60 -74.1205
      61 -74.1205      62 -74.1204      63 -74.1206      64 -74.1206      65 -74.1207
      66 -74.1207      67 -74.1204      68 -74.1205      69 -74.1205      70 -74.1203
      71 -74.1205      72 -74.1204      73 -74.1205      74 -74.1204      75 -74.1205
      76 -74.1207      77 -74.1207      78 -74.1204      79 -74.1205      80 -74.1206
      81 -74.1205      82 -74.1207      83 -74.1204      84 -74.1204      85 -74.1204
      86 -74.1205      87 -74.1206      88 -74.1205      89 -74.1206      90 -74.1204
      91 -74.1206      92 -74.1206      93 -74.1205      94 -74.1203      95 -74.1204
      96 -74.1205      97 -74.1204      98 -74.1207      99 -74.1204     100 -74.1204
     101 -74.1205     102 -74.1203     103 -74.1205     104 -74.1207     105 -74.1204
     106 -74.1205     107 -74.1205     108 -74.1206     109 -74.1204     110 -74.1206
     111 -74.1207     112 -74.1206     113 -74.1207     114 -74.1203     115 -74.1207
     116 -74.1205     117 -74.1206     118 -74.1204     119 -74.1207     120 -74.1204
     121 -74.1206     122 -74.1206     123 -74.1205     124 -74.1205     125 -74.1204
     126 -74.1203     127 -74.1204     128 -74.1205
 
 
 
 E-fermi :   9.0405     XC(G=0): -11.2043     alpha+bet :-16.3950

 val. band max:        9.0068437933   @ k =   0.5000   0.0000   0.0000
 cond. band min:       9.0469043124   @ k =   0.5000   0.5000   0.5000
 fundamental gap:      0.0400605190
 Fermi energy:         9.0405250326

 k-point     1 :       0.0000    0.0000    0.0000
  band No.  band energies     occupation 
      1     -39.3836      2.00000
      2     -39.3362      2.00000
      3     -39.3362      2.00000
      4     -39.3362      2.00000
      5     -39.3362      2.00000
      6     -39.3362      2.00000
      7     -39.3362      2.00000
      8     -39.3000      2.00000
      9     -39.3000      2.00000
     10     -39.3000      2.00000
     11     -39.3000      2.00000
     12     -39.3000      2.00000
     13     -39.2999      2.00000
     14     -39.2999      2.00000
     15     -39.2999      2.00000
     16     -39.2999      2.00000
     17     -39.2999      2.00000
     18     -39.2999      2.00000
     19     -39.2999      2.00000
     20     -39.2720      2.00000
     21     -39.2720      2.00000
     22     -39.2719      2.00000
     23     -39.2719      2.00000
     24     -39.2719      2.00000
     25     -39.2719      2.00000
     26     -39.2719      2.00000
     27     -39.2719      2.00000
     28     -39.2275      2.00000
     29     -39.2275      2.00000
     30     -39.2275      2.00000
     31     -39.2275      2.00000
     32     -39.2275      2.00000
     33     -39.2275      2.00000
     34     -39.2206      2.00000
     35     -39.2206      2.00000
     36     -39.2206      2.00000
     37     -39.2206      2.00000
     38     -39.2206      2.00000
     39     -39.2206      2.00000
     40     -39.2206      2.00000
     41     -39.2206      2.00000
     42     -39.2206      2.00000
     43     -39.2206      2.00000
     44     -39.2206      2.00000
     45     -39.2206      2.00000
     46     -39.2206      2.00000
     47     -39.2206      2.00000
     48     -39.2206      2.00000
     49     -39.2206      2.00000
     50     -39.2206      2.00000
     51     -39.2206      2.00000
     52     -39.2206      2.00000
     53     -39.2206      2.00000
     54     -39.2206      2.00000
     55     -39.2206      2.00000
     56     -39.2206      2.00000
     57     -39.2206      2.00000
     58     -39.2140      2.00000
     59     -39.2140      2.00000
     60     -39.2140      2.00000
     61     -39.2140      2.00000
     62     -39.2140      2.00000
     63     -39.2140      2.00000
     64     -39.2140      2.00000
     65     -39.2140      2.00000
     66     -39.2140      2.00000
     67     -39.2140      2.00000
     68     -39.2140      2.00000
     69     -39.2140      2.00000
     70     -39.2140      2.00000
     71     -39.2139      2.00000
     72     -39.2139      2.00000
     73     -39.2139      2.00000
     74     -39.2139      2.00000
     75     -39.2139      2.00000
     76     -39.2139      2.00000
     77     -39.2139      2.00000
     78     -39.2139      2.00000
     79     -39.2139      2.00000
     80     -39.2139      2.00000
     81     -39.2139      2.00000
     82     -39.2139      2.00000
     83     -39.2139      2.00000
     84     -39.2139      2.00000
     85     -39.2139      2.00000
     86     -39.2139      2.00000
     87     -39.2139      2.00000
     88     -39.2073      2.00000
     89     -39.2073      2.00000
     90     -39.2073      2.00000
     91     -39.2073      2.00000
     92     -39.2073      2.00000
     93     -39.2073      2.00000
     94     -39.2073      2.00000
     95     -39.2073      2.00000
     96     -39.2073      2.00000
     97     -39.2073      2.00000
     98     -39.2073      2.00000
     99     -39.2073      2.00000
    100     -39.2008      2.00000
    101     -39.2008      2.00000
    102     -39.1686      2.00000
    103     -39.1686      2.00000
    104     -39.1686      2.00000
    105     -39.1686      2.00000
    106     -39.1686      2.00000
    107     -39.1686      2.00000
    108     -39.1686      2.00000
    109     -39.1686      2.00000
    110     -39.1539      2.00000
    111     -39.1539      2.00000
    112     -39.1539      2.00000
    113     -39.1539      2.00000
    114     -39.1539      2.00000
    115     -39.1539      2.00000
    116     -39.1539      2.00000
    117     -39.1539      2.00000
    118     -39.1539      2.00000
    119     -39.1539      2.00000
    120     -39.1539      2.00000
    121     -39.1539      2.00000
    122     -39.1301      2.00000
    123     -39.1301      2.00000
    124     -39.1301      2.00000
    125     -39.1301      2.00000
    126     -39.1301      2.00000
    127     -39.1301      2.00000
    128     -39.0934      2.00000
    129     -17.9252      2.00000
    130     -17.9252      2.00000
    131     -17.9251      2.00000
    132     -17.9251      2.00000
    133     -17.9251      2.00000
    134     -17.9251      2.00000
    135     -17.7731      2.00000
    136     -17.7731      2.00000
    137     -17.7731      2.00000
    138     -17.7731      2.00000
    139     -17.7731      2.00000
    140     -17.7731      2.00000
    141     -17.7731      2.00000
    142     -17.7731      2.00000
    143     -17.7731      2.00000
    144     -17.7731      2.00000
    145     -17.7731      2.00000
    146     -17.7731      2.00000
    147     -17.7618      2.00000
    148     -17.7618      2.00000
    149     -17.7618      2.00000
    150     -17.7618      2.00000
    151     -17.7618      2.00000
    152     -17.7618      2.00000
    153     -17.7618      2.00000
    154     -17.7618      2.00000
    155     -17.7618      2.00000
    156     -17.7618      2.00000
    157     -17.7618      2.00000
    158     -17.7618      2.00000
    159     -17.7424      2.00000
    160     -17.7424      2.00000
    161     -17.7424      2.00000
    162     -17.7424      2.00000
    163     -17.7424      2.00000
    164     -17.7424      2.00000
    165     -17.7424      2.00000
    166     -17.7424      2.00000
    167     -17.7424      2.00000
    168     -17.7424      2.00000
    169     -17.7424      2.00000
    170     -17.7424      2.00000
    171     -17.7424      2.00000
    172     -17.7424      2.00000
    173     -17.7424      2.00000
    174     -17.7424      2.00000
    175     -17.7424      2.00000
    176     -17.7424      2.00000
    177     -17.7424      2.00000
    178     -17.7424      2.00000
    179     -17.7424      2.00000
    180     -17.7424      2.00000
    181     -17.7424      2.00000
    182     -17.7424      2.00000
    183     -17.7339      2.00000
    184     -17.7339      2.00000
    185     -17.7339      2.00000
    186     -17.7339      2.00000
    187     -17.7339      2.00000
    188     -17.7339      2.00000
    189     -17.7339      2.00000
    190     -17.7339      2.00000
    191     -17.7339      2.00000
    192     -17.7339      2.00000
    193     -17.7339      2.00000
    194     -17.7339      2.00000
    195     -17.7339      2.00000
    196     -17.7339      2.00000
    197     -17.7339      2.00000
    198     -17.7339      2.00000
    199     -17.7339      2.00000
    200     -17.7339      2.00000
    201     -17.7339      2.00000
    202     -17.7339      2.00000
    203     -17.7339      2.00000
    204     -17.7339      2.00000
    205     -17.7339      2.00000
    206     -17.7339      2.00000
    207     -17.6298      2.00000
    208     -17.6298      2.00000
    209     -17.6298      2.00000
    210     -17.6298      2.00000
    211     -17.6298      2.00000
    212     -17.6298      2.00000
    213     -17.6298      2.00000
    214     -17.6298      2.00000
    215     -17.6298      2.00000
    216     -17.6298      2.00000
    217     -17.6298      2.00000
    218     -17.6298      2.00000
    219     -17.6298      2.00000
    220     -17.6298      2.00000
    221     -17.6298      2.00000
    222     -17.6298      2.00000
    223     -17.5921      2.00000
    224     -17.5921      2.00000
    225     -17.5921      2.00000
    226     -17.5883      2.00000
    227     -17.5883      2.00000
    228     -17.5883      2.00000
    229     -17.5883      2.00000
    230     -17.5883      2.00000
    231     -17.5883      2.00000
    232     -17.5656      2.00000
    233     -17.5656      2.00000
    234     -17.5656      2.00000
    235     -17.5656      2.00000
    236     -17.5656      2.00000
    237     -17.5656      2.00000
    238     -17.5656      2.00000
    239     -17.5656      2.00000
    240     -17.4829      2.00000
    241     -17.4829      2.00000
    242     -17.4829      2.00000
    243     -17.4829      2.00000
    244     -17.4829      2.00000
    245     -17.4829      2.00000
    246     -17.4829      2.00000
    247     -17.4829      2.00000
    248     -17.4829      2.00000
    249     -17.4829      2.00000
    250     -17.4829      2.00000
    251     -17.4829      2.00000
    252     -17.4399      2.00000
    253     -17.4399      2.00000
    254     -17.4399      2.00000
    255     -17.4399      2.00000
    256     -17.4399      2.00000
    257     -17.4399      2.00000
    258     -17.4171      2.00000
    259     -17.4171      2.00000
    260     -17.4171      2.00000
    261     -17.4171      2.00000
    262     -17.4171      2.00000
    263     -17.4171      2.00000
    264     -17.4171      2.00000
    265     -17.4171      2.00000
    266     -17.4171      2.00000
    267     -17.4171      2.00000
    268     -17.4171      2.00000
    269     -17.4171      2.00000
    270     -17.4037      2.00000
    271     -17.4037      2.00000
    272     -17.4037      2.00000
    273     -17.4037      2.00000
    274     -17.4037      2.00000
    275     -17.4037      2.00000
    276     -17.4010      2.00000
    277     -17.4009      2.00000
    278     -17.4009      2.00000
    279     -17.4009      2.00000
    280     -17.4009      2.00000
    281     -17.4009      2.00000
    282     -17.4009      2.00000
    283     -17.4009      2.00000
    284     -17.4009      2.00000
    285     -17.4009      2.00000
    286     -17.4009      2.00000
    287     -17.4009      2.00000
    288     -17.3144      2.00000
    289     -17.3144      2.00000
    290     -17.3144      2.00000
    291     -17.3144      2.00000
    292     -17.3144      2.00000
    293     -17.3144      2.00000
    294     -17.3144      2.00000
    295     -17.3144      2.00000
    296     -17.3144      2.00000
    297     -17.3144      2.00000
    298     -17.3144      2.00000
    299     -17.3144      2.00000
    300     -17.3144      2.00000
    301     -17.3144      2.00000
    302     -17.3144      2.00000
    303     -17.3144      2.00000
    304     -17.3144      2.00000
    305     -17.3144      2.00000
    306     -17.3144      2.00000
    307     -17.3144      2.00000
    308     -17.3144      2.00000
    309     -17.3144      2.00000
    310     -17.3144      2.00000
    311     -17.3144      2.00000
    312     -17.3043      2.00000
    313     -17.3043      2.00000
    314     -17.3043      2.00000
    315     -17.3043      2.00000
    316     -17.3043      2.00000
    317     -17.3043      2.00000
    318     -17.3043      2.00000
    319     -17.3043      2.00000
    320     -17.3043      2.00000
    321     -17.3043      2.00000
    322     -17.3043      2.00000
    323     -17.3043      2.00000
    324     -17.2470      2.00000
    325     -17.2470      2.00000
    326     -17.2470      2.00000
    327     -17.2470      2.00000
    328     -17.2470      2.00000
    329     -17.2470      2.00000
    330     -17.2470      2.00000
    331     -17.2470      2.00000
    332     -17.2470      2.00000
    333     -17.2470      2.00000
    334     -17.2470      2.00000
    335     -17.2470      2.00000
    336     -17.2239      2.00000
    337     -17.2239      2.00000
    338     -17.2239      2.00000
    339     -17.2239      2.00000
    340     -17.2239      2.00000
    341     -17.2239      2.00000
    342     -17.2239      2.00000
    343     -17.2239      2.00000
    344     -17.2239      2.00000
    345     -17.2239      2.00000
    346     -17.2239      2.00000
    347     -17.2239      2.00000
    348     -17.2130      2.00000
    349     -17.2130      2.00000
    350     -17.2130      2.00000
    351     -17.2130      2.00000
    352     -17.2130      2.00000
    353     -17.2130      2.00000
    354     -17.2130      2.00000
    355     -17.2130      2.00000
    356     -17.2130      2.00000
    357     -17.2130      2.00000
    358     -17.2130      2.00000
    359     -17.2130      2.00000
    360     -17.2130      2.00000
    361     -17.2130      2.00000
    362     -17.2130      2.00000
    363     -17.2130      2.00000
    364     -17.2130      2.00000
    365     -17.2130      2.00000
    366     -17.2130      2.00000
    367     -17.2130      2.00000
    368     -17.2130      2.00000
    369     -17.2130      2.00000
    370     -17.2130      2.00000
    371     -17.2130      2.00000
    372     -17.2028      2.00000
    373     -17.2028      2.00000
    374     -17.2028      2.00000
    375     -17.2028      2.00000
    376     -17.2028      2.00000
    377     -17.2028      2.00000
    378     -17.0841      2.00000
    379     -17.0841      2.00000
    380     -17.0841      2.00000
    381     -17.0841      2.00000
    382     -17.0841      2.00000
    383     -17.0841      2.00000
    384     -17.0713      2.00000
    385     -17.0713      2.00000
    386     -17.0713      2.00000
    387     -17.0713      2.00000
    388     -17.0713      2.00000
    389     -17.0713      2.00000
    390     -17.0713      2.00000
    391     -17.0713      2.00000
    392     -17.0396      2.00000
    393     -17.0396      2.00000
    394     -17.0396      2.00000
    395     -17.0396      2.00000
    396     -17.0396      2.00000
    397     -17.0396      2.00000
    398     -17.0396      2.00000
    399     -17.0396      2.00000
    400     -17.0396      2.00000
    401     -17.0396      2.00000
    402     -17.0396      2.00000
    403     -17.0396      2.00000
    404     -17.0332      2.00000
    405     -17.0332      2.00000
    406     -17.0332      2.00000
    407     -17.0332      2.00000
    408     -17.0332      2.00000
    409     -17.0332      2.00000
    410     -17.0332      2.00000
    411     -17.0332      2.00000
    412     -17.0332      2.00000
    413     -17.0332      2.00000
    414     -17.0332      2.00000
    415     -17.0332      2.00000
    416     -17.0020      2.00000
    417     -17.0020      2.00000
    418     -17.0020      2.00000
    419     -17.0020      2.00000
    420     -17.0020      2.00000
    421     -17.0020      2.00000
    422     -17.0020      2.00000
    423     -17.0020      2.00000
    424     -17.0020      2.00000
    425     -17.0020      2.00000
    426     -17.0020      2.00000
    427     -17.0020      2.00000
    428     -17.0020      2.00000
    429     -17.0020      2.00000
    430     -17.0020      2.00000
    431     -17.0020      2.00000
    432     -16.9923      2.00000
    433     -16.9923      2.00000
    434     -16.9923      2.00000
    435     -16.9923      2.00000
    436     -16.9923      2.00000
    437     -16.9923      2.00000
    438     -16.9923      2.00000
    439     -16.9923      2.00000
    440     -16.9923      2.00000
    441     -16.9923      2.00000
    442     -16.9923      2.00000
    443     -16.9923      2.00000
    444     -16.9923      2.00000
    445     -16.9923      2.00000
    446     -16.9923      2.00000
    447     -16.9923      2.00000
    448     -16.9923      2.00000
    449     -16.9923      2.00000
    450     -16.9923      2.00000
    451     -16.9923      2.00000
    452     -16.9923      2.00000
    453     -16.9923      2.00000
    454     -16.9923      2.00000
    455     -16.9923      2.00000
    456     -16.9816      2.00000
    457     -16.9816      2.00000
    458     -16.9816      2.00000
    459     -16.9816      2.00000
    460     -16.9816      2.00000
    461     -16.9816      2.00000
    462     -16.9816      2.00000
    463     -16.9816      2.00000
    464     -16.9816      2.00000
    465     -16.9816      2.00000
    466     -16.9816      2.00000
    467     -16.9816      2.00000
    468     -16.9816      2.00000
    469     -16.9816      2.00000
    470     -16.9816      2.00000
    471     -16.9816      2.00000
    472     -16.9816      2.00000
    473     -16.9816      2.00000
    474     -16.9816      2.00000
    475     -16.9816      2.00000
    476     -16.9816      2.00000
    477     -16.9816      2.00000
    478     -16.9816      2.00000
    479     -16.9816      2.00000
    480     -16.9721      2.00000
    481     -16.9721      2.00000
    482     -16.9721      2.00000
    483     -16.9721      2.00000
    484     -16.9721      2.00000
    485     -16.9721      2.00000
    486     -16.9721      2.00000
    487     -16.9721      2.00000
    488     -16.9721      2.00000
    489     -16.9720      2.00000
    490     -16.9720      2.00000
    491     -16.9720      2.00000
    492     -16.8798      2.00000
    493     -16.8798      2.00000
    494     -16.8798      2.00000
    495     -16.8798      2.00000
    496     -16.8798      2.00000
    497     -16.8798      2.00000
    498     -16.8751      2.00000
    499     -16.8751      2.00000
    500     -16.8751      2.00000
    501     -16.8751      2.00000
    502     -16.8751      2.00000
    503     -16.8751      2.00000
    504     -16.8751      2.00000
    505     -16.8751      2.00000
    506     -16.8751      2.00000
    507     -16.8751      2.00000
    508     -16.8751      2.00000
    509     -16.8751      2.00000
    510     -16.8687      2.00000
    511     -16.8687      2.00000
    512     -16.8687      2.00000
    513       3.6636      2.00000
    514       4.6931      2.00000
    515       4.6931      2.00000
    516       4.6931      2.00000
    517       4.6931      2.00000
    518       4.6931      2.00000
    519       4.6931      2.00000
    520       5.4290      2.00000
    521       5.4290      2.00000
    522       5.4290      2.00000
    523       5.4290      2.00000
    524       5.4290      2.00000
    525       5.4290      2.00000
    526       5.4290      2.00000
    527       5.4290      2.00000
    528       5.4290      2.00000
    529       5.4290      2.00000
    530       5.4290      2.00000
    531       5.4291      2.00000
    532       6.1875      2.00000
    533       6.1875      2.00000
    534       6.1875      2.00000
    535       6.1875      2.00000
    536       6.1875      2.00000
    537       6.1875      2.00000
    538       6.2713      2.00000
    539       6.2713      2.00000
    540       6.2713      2.00000
    541       6.2713      2.00000
    542       6.2713      2.00000
    543       6.2713      2.00000
    544       6.2714      2.00000
    545       6.2714      2.00000
    546       6.3830      2.00000
    547       6.3830      2.00000
    548       6.6239      2.00000
    549       6.6239      2.00000
    550       6.6239      2.00000
    551       6.6239      2.00000
    552       6.6239      2.00000
    553       6.6239      2.00000
    554       6.6239      2.00000
    555       6.6239      2.00000
    556       6.6239      2.00000
    557       6.6239      2.00000
    558       6.6239      2.00000
    559       6.6239      2.00000
    560       6.6239      2.00000
    561       6.6239      2.00000
    562       6.6239      2.00000
    563       6.6239      2.00000
    564       6.6239      2.00000
    565       6.6239      2.00000
    566       6.6239      2.00000
    567       6.6239      2.00000
    568       6.6239      2.00000
    569       6.6239      2.00000
    570       6.6239      2.00000
    571       6.6239      2.00000
    572       6.8029      2.00000
    573       6.8029      2.00000
    574       6.8029      2.00000
    575       6.8029      2.00000
    576       6.8029      2.00000
    577       6.8029      2.00000
    578       6.9889      2.00000
    579       6.9889      2.00000
    580       6.9889      2.00000
    581       6.9889      2.00000
    582       6.9889      2.00000
    583       6.9889      2.00000
    584       7.0706      2.00000
    585       7.0706      2.00000
    586       7.0706      2.00000
    587       7.0706      2.00000
    588       7.0706      2.00000
    589       7.0706      2.00000
    590       7.1421      2.00000
    591       7.1421      2.00000
    592       7.1421      2.00000
    593       7.1421      2.00000
    594       7.1421      2.00000
    595       7.1421      2.00000
    596       7.1421      2.00000
    597       7.1421      2.00000
    598       7.1421      2.00000
    599       7.1421      2.00000
    600       7.1421      2.00000
    601       7.1421      2.00000
    602       7.1972      2.00000
    603       7.1972      2.00000
    604       7.1972      2.00000
    605       7.1972      2.00000
    606       7.1972      2.00000
    607       7.1972      2.00000
    608       7.1972      2.00000
    609       7.1972      2.00000
    610       7.1972      2.00000
    611       7.1972      2.00000
    612       7.1972      2.00000
    613       7.1972      2.00000
    614       7.2478      2.00000
    615       7.2478      2.00000
    616       7.2478      2.00000
    617       7.2478      2.00000
    618       7.2478      2.00000
    619       7.2478      2.00000
    620       7.2478      2.00000
    621       7.2478      2.00000
    622       7.2478      2.00000
    623       7.2478      2.00000
    624       7.2478      2.00000
    625       7.2478      2.00000
    626       7.2478      2.00000
    627       7.2478      2.00000
    628       7.2478      2.00000
    629       7.2478      2.00000
    630       7.2478      2.00000
    631       7.2478      2.00000
    632       7.2478      2.00000
    633       7.2478      2.00000
    634       7.2478      2.00000
    635       7.2478      2.00000
    636       7.2478      2.00000
    637       7.2478      2.00000
    638       7.9235      2.00000
    639       7.9235      2.00000
    640       7.9235      2.00000
    641       7.9235      2.00000
    642       7.9235      2.00000
    643       7.9235      2.00000
    644       7.9235      2.00000
    645       7.9235      2.00000
    646       7.9235      2.00000
    647       7.9235      2.00000
    648       7.9235      2.00000
    649       7.9235      2.00000
    650       8.0929      2.00000
    651       8.0929      2.00000
    652       8.0929      2.00000
    653       8.0929      2.00000
    654       8.0929      2.00000
    655       8.0929      2.00000
    656       8.0929      2.00000
    657       8.0929      2.00000
    658       8.0929      2.00000
    659       8.0929      2.00000
    660       8.0929      2.00000
    661       8.0929      2.00000
    662       8.0929      2.00000
    663       8.0929      2.00000
    664       8.0929      2.00000
    665       8.0929      2.00000
    666       8.2010      2.00000
    667       8.2010      2.00000
    668       8.2010      2.00000
    669       8.2010      2.00000
    670       8.2010      2.00000
    671       8.2010      2.00000
    672       8.2010      2.00000
    673       8.2010      2.00000
    674       8.2010      2.00000
    675       8.2010      2.00000
    676       8.2010      2.00000
    677       8.2010      2.00000
    678       8.3213      2.00000
    679       8.3213      2.00000
    680       8.3213      2.00000
    681       8.3213      2.00000
    682       8.3213      2.00000
    683       8.3213      2.00000
    684       8.3384      2.00001
    685       8.3384      2.00001
    686       8.3384      2.00001
    687       8.3384      2.00001
    688       8.3384      2.00001
    689       8.3384      2.00001
    690       8.3384      2.00001
    691       8.3384      2.00001
    692       8.3384      2.00001
    693       8.3384      2.00001
    694       8.3384      2.00001
    695       8.3384      2.00001
    696       8.3384      2.00001
    697       8.3384      2.00001
    698       8.3384      2.00001
    699       8.3384      2.00001
    700       8.3384      2.00001
    701       8.3384      2.00001
    702       8.3384      2.00001
    703       8.3384      2.00001
    704       8.3384      2.00001
    705       8.3384      2.00001
    706       8.3384      2.00001
    707       8.3384      2.00001
    708       8.4875      2.00065
    709       8.4875      2.00065
    710       8.4875      2.00065
    711       8.4875      2.00065
    712       8.4875      2.00065
    713       8.4875      2.00065
    714       8.4875      2.00065
    715       8.4875      2.00065
    716       8.5039      2.00098
    717       8.5039      2.00098
    718       8.5039      2.00098
    719       8.5039      2.00098
    720       8.5039      2.00098
    721       8.5039      2.00098
    722       8.7238      2.04764
    723       8.7238      2.04764
    724       8.7238      2.04764
    725       8.7238      2.04764
    726       8.7238      2.04764
    727       8.7238      2.04764
    728       8.7282      2.04970
    729       8.7282      2.04970
    730       8.7282      2.04970
    731       8.7282      2.04970
    732       8.7282      2.04970
    733       8.7282      2.04970
    734       8.7282      2.04970
    735       8.7282      2.04970
    736       8.7282      2.04970
    737       8.7282      2.04970
    738       8.7282      2.04970
    739       8.7282      2.04970
    740       8.7282      2.04970
    741       8.7282      2.04970
    742       8.7282      2.04970
    743       8.7282      2.04970
    744       9.0708      0.74663
    745       9.0708      0.74662
    746       9.0708      0.74661
    747       9.0709      0.74659
    748       9.0709      0.74657
    749       9.0709      0.74657
    750       9.0709      0.74656
    751       9.0709      0.74655
    752       9.0709      0.74653
    753       9.0709      0.74653
    754       9.0709      0.74652
    755       9.0709      0.74651
    756       9.0709      0.74650
    757       9.0709      0.74649
    758       9.0709      0.74648
    759       9.0709      0.74646
    760       9.0709      0.74646
    761       9.0709      0.74645
    762       9.0709      0.74644
    763       9.0709      0.74643
    764       9.0709      0.74642
    765       9.0709      0.74642
    766       9.0709      0.74639
    767       9.0709      0.74638
    768       9.0852      0.63202
    769       9.0852      0.63201
    770       9.0852      0.63199
    771       9.0852      0.63199
    772       9.0852      0.63199
    773       9.0852      0.63198
    774       9.0852      0.63198
    775       9.0852      0.63198
    776       9.0852      0.63197
    777       9.0852      0.63196
    778       9.0852      0.63195
    779       9.0852      0.63195
    780       9.0852      0.63193
    781       9.0852      0.63192
    782       9.0852      0.63192
    783       9.0852      0.63191
    784       9.0852      0.63191
    785       9.0852      0.63191
    786       9.0852      0.63189
    787       9.0852      0.63189
    788       9.0852      0.63188
    789       9.0852      0.63188
    790       9.0852      0.63186
    791       9.0852      0.63185
    792       9.1187      0.39139
    793       9.1187      0.39138
    794       9.1187      0.39138
    795       9.1187      0.39137
    796       9.1187      0.39136
    797       9.1187      0.39136
    798       9.1187      0.39135
    799       9.1187      0.39134
    800       9.1187      0.39134
    801       9.1187      0.39134
    802       9.1187      0.39133
    803       9.1187      0.39132
    804       9.1187      0.39131
    805       9.1187      0.39131
    806       9.1187      0.39131
    807       9.1187      0.39130
    808       9.1187      0.39129
    809       9.1187      0.39129
    810       9.1187      0.39128
    811       9.1187      0.39127
    812       9.1187      0.39126
    813       9.1187      0.39126
    814       9.1187      0.39126
    815       9.1187      0.39125
    816       9.1228      0.36461
    817       9.1228      0.36460
    818       9.1228      0.36460
    819       9.1228      0.36459
    820       9.1228      0.36458
    821       9.1228      0.36457
    822       9.1228      0.36457
    823       9.1228      0.36456
    824       9.1228      0.36455
    825       9.1228      0.36455
    826       9.1228      0.36454
    827       9.1228      0.36453
    828       9.4665     -0.01028
    829       9.4665     -0.01028
    830       9.4665     -0.01028
    831       9.4665     -0.01028
    832       9.4665     -0.01028
    833       9.4665     -0.01028
    834       9.4665     -0.01028
    835       9.4665     -0.01028
    836       9.4665     -0.01028
    837       9.4665     -0.01028
    838       9.4665     -0.01028
    839       9.4665     -0.01028
    840       9.7007     -0.00003
    841       9.7007     -0.00003
    842       9.7007     -0.00003
    843       9.7007     -0.00003
    844       9.7007     -0.00003
    845       9.7007     -0.00003
    846       9.7007     -0.00003
    847       9.7007     -0.00003
    848       9.7007     -0.00003
    849       9.7008     -0.00003
    850       9.7008     -0.00003
    851       9.7008     -0.00003
    852      10.0742     -0.00000
    853      10.0742     -0.00000
    854      10.0742     -0.00000
    855      10.0742     -0.00000
    856      10.0742     -0.00000
    857      10.0742     -0.00000
    858      10.0742     -0.00000
    859      10.0742     -0.00000
    860      10.0742     -0.00000
    861      10.0742     -0.00000
    862      10.0743     -0.00000
    863      10.0743     -0.00000
    864      10.1722     -0.00000
    865      10.1722     -0.00000
    866      10.1722     -0.00000
    867      10.4342     -0.00000
    868      10.4342     -0.00000
    869      10.4342     -0.00000
    870      10.4342     -0.00000
    871      10.4342     -0.00000
    872      10.4342     -0.00000
    873      10.4342     -0.00000
    874      10.4343     -0.00000
    875      10.4343     -0.00000
    876      10.4343     -0.00000
    877      10.4343     -0.00000
    878      10.4343     -0.00000
    879      10.5452     -0.00000
    880      10.5452     -0.00000
    881      10.5452     -0.00000
    882      10.5452     -0.00000
    883      10.5452     -0.00000
    884      10.5452     -0.00000
    885      10.5452     -0.00000
    886      10.5452     -0.00000
    887      10.5452     -0.00000
    888      10.5452     -0.00000
    889      10.5452     -0.00000
    890      10.5452     -0.00000
    891      10.6750     -0.00000
    892      10.6750     -0.00000
    893      10.6750     -0.00000
    894      10.6750     -0.00000
    895      10.6750     -0.00000
    896      10.6750     -0.00000
    897      10.7466     -0.00000
    898      10.7466     -0.00000
    899      10.7466     -0.00000
    900      10.7466     -0.00000
    901      10.7466     -0.00000
    902      10.7466     -0.00000
    903      11.0986     -0.00000
    904      11.0986     -0.00000
    905      11.0986     -0.00000
    906      11.0986     -0.00000
    907      11.0986     -0.00000
    908      11.0986     -0.00000
    909      11.0986     -0.00000
    910      11.0986     -0.00000
    911      11.0986     -0.00000
    912      11.0986     -0.00000
    913      11.0986     -0.00000
    914      11.0986     -0.00000
    915      11.1801     -0.00000
    916      11.1801     -0.00000
    917      11.1801     -0.00000
    918      11.1801     -0.00000
    919      11.1801     -0.00000
    920      11.1801     -0.00000
    921      11.7298     -0.00000
    922      11.7298     -0.00000
    923      11.7298     -0.00000
    924      11.7298     -0.00000

 k-point     2 :       0.5000    0.0000    0.0000
  band No.  band energies     occupation 
      1     -39.3715      2.00000
      2     -39.3713      2.00000
      3     -39.3266      2.00000
      4     -39.3266      2.00000
      5     -39.3266      2.00000
      6     -39.3266      2.00000
      7     -39.3265      2.00000
      8     -39.3265      2.00000
      9     -39.3265      2.00000
     10     -39.3265      2.00000
     11     -39.2925      2.00000
     12     -39.2925      2.00000
     13     -39.2925      2.00000
     14     -39.2925      2.00000
     15     -39.2924      2.00000
     16     -39.2924      2.00000
     17     -39.2924      2.00000
     18     -39.2924      2.00000
     19     -39.2850      2.00000
     20     -39.2850      2.00000
     21     -39.2620      2.00000
     22     -39.2620      2.00000
     23     -39.2620      2.00000
     24     -39.2620      2.00000
     25     -39.2620      2.00000
     26     -39.2620      2.00000
     27     -39.2620      2.00000
     28     -39.2620      2.00000
     29     -39.2438      2.00000
     30     -39.2438      2.00000
     31     -39.2438      2.00000
     32     -39.2438      2.00000
     33     -39.2438      2.00000
     34     -39.2438      2.00000
     35     -39.2438      2.00000
     36     -39.2438      2.00000
     37     -39.2254      2.00000
     38     -39.2254      2.00000
     39     -39.2254      2.00000
     40     -39.2254      2.00000
     41     -39.2253      2.00000
     42     -39.2253      2.00000
     43     -39.2253      2.00000
     44     -39.2253      2.00000
     45     -39.2188      2.00000
     46     -39.2188      2.00000
     47     -39.2188      2.00000
     48     -39.2188      2.00000
     49     -39.2188      2.00000
     50     -39.2188      2.00000
     51     -39.2188      2.00000
     52     -39.2188      2.00000
     53     -39.2187      2.00000
     54     -39.2187      2.00000
     55     -39.2186      2.00000
     56     -39.2186      2.00000
     57     -39.2186      2.00000
     58     -39.2186      2.00000
     59     -39.2186      2.00000
     60     -39.2186      2.00000
     61     -39.2160      2.00000
     62     -39.2160      2.00000
     63     -39.2160      2.00000
     64     -39.2160      2.00000
     65     -39.2158      2.00000
     66     -39.2158      2.00000
     67     -39.2158      2.00000
     68     -39.2158      2.00000
     69     -39.2119      2.00000
     70     -39.2119      2.00000
     71     -39.2118      2.00000
     72     -39.2118      2.00000
     73     -39.2093      2.00000
     74     -39.2093      2.00000
     75     -39.2093      2.00000
     76     -39.2093      2.00000
     77     -39.2093      2.00000
     78     -39.2093      2.00000
     79     -39.2093      2.00000
     80     -39.2093      2.00000
     81     -39.2092      2.00000
     82     -39.2092      2.00000
     83     -39.2091      2.00000
     84     -39.2091      2.00000
     85     -39.2091      2.00000
     86     -39.2091      2.00000
     87     -39.2091      2.00000
     88     -39.2091      2.00000
     89     -39.2028      2.00000
     90     -39.2028      2.00000
     91     -39.2026      2.00000
     92     -39.2026      2.00000
     93     -39.1879      2.00000
     94     -39.1879      2.00000
     95     -39.1879      2.00000
     96     -39.1879      2.00000
     97     -39.1879      2.00000
     98     -39.1879      2.00000
     99     -39.1879      2.00000
    100     -39.1879      2.00000
    101     -39.1830      2.00000
    102     -39.1830      2.00000
    103     -39.1830      2.00000
    104     -39.1830      2.00000
    105     -39.1830      2.00000
    106     -39.1830      2.00000
    107     -39.1830      2.00000
    108     -39.1830      2.00000
    109     -39.1733      2.00000
    110     -39.1733      2.00000
    111     -39.1577      2.00000
    112     -39.1577      2.00000
    113     -39.1577      2.00000
    114     -39.1577      2.00000
    115     -39.1576      2.00000
    116     -39.1576      2.00000
    117     -39.1576      2.00000
    118     -39.1576      2.00000
    119     -39.1360      2.00000
    120     -39.1360      2.00000
    121     -39.1360      2.00000
    122     -39.1360      2.00000
    123     -39.1359      2.00000
    124     -39.1359      2.00000
    125     -39.1359      2.00000
    126     -39.1359      2.00000
    127     -39.1026      2.00000
    128     -39.1024      2.00000
    129     -17.8857      2.00000
    130     -17.8857      2.00000
    131     -17.8856      2.00000
    132     -17.8856      2.00000
    133     -17.8764      2.00000
    134     -17.8764      2.00000
    135     -17.8764      2.00000
    136     -17.8764      2.00000
    137     -17.8762      2.00000
    138     -17.8762      2.00000
    139     -17.8762      2.00000
    140     -17.8762      2.00000
    141     -17.7930      2.00000
    142     -17.7930      2.00000
    143     -17.7930      2.00000
    144     -17.7930      2.00000
    145     -17.7930      2.00000
    146     -17.7930      2.00000
    147     -17.7930      2.00000
    148     -17.7930      2.00000
    149     -17.7568      2.00000
    150     -17.7568      2.00000
    151     -17.7568      2.00000
    152     -17.7568      2.00000
    153     -17.7568      2.00000
    154     -17.7568      2.00000
    155     -17.7568      2.00000
    156     -17.7568      2.00000
    157     -17.7567      2.00000
    158     -17.7567      2.00000
    159     -17.7566      2.00000
    160     -17.7566      2.00000
    161     -17.7566      2.00000
    162     -17.7566      2.00000
    163     -17.7566      2.00000
    164     -17.7566      2.00000
    165     -17.7362      2.00000
    166     -17.7362      2.00000
    167     -17.7362      2.00000
    168     -17.7362      2.00000
    169     -17.7362      2.00000
    170     -17.7362      2.00000
    171     -17.7362      2.00000
    172     -17.7362      2.00000
    173     -17.7361      2.00000
    174     -17.7361      2.00000
    175     -17.7361      2.00000
    176     -17.7361      2.00000
    177     -17.7361      2.00000
    178     -17.7361      2.00000
    179     -17.7361      2.00000
    180     -17.7361      2.00000
    181     -17.7277      2.00000
    182     -17.7277      2.00000
    183     -17.7277      2.00000
    184     -17.7277      2.00000
    185     -17.7276      2.00000
    186     -17.7276      2.00000
    187     -17.7276      2.00000
    188     -17.7276      2.00000
    189     -17.7187      2.00000
    190     -17.7187      2.00000
    191     -17.7187      2.00000
    192     -17.7187      2.00000
    193     -17.7187      2.00000
    194     -17.7187      2.00000
    195     -17.7187      2.00000
    196     -17.7187      2.00000
    197     -17.6735      2.00000
    198     -17.6735      2.00000
    199     -17.6735      2.00000
    200     -17.6735      2.00000
    201     -17.6735      2.00000
    202     -17.6735      2.00000
    203     -17.6735      2.00000
    204     -17.6735      2.00000
    205     -17.6726      2.00000
    206     -17.6726      2.00000
    207     -17.6726      2.00000
    208     -17.6726      2.00000
    209     -17.6725      2.00000
    210     -17.6725      2.00000
    211     -17.6725      2.00000
    212     -17.6725      2.00000
    213     -17.6089      2.00000
    214     -17.6089      2.00000
    215     -17.6089      2.00000
    216     -17.6089      2.00000
    217     -17.6089      2.00000
    218     -17.6089      2.00000
    219     -17.6089      2.00000
    220     -17.6089      2.00000
    221     -17.6041      2.00000
    222     -17.6041      2.00000
    223     -17.6041      2.00000
    224     -17.6041      2.00000
    225     -17.5938      2.00000
    226     -17.5936      2.00000
    227     -17.5637      2.00000
    228     -17.5637      2.00000
    229     -17.5637      2.00000
    230     -17.5637      2.00000
    231     -17.5637      2.00000
    232     -17.5637      2.00000
    233     -17.5637      2.00000
    234     -17.5637      2.00000
    235     -17.5635      2.00000
    236     -17.5635      2.00000
    237     -17.5633      2.00000
    238     -17.5633      2.00000
    239     -17.5449      2.00000
    240     -17.5449      2.00000
    241     -17.4978      2.00000
    242     -17.4978      2.00000
    243     -17.4978      2.00000
    244     -17.4978      2.00000
    245     -17.4977      2.00000
    246     -17.4977      2.00000
    247     -17.4977      2.00000
    248     -17.4977      2.00000
    249     -17.4849      2.00000
    250     -17.4849      2.00000
    251     -17.4849      2.00000
    252     -17.4849      2.00000
    253     -17.4849      2.00000
    254     -17.4849      2.00000
    255     -17.4849      2.00000
    256     -17.4849      2.00000
    257     -17.4617      2.00000
    258     -17.4617      2.00000
    259     -17.4617      2.00000
    260     -17.4617      2.00000
    261     -17.4616      2.00000
    262     -17.4616      2.00000
    263     -17.4616      2.00000
    264     -17.4616      2.00000
    265     -17.4612      2.00000
    266     -17.4612      2.00000
    267     -17.4612      2.00000
    268     -17.4612      2.00000
    269     -17.4610      2.00000
    270     -17.4610      2.00000
    271     -17.4610      2.00000
    272     -17.4610      2.00000
    273     -17.3849      2.00000
    274     -17.3849      2.00000
    275     -17.3849      2.00000
    276     -17.3849      2.00000
    277     -17.3849      2.00000
    278     -17.3849      2.00000
    279     -17.3849      2.00000
    280     -17.3849      2.00000
    281     -17.3751      2.00000
    282     -17.3751      2.00000
    283     -17.3750      2.00000
    284     -17.3750      2.00000
    285     -17.3632      2.00000
    286     -17.3632      2.00000
    287     -17.3632      2.00000
    288     -17.3632      2.00000
    289     -17.3192      2.00000
    290     -17.3192      2.00000
    291     -17.3192      2.00000
    292     -17.3192      2.00000
    293     -17.3192      2.00000
    294     -17.3192      2.00000
    295     -17.3192      2.00000
    296     -17.3192      2.00000
    297     -17.3191      2.00000
    298     -17.3191      2.00000
    299     -17.3191      2.00000
    300     -17.3191      2.00000
    301     -17.3191      2.00000
    302     -17.3191      2.00000
    303     -17.3191      2.00000
    304     -17.3191      2.00000
    305     -17.3131      2.00000
    306     -17.3131      2.00000
    307     -17.3131      2.00000
    308     -17.3131      2.00000
    309     -17.3131      2.00000
    310     -17.3131      2.00000
    311     -17.3131      2.00000
    312     -17.3131      2.00000
    313     -17.2738      2.00000
    314     -17.2738      2.00000
    315     -17.2556      2.00000
    316     -17.2556      2.00000
    317     -17.2556      2.00000
    318     -17.2556      2.00000
    319     -17.2556      2.00000
    320     -17.2556      2.00000
    321     -17.2556      2.00000
    322     -17.2556      2.00000
    323     -17.2555      2.00000
    324     -17.2555      2.00000
    325     -17.2555      2.00000
    326     -17.2555      2.00000
    327     -17.2555      2.00000
    328     -17.2555      2.00000
    329     -17.2555      2.00000
    330     -17.2555      2.00000
    331     -17.2325      2.00000
    332     -17.2325      2.00000
    333     -17.2324      2.00000
    334     -17.2324      2.00000
    335     -17.2205      2.00000
    336     -17.2205      2.00000
    337     -17.2205      2.00000
    338     -17.2205      2.00000
    339     -17.2203      2.00000
    340     -17.2203      2.00000
    341     -17.2203      2.00000
    342     -17.2203      2.00000
    343     -17.2141      2.00000
    344     -17.2141      2.00000
    345     -17.2141      2.00000
    346     -17.2141      2.00000
    347     -17.2140      2.00000
    348     -17.2140      2.00000
    349     -17.2140      2.00000
    350     -17.2140      2.00000
    351     -17.2061      2.00000
    352     -17.2061      2.00000
    353     -17.2061      2.00000
    354     -17.2061      2.00000
    355     -17.2059      2.00000
    356     -17.2059      2.00000
    357     -17.2059      2.00000
    358     -17.2059      2.00000
    359     -17.2031      2.00000
    360     -17.2031      2.00000
    361     -17.2031      2.00000
    362     -17.2031      2.00000
    363     -17.1673      2.00000
    364     -17.1673      2.00000
    365     -17.1673      2.00000
    366     -17.1673      2.00000
    367     -17.1672      2.00000
    368     -17.1672      2.00000
    369     -17.1672      2.00000
    370     -17.1672      2.00000
    371     -17.1448      2.00000
    372     -17.1448      2.00000
    373     -17.1448      2.00000
    374     -17.1448      2.00000
    375     -17.1448      2.00000
    376     -17.1448      2.00000
    377     -17.1448      2.00000
    378     -17.1448      2.00000
    379     -17.1206      2.00000
    380     -17.1206      2.00000
    381     -17.1206      2.00000
    382     -17.1206      2.00000
    383     -17.1205      2.00000
    384     -17.1205      2.00000
    385     -17.1205      2.00000
    386     -17.1205      2.00000
    387     -17.1172      2.00000
    388     -17.1172      2.00000
    389     -17.1172      2.00000
    390     -17.1172      2.00000
    391     -17.1172      2.00000
    392     -17.1172      2.00000
    393     -17.1172      2.00000
    394     -17.1172      2.00000
    395     -17.1113      2.00000
    396     -17.1113      2.00000
    397     -17.1113      2.00000
    398     -17.1113      2.00000
    399     -17.1113      2.00000
    400     -17.1113      2.00000
    401     -17.1113      2.00000
    402     -17.1113      2.00000
    403     -17.0867      2.00000
    404     -17.0867      2.00000
    405     -17.0867      2.00000
    406     -17.0867      2.00000
    407     -17.0272      2.00000
    408     -17.0272      2.00000
    409     -17.0272      2.00000
    410     -17.0272      2.00000
    411     -17.0271      2.00000
    412     -17.0271      2.00000
    413     -17.0271      2.00000
    414     -17.0271      2.00000
    415     -17.0110      2.00000
    416     -17.0110      2.00000
    417     -17.0110      2.00000
    418     -17.0110      2.00000
    419     -17.0110      2.00000
    420     -17.0110      2.00000
    421     -17.0110      2.00000
    422     -17.0110      2.00000
    423     -17.0109      2.00000
    424     -17.0109      2.00000
    425     -17.0109      2.00000
    426     -17.0109      2.00000
    427     -17.0109      2.00000
    428     -17.0109      2.00000
    429     -17.0109      2.00000
    430     -17.0109      2.00000
    431     -17.0091      2.00000
    432     -17.0091      2.00000
    433     -17.0091      2.00000
    434     -17.0091      2.00000
    435     -17.0091      2.00000
    436     -17.0091      2.00000
    437     -17.0091      2.00000
    438     -17.0091      2.00000
    439     -16.9892      2.00000
    440     -16.9892      2.00000
    441     -16.9892      2.00000
    442     -16.9892      2.00000
    443     -16.9891      2.00000
    444     -16.9891      2.00000
    445     -16.9890      2.00000
    446     -16.9890      2.00000
    447     -16.9827      2.00000
    448     -16.9827      2.00000
    449     -16.9827      2.00000
    450     -16.9827      2.00000
    451     -16.9827      2.00000
    452     -16.9827      2.00000
    453     -16.9827      2.00000
    454     -16.9827      2.00000
    455     -16.9807      2.00000
    456     -16.9807      2.00000
    457     -16.9807      2.00000
    458     -16.9807      2.00000
    459     -16.9807      2.00000
    460     -16.9807      2.00000
    461     -16.9807      2.00000
    462     -16.9807      2.00000
    463     -16.9806      2.00000
    464     -16.9806      2.00000
    465     -16.9806      2.00000
    466     -16.9806      2.00000
    467     -16.9806      2.00000
    468     -16.9806      2.00000
    469     -16.9806      2.00000
    470     -16.9806      2.00000
    471     -16.9303      2.00000
    472     -16.9302      2.00000
    473     -16.9194      2.00000
    474     -16.9194      2.00000
    475     -16.9193      2.00000
    476     -16.9193      2.00000
    477     -16.9085      2.00000
    478     -16.9085      2.00000
    479     -16.9085      2.00000
    480     -16.9085      2.00000
    481     -16.9084      2.00000
    482     -16.9084      2.00000
    483     -16.9084      2.00000
    484     -16.9084      2.00000
    485     -16.9078      2.00000
    486     -16.9078      2.00000
    487     -16.9078      2.00000
    488     -16.9078      2.00000
    489     -16.9077      2.00000
    490     -16.9077      2.00000
    491     -16.9077      2.00000
    492     -16.9077      2.00000
    493     -16.9075      2.00000
    494     -16.9075      2.00000
    495     -16.9075      2.00000
    496     -16.9075      2.00000
    497     -16.9075      2.00000
    498     -16.9075      2.00000
    499     -16.9075      2.00000
    500     -16.9075      2.00000
    501     -16.9067      2.00000
    502     -16.9067      2.00000
    503     -16.9067      2.00000
    504     -16.9067      2.00000
    505     -16.9067      2.00000
    506     -16.9067      2.00000
    507     -16.9067      2.00000
    508     -16.9067      2.00000
    509     -16.8958      2.00000
    510     -16.8958      2.00000
    511     -16.8956      2.00000
    512     -16.8956      2.00000
    513       3.9348      2.00000
    514       3.9349      2.00000
    515       4.8991      2.00000
    516       4.8991      2.00000
    517       4.8991      2.00000
    518       4.8991      2.00000
    519       4.8992      2.00000
    520       4.8992      2.00000
    521       4.8992      2.00000
    522       4.8992      2.00000
    523       5.6677      2.00000
    524       5.6677      2.00000
    525       5.6677      2.00000
    526       5.6677      2.00000
    527       5.6678      2.00000
    528       5.6678      2.00000
    529       5.6678      2.00000
    530       5.6678      2.00000
    531       5.7587      2.00000
    532       5.7587      2.00000
    533       6.0659      2.00000
    534       6.0659      2.00000
    535       6.0659      2.00000
    536       6.0659      2.00000
    537       6.0659      2.00000
    538       6.0659      2.00000
    539       6.0660      2.00000
    540       6.0660      2.00000
    541       6.3168      2.00000
    542       6.3168      2.00000
    543       6.3168      2.00000
    544       6.3168      2.00000
    545       6.3169      2.00000
    546       6.3169      2.00000
    547       6.3169      2.00000
    548       6.3169      2.00000
    549       6.4631      2.00000
    550       6.4631      2.00000
    551       6.4633      2.00000
    552       6.4633      2.00000
    553       6.5357      2.00000
    554       6.5358      2.00000
    555       6.5936      2.00000
    556       6.5938      2.00000
    557       6.8185      2.00000
    558       6.8185      2.00000
    559       6.8185      2.00000
    560       6.8185      2.00000
    561       6.8186      2.00000
    562       6.8186      2.00000
    563       6.8186      2.00000
    564       6.8186      2.00000
    565       6.8473      2.00000
    566       6.8473      2.00000
    567       6.8473      2.00000
    568       6.8473      2.00000
    569       6.8473      2.00000
    570       6.8473      2.00000
    571       6.8473      2.00000
    572       6.8473      2.00000
    573       6.8474      2.00000
    574       6.8474      2.00000
    575       6.8474      2.00000
    576       6.8474      2.00000
    577       6.8474      2.00000
    578       6.8474      2.00000
    579       6.8474      2.00000
    580       6.8474      2.00000
    581       6.8755      2.00000
    582       6.8755      2.00000
    583       6.8755      2.00000
    584       6.8755      2.00000
    585       6.8755      2.00000
    586       6.8755      2.00000
    587       6.8755      2.00000
    588       6.8755      2.00000
    589       7.0181      2.00000
    590       7.0181      2.00000
    591       7.0181      2.00000
    592       7.0181      2.00000
    593       7.0181      2.00000
    594       7.0181      2.00000
    595       7.0181      2.00000
    596       7.0181      2.00000
    597       7.0684      2.00000
    598       7.0684      2.00000
    599       7.0684      2.00000
    600       7.0684      2.00000
    601       7.0685      2.00000
    602       7.0685      2.00000
    603       7.0685      2.00000
    604       7.0685      2.00000
    605       7.2575      2.00000
    606       7.2575      2.00000
    607       7.2575      2.00000
    608       7.2575      2.00000
    609       7.2575      2.00000
    610       7.2575      2.00000
    611       7.2575      2.00000
    612       7.2575      2.00000
    613       7.2576      2.00000
    614       7.2576      2.00000
    615       7.2576      2.00000
    616       7.2576      2.00000
    617       7.2576      2.00000
    618       7.2576      2.00000
    619       7.2576      2.00000
    620       7.2576      2.00000
    621       7.2935      2.00000
    622       7.2935      2.00000
    623       7.2935      2.00000
    624       7.2935      2.00000
    625       7.2937      2.00000
    626       7.2937      2.00000
    627       7.2937      2.00000
    628       7.2937      2.00000
    629       7.3131      2.00000
    630       7.3131      2.00000
    631       7.4150      2.00000
    632       7.4150      2.00000
    633       7.4150      2.00000
    634       7.4150      2.00000
    635       7.4151      2.00000
    636       7.4151      2.00000
    637       7.4152      2.00000
    638       7.4152      2.00000
    639       7.6922      2.00000
    640       7.6922      2.00000
    641       7.6922      2.00000
    642       7.6922      2.00000
    643       7.6922      2.00000
    644       7.6922      2.00000
    645       7.6922      2.00000
    646       7.6922      2.00000
    647       7.7283      2.00000
    648       7.7284      2.00000
    649       7.9722      2.00000
    650       7.9722      2.00000
    651       7.9722      2.00000
    652       7.9722      2.00000
    653       7.9723      2.00000
    654       7.9723      2.00000
    655       7.9723      2.00000
    656       7.9723      2.00000
    657       8.0745      2.00000
    658       8.0745      2.00000
    659       8.0746      2.00000
    660       8.0746      2.00000
    661       8.2239      2.00000
    662       8.2239      2.00000
    663       8.2239      2.00000
    664       8.2239      2.00000
    665       8.2239      2.00000
    666       8.2239      2.00000
    667       8.2239      2.00000
    668       8.2239      2.00000
    669       8.2445      2.00000
    670       8.2445      2.00000
    671       8.2445      2.00000
    672       8.2445      2.00000
    673       8.2731      2.00000
    674       8.2731      2.00000
    675       8.2732      2.00000
    676       8.2732      2.00000
    677       8.3040      2.00000
    678       8.3040      2.00000
    679       8.3040      2.00000
    680       8.3040      2.00000
    681       8.3040      2.00000
    682       8.3040      2.00000
    683       8.3040      2.00000
    684       8.3040      2.00000
    685       8.3041      2.00000
    686       8.3041      2.00000
    687       8.3041      2.00000
    688       8.3041      2.00000
    689       8.3042      2.00000
    690       8.3042      2.00000
    691       8.3042      2.00000
    692       8.3042      2.00000
    693       8.4894      2.00069
    694       8.4894      2.00069
    695       8.4894      2.00069
    696       8.4894      2.00069
    697       8.4894      2.00069
    698       8.4894      2.00069
    699       8.4894      2.00069
    700       8.4894      2.00069
    701       8.5138      2.00125
    702       8.5138      2.00125
    703       8.5138      2.00125
    704       8.5138      2.00125
    705       8.5139      2.00125
    706       8.5139      2.00125
    707       8.5139      2.00125
    708       8.5139      2.00125
    709       8.6076      2.00907
    710       8.6076      2.00907
    711       8.6076      2.00907
    712       8.6076      2.00907
    713       8.6077      2.00907
    714       8.6077      2.00907
    715       8.6077      2.00907
    716       8.6077      2.00907
    717       8.6077      2.00908
    718       8.6077      2.00908
    719       8.6077      2.00908
    720       8.6077      2.00908
    721       8.6077      2.00908
    722       8.6077      2.00908
    723       8.6077      2.00908
    724       8.6077      2.00908
    725       8.6084      2.00919
    726       8.6084      2.00919
    727       8.6084      2.00920
    728       8.6084      2.00920
    729       8.6084      2.00920
    730       8.6084      2.00920
    731       8.6084      2.00920
    732       8.6084      2.00920
    733       8.6658      2.02352
    734       8.6658      2.02352
    735       8.6658      2.02352
    736       8.6658      2.02352
    737       8.6659      2.02355
    738       8.6659      2.02356
    739       8.6659      2.02356
    740       8.6659      2.02356
    741       8.7294      2.05023
    742       8.7294      2.05023
    743       8.7294      2.05023
    744       8.7294      2.05023
    745       8.7294      2.05023
    746       8.7294      2.05024
    747       8.7294      2.05024
    748       8.7294      2.05024
    749       8.9249      1.81968
    750       8.9250      1.81967
    751       8.9250      1.81967
    752       8.9250      1.81966
    753       8.9250      1.81965
    754       8.9250      1.81965
    755       8.9250      1.81964
    756       8.9250      1.81964
    757       8.9287      1.80176
    758       8.9287      1.80176
    759       8.9287      1.80175
    760       8.9287      1.80175
    761       8.9287      1.80174
    762       8.9287      1.80174
    763       8.9287      1.80174
    764       8.9287      1.80172
    765       8.9962      1.36545
    766       8.9962      1.36545
    767       8.9962      1.36543
    768       8.9962      1.36543
    769       8.9963      1.36452
    770       8.9963      1.36452
    771       8.9963      1.36450
    772       8.9963      1.36450
    773       9.0068      1.28060
    774       9.0068      1.28060
    775       9.0068      1.28060
    776       9.0068      1.28060
    777       9.1582      0.17057
    778       9.1582      0.17057
    779       9.1582      0.17056
    780       9.1582      0.17056
    781       9.1583      0.17008
    782       9.1583      0.17008
    783       9.1583      0.17007
    784       9.1583      0.17007
    785       9.2833     -0.07088
    786       9.2833     -0.07088
    787       9.2834     -0.07088
    788       9.2834     -0.07088
    789       9.2834     -0.07088
    790       9.2834     -0.07088
    791       9.2834     -0.07088
    792       9.2834     -0.07088
    793       9.2834     -0.07088
    794       9.2834     -0.07088
    795       9.2834     -0.07088
    796       9.2834     -0.07088
    797       9.2834     -0.07088
    798       9.2834     -0.07088
    799       9.2834     -0.07088
    800       9.2834     -0.07088
    801       9.3266     -0.06121
    802       9.3266     -0.06121
    803       9.3266     -0.06121
    804       9.3266     -0.06121
    805       9.3266     -0.06121
    806       9.3266     -0.06121
    807       9.3266     -0.06121
    808       9.3266     -0.06121
    809       9.3267     -0.06116
    810       9.3267     -0.06116
    811       9.3268     -0.06116
    812       9.3268     -0.06116
    813       9.3268     -0.06116
    814       9.3268     -0.06116
    815       9.3268     -0.06116
    816       9.3268     -0.06116
    817       9.3538     -0.04922
    818       9.3538     -0.04922
    819       9.3538     -0.04922
    820       9.3538     -0.04922
    821       9.3538     -0.04922
    822       9.3538     -0.04922
    823       9.3539     -0.04922
    824       9.3539     -0.04922
    825       9.4625     -0.01104
    826       9.4625     -0.01104
    827       9.4625     -0.01104
    828       9.4625     -0.01104
    829       9.4625     -0.01104
    830       9.4625     -0.01104
    831       9.4625     -0.01104
    832       9.4625     -0.01104
    833       9.5813     -0.00089
    834       9.5813     -0.00089
    835       9.5813     -0.00089
    836       9.5813     -0.00089
    837       9.5813     -0.00089
    838       9.5813     -0.00089
    839       9.5813     -0.00089
    840       9.5813     -0.00089
    841       9.5995     -0.00056
    842       9.5995     -0.00056
    843       9.5995     -0.00056
    844       9.5995     -0.00056
    845       9.5996     -0.00056
    846       9.5996     -0.00056
    847       9.5996     -0.00056
    848       9.5996     -0.00056
    849       9.7740     -0.00000
    850       9.7740     -0.00000
    851       9.7740     -0.00000
    852       9.7740     -0.00000
    853       9.7740     -0.00000
    854       9.7740     -0.00000
    855       9.7740     -0.00000
    856       9.7740     -0.00000
    857       9.9047     -0.00000
    858       9.9047     -0.00000
    859       9.9047     -0.00000
    860       9.9047     -0.00000
    861       9.9048     -0.00000
    862       9.9048     -0.00000
    863       9.9048     -0.00000
    864       9.9048     -0.00000
    865       9.9152     -0.00000
    866       9.9152     -0.00000
    867      10.1157     -0.00000
    868      10.1157     -0.00000
    869      10.1157     -0.00000
    870      10.1157     -0.00000
    871      10.1157     -0.00000
    872      10.1157     -0.00000
    873      10.1157     -0.00000
    874      10.1157     -0.00000
    875      10.1271     -0.00000
    876      10.1271     -0.00000
    877      10.1272     -0.00000
    878      10.1272     -0.00000
    879      10.1708     -0.00000
    880      10.1708     -0.00000
    881      10.1708     -0.00000
    882      10.1708     -0.00000
    883      10.2994     -0.00000
    884      10.2995     -0.00000
    885      10.4085     -0.00000
    886      10.4085     -0.00000
    887      10.4086     -0.00000
    888      10.4086     -0.00000
    889      10.9567     -0.00000
    890      10.9567     -0.00000
    891      10.9567     -0.00000
    892      10.9567     -0.00000
    893      10.9568     -0.00000
    894      10.9568     -0.00000
    895      10.9568     -0.00000
    896      10.9568     -0.00000
    897      11.2026     -0.00000
    898      11.2026     -0.00000
    899      11.2026     -0.00000
    900      11.2026     -0.00000
    901      11.2026     -0.00000
    902      11.2026     -0.00000
    903      11.2026     -0.00000
    904      11.2026     -0.00000
    905      11.2650     -0.00000
    906      11.2650     -0.00000
    907      11.2650     -0.00000
    908      11.2650     -0.00000
    909      11.2797     -0.00000
    910      11.2797     -0.00000
    911      11.2848     -0.00000
    912      11.2848     -0.00000
    913      11.2848     -0.00000
    914      11.2848     -0.00000
    915      11.2848     -0.00000
    916      11.2848     -0.00000
    917      11.2848     -0.00000
    918      11.2848     -0.00000
    919      11.5346     -0.00000
    920      11.5346     -0.00000
    921      11.5346     -0.00000
    922      11.5346     -0.00000
    923      11.5347     -0.00000
    924      11.5347     -0.00000

 k-point     3 :       0.5000    0.5000    0.0000
  band No.  band energies     occupation 
      1     -39.3598      2.00000
      2     -39.3597      2.00000
      3     -39.3597      2.00000
      4     -39.3596      2.00000
      5     -39.3176      2.00000
      6     -39.3176      2.00000
      7     -39.3175      2.00000
      8     -39.3175      2.00000
      9     -39.3175      2.00000
     10     -39.3175      2.00000
     11     -39.3174      2.00000
     12     -39.3174      2.00000
     13     -39.2788      2.00000
     14     -39.2788      2.00000
     15     -39.2787      2.00000
     16     -39.2787      2.00000
     17     -39.2787      2.00000
     18     -39.2786      2.00000
     19     -39.2786      2.00000
     20     -39.2786      2.00000
     21     -39.2570      2.00000
     22     -39.2570      2.00000
     23     -39.2570      2.00000
     24     -39.2570      2.00000
     25     -39.2570      2.00000
     26     -39.2570      2.00000
     27     -39.2570      2.00000
     28     -39.2570      2.00000
     29     -39.2569      2.00000
     30     -39.2569      2.00000
     31     -39.2569      2.00000
     32     -39.2569      2.00000
     33     -39.2569      2.00000
     34     -39.2569      2.00000
     35     -39.2569      2.00000
     36     -39.2569      2.00000
     37     -39.2391      2.00000
     38     -39.2391      2.00000
     39     -39.2391      2.00000
     40     -39.2391      2.00000
     41     -39.2264      2.00000
     42     -39.2264      2.00000
     43     -39.2264      2.00000
     44     -39.2264      2.00000
     45     -39.2264      2.00000
     46     -39.2264      2.00000
     47     -39.2264      2.00000
     48     -39.2264      2.00000
     49     -39.2236      2.00000
     50     -39.2236      2.00000
     51     -39.2236      2.00000
     52     -39.2236      2.00000
     53     -39.2235      2.00000
     54     -39.2235      2.00000
     55     -39.2234      2.00000
     56     -39.2234      2.00000
     57     -39.2140      2.00000
     58     -39.2139      2.00000
     59     -39.2139      2.00000
     60     -39.2139      2.00000
     61     -39.2139      2.00000
     62     -39.2139      2.00000
     63     -39.2139      2.00000
     64     -39.2139      2.00000
     65     -39.2138      2.00000
     66     -39.2138      2.00000
     67     -39.2138      2.00000
     68     -39.2138      2.00000
     69     -39.2137      2.00000
     70     -39.2137      2.00000
     71     -39.2137      2.00000
     72     -39.2137      2.00000
     73     -39.2047      2.00000
     74     -39.2047      2.00000
     75     -39.2046      2.00000
     76     -39.2046      2.00000
     77     -39.2045      2.00000
     78     -39.2045      2.00000
     79     -39.2045      2.00000
     80     -39.2045      2.00000
     81     -39.1964      2.00000
     82     -39.1964      2.00000
     83     -39.1964      2.00000
     84     -39.1964      2.00000
     85     -39.1961      2.00000
     86     -39.1961      2.00000
     87     -39.1961      2.00000
     88     -39.1961      2.00000
     89     -39.1960      2.00000
     90     -39.1960      2.00000
     91     -39.1960      2.00000
     92     -39.1960      2.00000
     93     -39.1841      2.00000
     94     -39.1841      2.00000
     95     -39.1841      2.00000
     96     -39.1841      2.00000
     97     -39.1840      2.00000
     98     -39.1840      2.00000
     99     -39.1840      2.00000
    100     -39.1840      2.00000
    101     -39.1840      2.00000
    102     -39.1840      2.00000
    103     -39.1840      2.00000
    104     -39.1840      2.00000
    105     -39.1839      2.00000
    106     -39.1839      2.00000
    107     -39.1839      2.00000
    108     -39.1839      2.00000
    109     -39.1756      2.00000
    110     -39.1756      2.00000
    111     -39.1756      2.00000
    112     -39.1756      2.00000
    113     -39.1755      2.00000
    114     -39.1755      2.00000
    115     -39.1755      2.00000
    116     -39.1755      2.00000
    117     -39.1415      2.00000
    118     -39.1415      2.00000
    119     -39.1414      2.00000
    120     -39.1414      2.00000
    121     -39.1413      2.00000
    122     -39.1413      2.00000
    123     -39.1413      2.00000
    124     -39.1413      2.00000
    125     -39.1111      2.00000
    126     -39.1110      2.00000
    127     -39.1110      2.00000
    128     -39.1109      2.00000
    129     -17.8780      2.00000
    130     -17.8780      2.00000
    131     -17.8780      2.00000
    132     -17.8780      2.00000
    133     -17.8440      2.00000
    134     -17.8440      2.00000
    135     -17.8440      2.00000
    136     -17.8440      2.00000
    137     -17.8440      2.00000
    138     -17.8440      2.00000
    139     -17.8440      2.00000
    140     -17.8440      2.00000
    141     -17.8439      2.00000
    142     -17.8439      2.00000
    143     -17.8439      2.00000
    144     -17.8439      2.00000
    145     -17.8438      2.00000
    146     -17.8438      2.00000
    147     -17.8438      2.00000
    148     -17.8438      2.00000
    149     -17.7798      2.00000
    150     -17.7798      2.00000
    151     -17.7798      2.00000
    152     -17.7798      2.00000
    153     -17.7677      2.00000
    154     -17.7677      2.00000
    155     -17.7677      2.00000
    156     -17.7677      2.00000
    157     -17.7677      2.00000
    158     -17.7677      2.00000
    159     -17.7677      2.00000
    160     -17.7677      2.00000
    161     -17.7676      2.00000
    162     -17.7676      2.00000
    163     -17.7676      2.00000
    164     -17.7676      2.00000
    165     -17.7676      2.00000
    166     -17.7676      2.00000
    167     -17.7676      2.00000
    168     -17.7676      2.00000
    169     -17.7316      2.00000
    170     -17.7316      2.00000
    171     -17.7316      2.00000
    172     -17.7316      2.00000
    173     -17.7316      2.00000
    174     -17.7316      2.00000
    175     -17.7316      2.00000
    176     -17.7316      2.00000
    177     -17.7315      2.00000
    178     -17.7315      2.00000
    179     -17.7314      2.00000
    180     -17.7314      2.00000
    181     -17.7314      2.00000
    182     -17.7314      2.00000
    183     -17.7314      2.00000
    184     -17.7314      2.00000
    185     -17.6750      2.00000
    186     -17.6750      2.00000
    187     -17.6749      2.00000
    188     -17.6749      2.00000
    189     -17.6749      2.00000
    190     -17.6749      2.00000
    191     -17.6748      2.00000
    192     -17.6748      2.00000
    193     -17.6529      2.00000
    194     -17.6529      2.00000
    195     -17.6529      2.00000
    196     -17.6529      2.00000
    197     -17.6529      2.00000
    198     -17.6528      2.00000
    199     -17.6528      2.00000
    200     -17.6528      2.00000
    201     -17.6512      2.00000
    202     -17.6512      2.00000
    203     -17.6512      2.00000
    204     -17.6512      2.00000
    205     -17.6511      2.00000
    206     -17.6511      2.00000
    207     -17.6511      2.00000
    208     -17.6511      2.00000
    209     -17.6421      2.00000
    210     -17.6421      2.00000
    211     -17.6421      2.00000
    212     -17.6421      2.00000
    213     -17.6254      2.00000
    214     -17.6254      2.00000
    215     -17.6254      2.00000
    216     -17.6254      2.00000
    217     -17.6253      2.00000
    218     -17.6253      2.00000
    219     -17.6253      2.00000
    220     -17.6253      2.00000
    221     -17.6253      2.00000
    222     -17.6253      2.00000
    223     -17.6253      2.00000
    224     -17.6253      2.00000
    225     -17.6252      2.00000
    226     -17.6252      2.00000
    227     -17.6252      2.00000
    228     -17.6252      2.00000
    229     -17.6167      2.00000
    230     -17.6167      2.00000
    231     -17.6166      2.00000
    232     -17.6166      2.00000
    233     -17.6166      2.00000
    234     -17.6166      2.00000
    235     -17.6166      2.00000
    236     -17.6166      2.00000
    237     -17.5367      2.00000
    238     -17.5366      2.00000
    239     -17.5365      2.00000
    240     -17.5364      2.00000
    241     -17.5267      2.00000
    242     -17.5267      2.00000
    243     -17.5267      2.00000
    244     -17.5267      2.00000
    245     -17.5267      2.00000
    246     -17.5267      2.00000
    247     -17.5267      2.00000
    248     -17.5267      2.00000
    249     -17.4926      2.00000
    250     -17.4926      2.00000
    251     -17.4926      2.00000
    252     -17.4926      2.00000
    253     -17.4483      2.00000
    254     -17.4483      2.00000
    255     -17.4483      2.00000
    256     -17.4483      2.00000
    257     -17.4483      2.00000
    258     -17.4483      2.00000
    259     -17.4483      2.00000
    260     -17.4483      2.00000
    261     -17.4070      2.00000
    262     -17.4070      2.00000
    263     -17.4070      2.00000
    264     -17.4070      2.00000
    265     -17.4069      2.00000
    266     -17.4069      2.00000
    267     -17.4069      2.00000
    268     -17.4069      2.00000
    269     -17.3888      2.00000
    270     -17.3888      2.00000
    271     -17.3888      2.00000
    272     -17.3888      2.00000
    273     -17.3888      2.00000
    274     -17.3888      2.00000
    275     -17.3888      2.00000
    276     -17.3888      2.00000
    277     -17.3888      2.00000
    278     -17.3888      2.00000
    279     -17.3888      2.00000
    280     -17.3888      2.00000
    281     -17.3887      2.00000
    282     -17.3887      2.00000
    283     -17.3887      2.00000
    284     -17.3887      2.00000
    285     -17.3778      2.00000
    286     -17.3778      2.00000
    287     -17.3778      2.00000
    288     -17.3778      2.00000
    289     -17.3778      2.00000
    290     -17.3778      2.00000
    291     -17.3777      2.00000
    292     -17.3777      2.00000
    293     -17.3499      2.00000
    294     -17.3499      2.00000
    295     -17.3498      2.00000
    296     -17.3498      2.00000
    297     -17.3498      2.00000
    298     -17.3498      2.00000
    299     -17.3497      2.00000
    300     -17.3497      2.00000
    301     -17.2965      2.00000
    302     -17.2965      2.00000
    303     -17.2965      2.00000
    304     -17.2965      2.00000
    305     -17.2964      2.00000
    306     -17.2964      2.00000
    307     -17.2964      2.00000
    308     -17.2964      2.00000
    309     -17.2872      2.00000
    310     -17.2872      2.00000
    311     -17.2872      2.00000
    312     -17.2872      2.00000
    313     -17.2872      2.00000
    314     -17.2872      2.00000
    315     -17.2871      2.00000
    316     -17.2871      2.00000
    317     -17.2618      2.00000
    318     -17.2618      2.00000
    319     -17.2618      2.00000
    320     -17.2618      2.00000
    321     -17.2568      2.00000
    322     -17.2568      2.00000
    323     -17.2568      2.00000
    324     -17.2568      2.00000
    325     -17.2567      2.00000
    326     -17.2567      2.00000
    327     -17.2567      2.00000
    328     -17.2567      2.00000
    329     -17.2507      2.00000
    330     -17.2507      2.00000
    331     -17.2507      2.00000
    332     -17.2507      2.00000
    333     -17.2507      2.00000
    334     -17.2507      2.00000
    335     -17.2507      2.00000
    336     -17.2507      2.00000
    337     -17.2406      2.00000
    338     -17.2406      2.00000
    339     -17.2406      2.00000
    340     -17.2406      2.00000
    341     -17.2406      2.00000
    342     -17.2406      2.00000
    343     -17.2406      2.00000
    344     -17.2406      2.00000
    345     -17.2405      2.00000
    346     -17.2405      2.00000
    347     -17.2405      2.00000
    348     -17.2405      2.00000
    349     -17.2405      2.00000
    350     -17.2404      2.00000
    351     -17.2404      2.00000
    352     -17.2404      2.00000
    353     -17.1976      2.00000
    354     -17.1976      2.00000
    355     -17.1976      2.00000
    356     -17.1976      2.00000
    357     -17.1976      2.00000
    358     -17.1976      2.00000
    359     -17.1976      2.00000
    360     -17.1976      2.00000
    361     -17.1554      2.00000
    362     -17.1554      2.00000
    363     -17.1554      2.00000
    364     -17.1554      2.00000
    365     -17.1268      2.00000
    366     -17.1268      2.00000
    367     -17.1268      2.00000
    368     -17.1268      2.00000
    369     -17.1268      2.00000
    370     -17.1268      2.00000
    371     -17.1268      2.00000
    372     -17.1268      2.00000
    373     -17.1267      2.00000
    374     -17.1267      2.00000
    375     -17.1267      2.00000
    376     -17.1267      2.00000
    377     -17.1267      2.00000
    378     -17.1267      2.00000
    379     -17.1267      2.00000
    380     -17.1267      2.00000
    381     -17.1253      2.00000
    382     -17.1253      2.00000
    383     -17.1253      2.00000
    384     -17.1253      2.00000
    385     -17.1253      2.00000
    386     -17.1253      2.00000
    387     -17.1252      2.00000
    388     -17.1252      2.00000
    389     -17.0939      2.00000
    390     -17.0939      2.00000
    391     -17.0939      2.00000
    392     -17.0939      2.00000
    393     -17.0938      2.00000
    394     -17.0938      2.00000
    395     -17.0938      2.00000
    396     -17.0938      2.00000
    397     -17.0625      2.00000
    398     -17.0625      2.00000
    399     -17.0625      2.00000
    400     -17.0625      2.00000
    401     -17.0625      2.00000
    402     -17.0625      2.00000
    403     -17.0625      2.00000
    404     -17.0625      2.00000
    405     -17.0625      2.00000
    406     -17.0625      2.00000
    407     -17.0625      2.00000
    408     -17.0625      2.00000
    409     -17.0624      2.00000
    410     -17.0624      2.00000
    411     -17.0624      2.00000
    412     -17.0624      2.00000
    413     -17.0581      2.00000
    414     -17.0581      2.00000
    415     -17.0580      2.00000
    416     -17.0580      2.00000
    417     -17.0580      2.00000
    418     -17.0580      2.00000
    419     -17.0580      2.00000
    420     -17.0580      2.00000
    421     -17.0355      2.00000
    422     -17.0355      2.00000
    423     -17.0354      2.00000
    424     -17.0354      2.00000
    425     -17.0239      2.00000
    426     -17.0239      2.00000
    427     -17.0239      2.00000
    428     -17.0239      2.00000
    429     -17.0239      2.00000
    430     -17.0239      2.00000
    431     -17.0239      2.00000
    432     -17.0239      2.00000
    433     -16.9965      2.00000
    434     -16.9965      2.00000
    435     -16.9965      2.00000
    436     -16.9965      2.00000
    437     -16.9964      2.00000
    438     -16.9964      2.00000
    439     -16.9964      2.00000
    440     -16.9964      2.00000
    441     -16.9952      2.00000
    442     -16.9952      2.00000
    443     -16.9952      2.00000
    444     -16.9952      2.00000
    445     -16.9952      2.00000
    446     -16.9952      2.00000
    447     -16.9952      2.00000
    448     -16.9952      2.00000
    449     -16.9900      2.00000
    450     -16.9900      2.00000
    451     -16.9900      2.00000
    452     -16.9900      2.00000
    453     -16.9809      2.00000
    454     -16.9809      2.00000
    455     -16.9809      2.00000
    456     -16.9809      2.00000
    457     -16.9808      2.00000
    458     -16.9808      2.00000
    459     -16.9808      2.00000
    460     -16.9808      2.00000
    461     -16.9341      2.00000
    462     -16.9341      2.00000
    463     -16.9341      2.00000
    464     -16.9341      2.00000
    465     -16.9340      2.00000
    466     -16.9340      2.00000
    467     -16.9340      2.00000
    468     -16.9340      2.00000
    469     -16.9340      2.00000
    470     -16.9340      2.00000
    471     -16.9340      2.00000
    472     -16.9340      2.00000
    473     -16.9339      2.00000
    474     -16.9339      2.00000
    475     -16.9339      2.00000
    476     -16.9339      2.00000
    477     -16.9277      2.00000
    478     -16.9277      2.00000
    479     -16.9277      2.00000
    480     -16.9277      2.00000
    481     -16.9277      2.00000
    482     -16.9277      2.00000
    483     -16.9277      2.00000
    484     -16.9277      2.00000
    485     -16.9276      2.00000
    486     -16.9276      2.00000
    487     -16.9276      2.00000
    488     -16.9276      2.00000
    489     -16.9276      2.00000
    490     -16.9276      2.00000
    491     -16.9276      2.00000
    492     -16.9276      2.00000
    493     -16.9203      2.00000
    494     -16.9203      2.00000
    495     -16.9202      2.00000
    496     -16.9201      2.00000
    497     -16.9099      2.00000
    498     -16.9099      2.00000
    499     -16.9099      2.00000
    500     -16.9099      2.00000
    501     -16.9099      2.00000
    502     -16.9099      2.00000
    503     -16.9098      2.00000
    504     -16.9098      2.00000
    505     -16.8782      2.00000
    506     -16.8782      2.00000
    507     -16.8782      2.00000
    508     -16.8782      2.00000
    509     -16.8713      2.00000
    510     -16.8713      2.00000
    511     -16.8713      2.00000
    512     -16.8713      2.00000
    513       4.1913      2.00000
    514       4.1914      2.00000
    515       4.1915      2.00000
    516       4.1915      2.00000
    517       5.1152      2.00000
    518       5.1153      2.00000
    519       5.1153      2.00000
    520       5.1153      2.00000
    521       5.1154      2.00000
    522       5.1154      2.00000
    523       5.1155      2.00000
    524       5.1155      2.00000
    525       5.8732      2.00000
    526       5.8732      2.00000
    527       5.8732      2.00000
    528       5.8732      2.00000
    529       5.8733      2.00000
    530       5.8733      2.00000
    531       5.8733      2.00000
    532       5.8733      2.00000
    533       6.1733      2.00000
    534       6.1733      2.00000
    535       6.1733      2.00000
    536       6.1733      2.00000
    537       6.3079      2.00000
    538       6.3079      2.00000
    539       6.3079      2.00000
    540       6.3079      2.00000
    541       6.3079      2.00000
    542       6.3079      2.00000
    543       6.3079      2.00000
    544       6.3079      2.00000
    545       6.3080      2.00000
    546       6.3080      2.00000
    547       6.3080      2.00000
    548       6.3080      2.00000
    549       6.3080      2.00000
    550       6.3080      2.00000
    551       6.3080      2.00000
    552       6.3080      2.00000
    553       6.5826      2.00000
    554       6.5826      2.00000
    555       6.5826      2.00000
    556       6.5826      2.00000
    557       6.5827      2.00000
    558       6.5827      2.00000
    559       6.5827      2.00000
    560       6.5827      2.00000
    561       6.5828      2.00000
    562       6.5828      2.00000
    563       6.5828      2.00000
    564       6.5828      2.00000
    565       6.5828      2.00000
    566       6.5828      2.00000
    567       6.5828      2.00000
    568       6.5828      2.00000
    569       6.6142      2.00000
    570       6.6142      2.00000
    571       6.6142      2.00000
    572       6.6142      2.00000
    573       6.6947      2.00000
    574       6.6948      2.00000
    575       6.6949      2.00000
    576       6.6949      2.00000
    577       6.7868      2.00000
    578       6.7868      2.00000
    579       6.7869      2.00000
    580       6.7870      2.00000
    581       6.9119      2.00000
    582       6.9119      2.00000
    583       6.9120      2.00000
    584       6.9120      2.00000
    585       6.9120      2.00000
    586       6.9120      2.00000
    587       6.9121      2.00000
    588       6.9121      2.00000
    589       7.2187      2.00000
    590       7.2187      2.00000
    591       7.2187      2.00000
    592       7.2187      2.00000
    593       7.2187      2.00000
    594       7.2187      2.00000
    595       7.2187      2.00000
    596       7.2187      2.00000
    597       7.2717      2.00000
    598       7.2717      2.00000
    599       7.2717      2.00000
    600       7.2717      2.00000
    601       7.2718      2.00000
    602       7.2718      2.00000
    603       7.2718      2.00000
    604       7.2718      2.00000
    605       7.2718      2.00000
    606       7.2718      2.00000
    607       7.2718      2.00000
    608       7.2718      2.00000
    609       7.2719      2.00000
    610       7.2719      2.00000
    611       7.2719      2.00000
    612       7.2719      2.00000
    613       7.2846      2.00000
    614       7.2846      2.00000
    615       7.2847      2.00000
    616       7.2847      2.00000
    617       7.2848      2.00000
    618       7.2848      2.00000
    619       7.2848      2.00000
    620       7.2848      2.00000
    621       7.3162      2.00000
    622       7.3162      2.00000
    623       7.3163      2.00000
    624       7.3163      2.00000
    625       7.3163      2.00000
    626       7.3163      2.00000
    627       7.3164      2.00000
    628       7.3164      2.00000
    629       7.3894      2.00000
    630       7.3894      2.00000
    631       7.3895      2.00000
    632       7.3895      2.00000
    633       7.3895      2.00000
    634       7.3895      2.00000
    635       7.3896      2.00000
    636       7.3896      2.00000
    637       7.4231      2.00000
    638       7.4231      2.00000
    639       7.4231      2.00000
    640       7.4231      2.00000
    641       7.4232      2.00000
    642       7.4232      2.00000
    643       7.4232      2.00000
    644       7.4232      2.00000
    645       7.8455      2.00000
    646       7.8455      2.00000
    647       7.8455      2.00000
    648       7.8455      2.00000
    649       7.8455      2.00000
    650       7.8455      2.00000
    651       7.8455      2.00000
    652       7.8455      2.00000
    653       7.8827      2.00000
    654       7.8827      2.00000
    655       7.8827      2.00000
    656       7.8827      2.00000
    657       7.8828      2.00000
    658       7.8828      2.00000
    659       7.8828      2.00000
    660       7.8828      2.00000
    661       8.3263      2.00001
    662       8.3263      2.00001
    663       8.3263      2.00001
    664       8.3263      2.00001
    665       8.3263      2.00001
    666       8.3263      2.00001
    667       8.3263      2.00001
    668       8.3263      2.00001
    669       8.4195      2.00010
    670       8.4195      2.00010
    671       8.4195      2.00010
    672       8.4195      2.00010
    673       8.4195      2.00010
    674       8.4195      2.00010
    675       8.4195      2.00010
    676       8.4195      2.00010
    677       8.4247      2.00012
    678       8.4247      2.00012
    679       8.4247      2.00012
    680       8.4247      2.00012
    681       8.4247      2.00012
    682       8.4247      2.00012
    683       8.4248      2.00012
    684       8.4248      2.00012
    685       8.4248      2.00012
    686       8.4248      2.00012
    687       8.4248      2.00012
    688       8.4248      2.00012
    689       8.4249      2.00012
    690       8.4249      2.00012
    691       8.4249      2.00012
    692       8.4249      2.00012
    693       8.4263      2.00012
    694       8.4263      2.00012
    695       8.4263      2.00012
    696       8.4263      2.00012
    697       8.4263      2.00012
    698       8.4263      2.00012
    699       8.4263      2.00012
    700       8.4263      2.00012
    701       8.4459      2.00022
    702       8.4459      2.00022
    703       8.4459      2.00022
    704       8.4459      2.00022
    705       8.4459      2.00022
    706       8.4459      2.00022
    707       8.4459      2.00022
    708       8.4459      2.00022
    709       8.4460      2.00022
    710       8.4460      2.00022
    711       8.4460      2.00022
    712       8.4460      2.00022
    713       8.4460      2.00022
    714       8.4460      2.00022
    715       8.4460      2.00022
    716       8.4460      2.00022
    717       8.4976      2.00084
    718       8.4976      2.00084
    719       8.4976      2.00084
    720       8.4976      2.00084
    721       8.4977      2.00084
    722       8.4977      2.00084
    723       8.4978      2.00085
    724       8.4978      2.00085
    725       8.5386      2.00222
    726       8.5386      2.00222
    727       8.5386      2.00222
    728       8.5386      2.00222
    729       8.7497      2.05928
    730       8.7497      2.05928
    731       8.7497      2.05928
    732       8.7497      2.05928
    733       8.7497      2.05929
    734       8.7497      2.05929
    735       8.7497      2.05929
    736       8.7497      2.05929
    737       8.7498      2.05930
    738       8.7498      2.05930
    739       8.7498      2.05931
    740       8.7498      2.05931
    741       8.7498      2.05931
    742       8.7498      2.05931
    743       8.7498      2.05932
    744       8.7498      2.05932
    745       8.8666      2.01151
    746       8.8666      2.01151
    747       8.8667      2.01139
    748       8.8667      2.01139
    749       8.8667      2.01128
    750       8.8667      2.01128
    751       8.8668      2.01121
    752       8.8668      2.01121
    753       8.8668      2.01120
    754       8.8668      2.01119
    755       8.8668      2.01119
    756       8.8668      2.01119
    757       8.8668      2.01118
    758       8.8668      2.01117
    759       8.8668      2.01116
    760       8.8668      2.01115
    761       8.8693      2.00619
    762       8.8693      2.00617
    763       8.8693      2.00617
    764       8.8693      2.00615
    765       9.1308      0.31531
    766       9.1308      0.31528
    767       9.1308      0.31528
    768       9.1308      0.31528
    769       9.1308      0.31525
    770       9.1308      0.31524
    771       9.1309      0.31523
    772       9.1309      0.31519
    773       9.1345      0.29362
    774       9.1345      0.29362
    775       9.1345      0.29361
    776       9.1345      0.29361
    777       9.1345      0.29351
    778       9.1345      0.29351
    779       9.1345      0.29350
    780       9.1345      0.29350
    781       9.1346      0.29330
    782       9.1346      0.29330
    783       9.1346      0.29330
    784       9.1346      0.29330
    785       9.1346      0.29319
    786       9.1346      0.29319
    787       9.1346      0.29319
    788       9.1346      0.29319
    789       9.2380     -0.04750
    790       9.2380     -0.04750
    791       9.2380     -0.04750
    792       9.2380     -0.04750
    793       9.2380     -0.04751
    794       9.2380     -0.04751
    795       9.2380     -0.04751
    796       9.2380     -0.04751
    797       9.2380     -0.04753
    798       9.2380     -0.04753
    799       9.2380     -0.04753
    800       9.2380     -0.04753
    801       9.2380     -0.04754
    802       9.2380     -0.04754
    803       9.2380     -0.04754
    804       9.2380     -0.04754
    805       9.3922     -0.03215
    806       9.3922     -0.03215
    807       9.3922     -0.03215
    808       9.3922     -0.03215
    809       9.3923     -0.03214
    810       9.3923     -0.03214
    811       9.3923     -0.03214
    812       9.3923     -0.03214
    813       9.4239     -0.02073
    814       9.4239     -0.02073
    815       9.4239     -0.02072
    816       9.4239     -0.02072
    817       9.4239     -0.02071
    818       9.4239     -0.02071
    819       9.4240     -0.02070
    820       9.4240     -0.02070
    821       9.4306     -0.01870
    822       9.4306     -0.01870
    823       9.4306     -0.01870
    824       9.4306     -0.01870
    825       9.4306     -0.01869
    826       9.4306     -0.01869
    827       9.4307     -0.01869
    828       9.4307     -0.01869
    829       9.5523     -0.00177
    830       9.5523     -0.00177
    831       9.5523     -0.00177
    832       9.5523     -0.00177
    833       9.5997     -0.00056
    834       9.5997     -0.00056
    835       9.5997     -0.00056
    836       9.5997     -0.00056
    837       9.5998     -0.00056
    838       9.5998     -0.00056
    839       9.5998     -0.00056
    840       9.5998     -0.00056
    841       9.6945     -0.00004
    842       9.6945     -0.00004
    843       9.6945     -0.00004
    844       9.6945     -0.00004
    845       9.6946     -0.00004
    846       9.6946     -0.00004
    847       9.6946     -0.00004
    848       9.6946     -0.00004
    849       9.8272     -0.00000
    850       9.8272     -0.00000
    851       9.8272     -0.00000
    852       9.8272     -0.00000
    853       9.8664     -0.00000
    854       9.8664     -0.00000
    855       9.8664     -0.00000
    856       9.8664     -0.00000
    857       9.8804     -0.00000
    858       9.8804     -0.00000
    859       9.8804     -0.00000
    860       9.8804     -0.00000
    861       9.8804     -0.00000
    862       9.8804     -0.00000
    863       9.8804     -0.00000
    864       9.8804     -0.00000
    865       9.8805     -0.00000
    866       9.8805     -0.00000
    867       9.8805     -0.00000
    868       9.8805     -0.00000
    869       9.8805     -0.00000
    870       9.8805     -0.00000
    871       9.8805     -0.00000
    872       9.8805     -0.00000
    873      10.0114     -0.00000
    874      10.0115     -0.00000
    875      10.0115     -0.00000
    876      10.0116     -0.00000
    877      10.3953     -0.00000
    878      10.3953     -0.00000
    879      10.3953     -0.00000
    880      10.3953     -0.00000
    881      10.3953     -0.00000
    882      10.3953     -0.00000
    883      10.3953     -0.00000
    884      10.3953     -0.00000
    885      10.5526     -0.00000
    886      10.5526     -0.00000
    887      10.5526     -0.00000
    888      10.5526     -0.00000
    889      10.5526     -0.00000
    890      10.5526     -0.00000
    891      10.5527     -0.00000
    892      10.5527     -0.00000
    893      10.6991     -0.00000
    894      10.6991     -0.00000
    895      10.6991     -0.00000
    896      10.6991     -0.00000
    897      11.0185     -0.00000
    898      11.0185     -0.00000
    899      11.0185     -0.00000
    900      11.0185     -0.00000
    901      11.0185     -0.00000
    902      11.0185     -0.00000
    903      11.0186     -0.00000
    904      11.0186     -0.00000
    905      11.1511     -0.00000
    906      11.1511     -0.00000
    907      11.1511     -0.00000
    908      11.1511     -0.00000
    909      11.1512     -0.00000
    910      11.1512     -0.00000
    911      11.1512     -0.00000
    912      11.1512     -0.00000
    913      11.2009     -0.00000
    914      11.2009     -0.00000
    915      11.2009     -0.00000
    916      11.2009     -0.00000
    917      11.2009     -0.00000
    918      11.2009     -0.00000
    919      11.2009     -0.00000
    920      11.2009     -0.00000
    921      11.7071     -0.00000
    922      11.7072     -0.00000
    923      11.7074     -0.00000
    924      11.7170     -0.00000

 k-point     4 :       0.5000    0.5000    0.5000
  band No.  band energies     occupation 
      1     -39.3487      2.00000
      2     -39.3486      2.00000
      3     -39.3486      2.00000
      4     -39.3486      2.00000
      5     -39.3485      2.00000
      6     -39.3485      2.00000
      7     -39.3485      2.00000
      8     -39.3484      2.00000
      9     -39.2729      2.00000
     10     -39.2729      2.00000
     11     -39.2729      2.00000
     12     -39.2729      2.00000
     13     -39.2729      2.00000
     14     -39.2729      2.00000
     15     -39.2729      2.00000
     16     -39.2729      2.00000
     17     -39.2729      2.00000
     18     -39.2729      2.00000
     19     -39.2729      2.00000
     20     -39.2728      2.00000
     21     -39.2728      2.00000
     22     -39.2728      2.00000
     23     -39.2728      2.00000
     24     -39.2728      2.00000
     25     -39.2728      2.00000
     26     -39.2728      2.00000
     27     -39.2728      2.00000
     28     -39.2728      2.00000
     29     -39.2728      2.00000
     30     -39.2728      2.00000
     31     -39.2727      2.00000
     32     -39.2727      2.00000
     33     -39.2357      2.00000
     34     -39.2357      2.00000
     35     -39.2357      2.00000
     36     -39.2357      2.00000
     37     -39.2356      2.00000
     38     -39.2356      2.00000
     39     -39.2356      2.00000
     40     -39.2356      2.00000
     41     -39.2356      2.00000
     42     -39.2356      2.00000
     43     -39.2356      2.00000
     44     -39.2356      2.00000
     45     -39.2356      2.00000
     46     -39.2356      2.00000
     47     -39.2356      2.00000
     48     -39.2356      2.00000
     49     -39.2356      2.00000
     50     -39.2356      2.00000
     51     -39.2356      2.00000
     52     -39.2355      2.00000
     53     -39.2355      2.00000
     54     -39.2355      2.00000
     55     -39.2355      2.00000
     56     -39.2355      2.00000
     57     -39.2147      2.00000
     58     -39.2147      2.00000
     59     -39.2147      2.00000
     60     -39.2147      2.00000
     61     -39.2147      2.00000
     62     -39.2147      2.00000
     63     -39.2147      2.00000
     64     -39.2147      2.00000
     65     -39.1983      2.00000
     66     -39.1983      2.00000
     67     -39.1983      2.00000
     68     -39.1983      2.00000
     69     -39.1983      2.00000
     70     -39.1983      2.00000
     71     -39.1982      2.00000
     72     -39.1982      2.00000
     73     -39.1961      2.00000
     74     -39.1961      2.00000
     75     -39.1961      2.00000
     76     -39.1961      2.00000
     77     -39.1961      2.00000
     78     -39.1961      2.00000
     79     -39.1961      2.00000
     80     -39.1961      2.00000
     81     -39.1961      2.00000
     82     -39.1961      2.00000
     83     -39.1961      2.00000
     84     -39.1961      2.00000
     85     -39.1960      2.00000
     86     -39.1960      2.00000
     87     -39.1960      2.00000
     88     -39.1960      2.00000
     89     -39.1960      2.00000
     90     -39.1960      2.00000
     91     -39.1960      2.00000
     92     -39.1960      2.00000
     93     -39.1960      2.00000
     94     -39.1960      2.00000
     95     -39.1960      2.00000
     96     -39.1960      2.00000
     97     -39.1776      2.00000
     98     -39.1776      2.00000
     99     -39.1776      2.00000
    100     -39.1776      2.00000
    101     -39.1776      2.00000
    102     -39.1776      2.00000
    103     -39.1776      2.00000
    104     -39.1776      2.00000
    105     -39.1776      2.00000
    106     -39.1775      2.00000
    107     -39.1775      2.00000
    108     -39.1775      2.00000
    109     -39.1775      2.00000
    110     -39.1775      2.00000
    111     -39.1775      2.00000
    112     -39.1775      2.00000
    113     -39.1775      2.00000
    114     -39.1775      2.00000
    115     -39.1774      2.00000
    116     -39.1774      2.00000
    117     -39.1774      2.00000
    118     -39.1774      2.00000
    119     -39.1774      2.00000
    120     -39.1774      2.00000
    121     -39.1188      2.00000
    122     -39.1188      2.00000
    123     -39.1187      2.00000
    124     -39.1187      2.00000
    125     -39.1187      2.00000
    126     -39.1186      2.00000
    127     -39.1186      2.00000
    128     -39.1186      2.00000
    129     -17.8399      2.00000
    130     -17.8399      2.00000
    131     -17.8399      2.00000
    132     -17.8399      2.00000
    133     -17.8399      2.00000
    134     -17.8399      2.00000
    135     -17.8399      2.00000
    136     -17.8399      2.00000
    137     -17.8399      2.00000
    138     -17.8399      2.00000
    139     -17.8399      2.00000
    140     -17.8399      2.00000
    141     -17.8398      2.00000
    142     -17.8398      2.00000
    143     -17.8398      2.00000
    144     -17.8398      2.00000
    145     -17.8398      2.00000
    146     -17.8398      2.00000
    147     -17.8398      2.00000
    148     -17.8398      2.00000
    149     -17.8398      2.00000
    150     -17.8398      2.00000
    151     -17.8398      2.00000
    152     -17.8398      2.00000
    153     -17.7655      2.00000
    154     -17.7655      2.00000
    155     -17.7655      2.00000
    156     -17.7655      2.00000
    157     -17.7655      2.00000
    158     -17.7655      2.00000
    159     -17.7654      2.00000
    160     -17.7654      2.00000
    161     -17.7654      2.00000
    162     -17.7654      2.00000
    163     -17.7654      2.00000
    164     -17.7654      2.00000
    165     -17.7654      2.00000
    166     -17.7654      2.00000
    167     -17.7654      2.00000
    168     -17.7654      2.00000
    169     -17.7654      2.00000
    170     -17.7654      2.00000
    171     -17.7654      2.00000
    172     -17.7654      2.00000
    173     -17.7653      2.00000
    174     -17.7653      2.00000
    175     -17.7653      2.00000
    176     -17.7653      2.00000
    177     -17.6959      2.00000
    178     -17.6959      2.00000
    179     -17.6959      2.00000
    180     -17.6959      2.00000
    181     -17.6959      2.00000
    182     -17.6959      2.00000
    183     -17.6959      2.00000
    184     -17.6959      2.00000
    185     -17.6828      2.00000
    186     -17.6828      2.00000
    187     -17.6828      2.00000
    188     -17.6828      2.00000
    189     -17.6828      2.00000
    190     -17.6828      2.00000
    191     -17.6828      2.00000
    192     -17.6828      2.00000
    193     -17.6828      2.00000
    194     -17.6828      2.00000
    195     -17.6828      2.00000
    196     -17.6828      2.00000
    197     -17.6827      2.00000
    198     -17.6827      2.00000
    199     -17.6827      2.00000
    200     -17.6827      2.00000
    201     -17.6827      2.00000
    202     -17.6827      2.00000
    203     -17.6827      2.00000
    204     -17.6827      2.00000
    205     -17.6827      2.00000
    206     -17.6827      2.00000
    207     -17.6827      2.00000
    208     -17.6827      2.00000
    209     -17.6121      2.00000
    210     -17.6121      2.00000
    211     -17.6121      2.00000
    212     -17.6121      2.00000
    213     -17.6121      2.00000
    214     -17.6121      2.00000
    215     -17.6120      2.00000
    216     -17.6120      2.00000
    217     -17.6120      2.00000
    218     -17.6120      2.00000
    219     -17.6120      2.00000
    220     -17.6120      2.00000
    221     -17.6120      2.00000
    222     -17.6120      2.00000
    223     -17.6119      2.00000
    224     -17.6119      2.00000
    225     -17.5693      2.00000
    226     -17.5693      2.00000
    227     -17.5693      2.00000
    228     -17.5693      2.00000
    229     -17.5693      2.00000
    230     -17.5693      2.00000
    231     -17.5693      2.00000
    232     -17.5693      2.00000
    233     -17.5693      2.00000
    234     -17.5693      2.00000
    235     -17.5693      2.00000
    236     -17.5693      2.00000
    237     -17.5693      2.00000
    238     -17.5693      2.00000
    239     -17.5693      2.00000
    240     -17.5693      2.00000
    241     -17.4773      2.00000
    242     -17.4773      2.00000
    243     -17.4772      2.00000
    244     -17.4772      2.00000
    245     -17.4772      2.00000
    246     -17.4772      2.00000
    247     -17.4772      2.00000
    248     -17.4772      2.00000
    249     -17.4772      2.00000
    250     -17.4772      2.00000
    251     -17.4772      2.00000
    252     -17.4772      2.00000
    253     -17.4772      2.00000
    254     -17.4772      2.00000
    255     -17.4772      2.00000
    256     -17.4772      2.00000
    257     -17.4772      2.00000
    258     -17.4772      2.00000
    259     -17.4772      2.00000
    260     -17.4772      2.00000
    261     -17.4771      2.00000
    262     -17.4771      2.00000
    263     -17.4771      2.00000
    264     -17.4771      2.00000
    265     -17.4028      2.00000
    266     -17.4028      2.00000
    267     -17.4027      2.00000
    268     -17.4027      2.00000
    269     -17.4027      2.00000
    270     -17.4027      2.00000
    271     -17.4027      2.00000
    272     -17.4027      2.00000
    273     -17.3993      2.00000
    274     -17.3993      2.00000
    275     -17.3993      2.00000
    276     -17.3993      2.00000
    277     -17.3993      2.00000
    278     -17.3993      2.00000
    279     -17.3993      2.00000
    280     -17.3993      2.00000
    281     -17.3993      2.00000
    282     -17.3993      2.00000
    283     -17.3993      2.00000
    284     -17.3993      2.00000
    285     -17.3993      2.00000
    286     -17.3993      2.00000
    287     -17.3993      2.00000
    288     -17.3993      2.00000
    289     -17.3993      2.00000
    290     -17.3993      2.00000
    291     -17.3993      2.00000
    292     -17.3993      2.00000
    293     -17.3993      2.00000
    294     -17.3993      2.00000
    295     -17.3993      2.00000
    296     -17.3993      2.00000
    297     -17.3220      2.00000
    298     -17.3220      2.00000
    299     -17.3220      2.00000
    300     -17.3220      2.00000
    301     -17.3220      2.00000
    302     -17.3220      2.00000
    303     -17.3220      2.00000
    304     -17.3220      2.00000
    305     -17.3220      2.00000
    306     -17.3220      2.00000
    307     -17.3220      2.00000
    308     -17.3220      2.00000
    309     -17.3219      2.00000
    310     -17.3219      2.00000
    311     -17.3219      2.00000
    312     -17.3219      2.00000
    313     -17.3219      2.00000
    314     -17.3219      2.00000
    315     -17.3219      2.00000
    316     -17.3219      2.00000
    317     -17.3219      2.00000
    318     -17.3219      2.00000
    319     -17.3219      2.00000
    320     -17.3219      2.00000
    321     -17.1859      2.00000
    322     -17.1859      2.00000
    323     -17.1859      2.00000
    324     -17.1859      2.00000
    325     -17.1859      2.00000
    326     -17.1859      2.00000
    327     -17.1859      2.00000
    328     -17.1859      2.00000
    329     -17.1859      2.00000
    330     -17.1859      2.00000
    331     -17.1859      2.00000
    332     -17.1859      2.00000
    333     -17.1859      2.00000
    334     -17.1859      2.00000
    335     -17.1859      2.00000
    336     -17.1859      2.00000
    337     -17.1715      2.00000
    338     -17.1715      2.00000
    339     -17.1715      2.00000
    340     -17.1715      2.00000
    341     -17.1715      2.00000
    342     -17.1715      2.00000
    343     -17.1715      2.00000
    344     -17.1715      2.00000
    345     -17.1715      2.00000
    346     -17.1715      2.00000
    347     -17.1715      2.00000
    348     -17.1715      2.00000
    349     -17.1715      2.00000
    350     -17.1715      2.00000
    351     -17.1714      2.00000
    352     -17.1714      2.00000
    353     -17.1714      2.00000
    354     -17.1714      2.00000
    355     -17.1714      2.00000
    356     -17.1714      2.00000
    357     -17.1714      2.00000
    358     -17.1714      2.00000
    359     -17.1714      2.00000
    360     -17.1714      2.00000
    361     -17.1694      2.00000
    362     -17.1694      2.00000
    363     -17.1694      2.00000
    364     -17.1694      2.00000
    365     -17.1694      2.00000
    366     -17.1694      2.00000
    367     -17.1694      2.00000
    368     -17.1694      2.00000
    369     -17.1694      2.00000
    370     -17.1694      2.00000
    371     -17.1694      2.00000
    372     -17.1694      2.00000
    373     -17.1694      2.00000
    374     -17.1693      2.00000
    375     -17.1693      2.00000
    376     -17.1693      2.00000
    377     -17.1693      2.00000
    378     -17.1693      2.00000
    379     -17.1693      2.00000
    380     -17.1693      2.00000
    381     -17.1693      2.00000
    382     -17.1693      2.00000
    383     -17.1693      2.00000
    384     -17.1693      2.00000
    385     -17.1245      2.00000
    386     -17.1244      2.00000
    387     -17.1244      2.00000
    388     -17.1244      2.00000
    389     -17.1244      2.00000
    390     -17.1244      2.00000
    391     -17.1244      2.00000
    392     -17.1244      2.00000
    393     -17.1035      2.00000
    394     -17.1035      2.00000
    395     -17.1035      2.00000
    396     -17.1035      2.00000
    397     -17.1035      2.00000
    398     -17.1035      2.00000
    399     -17.1035      2.00000
    400     -17.1035      2.00000
    401     -17.1035      2.00000
    402     -17.1035      2.00000
    403     -17.1035      2.00000
    404     -17.1035      2.00000
    405     -17.1035      2.00000
    406     -17.1035      2.00000
    407     -17.1035      2.00000
    408     -17.1035      2.00000
    409     -17.1035      2.00000
    410     -17.1034      2.00000
    411     -17.1034      2.00000
    412     -17.1034      2.00000
    413     -17.1034      2.00000
    414     -17.1034      2.00000
    415     -17.1034      2.00000
    416     -17.1034      2.00000
    417     -17.0488      2.00000
    418     -17.0488      2.00000
    419     -17.0488      2.00000
    420     -17.0488      2.00000
    421     -17.0488      2.00000
    422     -17.0488      2.00000
    423     -17.0488      2.00000
    424     -17.0488      2.00000
    425     -16.9826      2.00000
    426     -16.9826      2.00000
    427     -16.9826      2.00000
    428     -16.9826      2.00000
    429     -16.9826      2.00000
    430     -16.9826      2.00000
    431     -16.9826      2.00000
    432     -16.9826      2.00000
    433     -16.9826      2.00000
    434     -16.9826      2.00000
    435     -16.9826      2.00000
    436     -16.9826      2.00000
    437     -16.9826      2.00000
    438     -16.9826      2.00000
    439     -16.9826      2.00000
    440     -16.9825      2.00000
    441     -16.9825      2.00000
    442     -16.9825      2.00000
    443     -16.9825      2.00000
    444     -16.9825      2.00000
    445     -16.9825      2.00000
    446     -16.9825      2.00000
    447     -16.9825      2.00000
    448     -16.9825      2.00000
    449     -16.9667      2.00000
    450     -16.9667      2.00000
    451     -16.9667      2.00000
    452     -16.9667      2.00000
    453     -16.9667      2.00000
    454     -16.9666      2.00000
    455     -16.9666      2.00000
    456     -16.9666      2.00000
    457     -16.9666      2.00000
    458     -16.9666      2.00000
    459     -16.9666      2.00000
    460     -16.9666      2.00000
    461     -16.9666      2.00000
    462     -16.9666      2.00000
    463     -16.9666      2.00000
    464     -16.9666      2.00000
    465     -16.9666      2.00000
    466     -16.9666      2.00000
    467     -16.9666      2.00000
    468     -16.9666      2.00000
    469     -16.9666      2.00000
    470     -16.9666      2.00000
    471     -16.9666      2.00000
    472     -16.9666      2.00000
    473     -16.9160      2.00000
    474     -16.9160      2.00000
    475     -16.9160      2.00000
    476     -16.9160      2.00000
    477     -16.9160      2.00000
    478     -16.9160      2.00000
    479     -16.9160      2.00000
    480     -16.9160      2.00000
    481     -16.9160      2.00000
    482     -16.9160      2.00000
    483     -16.9160      2.00000
    484     -16.9160      2.00000
    485     -16.9160      2.00000
    486     -16.9160      2.00000
    487     -16.9160      2.00000
    488     -16.9160      2.00000
    489     -16.9159      2.00000
    490     -16.9159      2.00000
    491     -16.9159      2.00000
    492     -16.9159      2.00000
    493     -16.9159      2.00000
    494     -16.9159      2.00000
    495     -16.9159      2.00000
    496     -16.9159      2.00000
    497     -16.8998      2.00000
    498     -16.8998      2.00000
    499     -16.8998      2.00000
    500     -16.8998      2.00000
    501     -16.8997      2.00000
    502     -16.8997      2.00000
    503     -16.8997      2.00000
    504     -16.8997      2.00000
    505     -16.8997      2.00000
    506     -16.8997      2.00000
    507     -16.8996      2.00000
    508     -16.8996      2.00000
    509     -16.8996      2.00000
    510     -16.8996      2.00000
    511     -16.8996      2.00000
    512     -16.8996      2.00000
    513       4.4396      2.00000
    514       4.4396      2.00000
    515       4.4396      2.00000
    516       4.4397      2.00000
    517       4.4397      2.00000
    518       4.4398      2.00000
    519       4.4398      2.00000
    520       4.4398      2.00000
    521       6.0257      2.00000
    522       6.0257      2.00000
    523       6.0258      2.00000
    524       6.0258      2.00000
    525       6.0258      2.00000
    526       6.0258      2.00000
    527       6.0258      2.00000
    528       6.0258      2.00000
    529       6.0258      2.00000
    530       6.0258      2.00000
    531       6.0258      2.00000
    532       6.0258      2.00000
    533       6.0259      2.00000
    534       6.0259      2.00000
    535       6.0259      2.00000
    536       6.0259      2.00000
    537       6.0259      2.00000
    538       6.0259      2.00000
    539       6.0259      2.00000
    540       6.0259      2.00000
    541       6.0259      2.00000
    542       6.0259      2.00000
    543       6.0260      2.00000
    544       6.0260      2.00000
    545       6.4552      2.00000
    546       6.4552      2.00000
    547       6.4552      2.00000
    548       6.4552      2.00000
    549       6.4552      2.00000
    550       6.4552      2.00000
    551       6.4552      2.00000
    552       6.4552      2.00000
    553       6.4552      2.00000
    554       6.4552      2.00000
    555       6.4552      2.00000
    556       6.4552      2.00000
    557       6.4552      2.00000
    558       6.4552      2.00000
    559       6.4553      2.00000
    560       6.4553      2.00000
    561       6.4553      2.00000
    562       6.4553      2.00000
    563       6.4553      2.00000
    564       6.4553      2.00000
    565       6.4553      2.00000
    566       6.4553      2.00000
    567       6.4553      2.00000
    568       6.4553      2.00000
    569       6.8621      2.00000
    570       6.8621      2.00000
    571       6.8621      2.00000
    572       6.8621      2.00000
    573       6.8622      2.00000
    574       6.8622      2.00000
    575       6.8622      2.00000
    576       6.8622      2.00000
    577       6.8622      2.00000
    578       6.8622      2.00000
    579       6.8622      2.00000
    580       6.8622      2.00000
    581       6.8622      2.00000
    582       6.8622      2.00000
    583       6.8622      2.00000
    584       6.8622      2.00000
    585       6.8622      2.00000
    586       6.8622      2.00000
    587       6.8623      2.00000
    588       6.8623      2.00000
    589       6.8623      2.00000
    590       6.8623      2.00000
    591       6.8623      2.00000
    592       6.8623      2.00000
    593       6.9144      2.00000
    594       6.9144      2.00000
    595       6.9145      2.00000
    596       6.9145      2.00000
    597       6.9145      2.00000
    598       6.9145      2.00000
    599       6.9145      2.00000
    600       6.9145      2.00000
    601       6.9146      2.00000
    602       6.9146      2.00000
    603       6.9146      2.00000
    604       6.9146      2.00000
    605       6.9147      2.00000
    606       6.9147      2.00000
    607       6.9147      2.00000
    608       6.9147      2.00000
    609       7.4948      2.00000
    610       7.4948      2.00000
    611       7.4948      2.00000
    612       7.4948      2.00000
    613       7.4949      2.00000
    614       7.4949      2.00000
    615       7.4949      2.00000
    616       7.4949      2.00000
    617       7.4949      2.00000
    618       7.4949      2.00000
    619       7.4949      2.00000
    620       7.4949      2.00000
    621       7.4949      2.00000
    622       7.4949      2.00000
    623       7.4949      2.00000
    624       7.4949      2.00000
    625       7.4949      2.00000
    626       7.4949      2.00000
    627       7.4950      2.00000
    628       7.4950      2.00000
    629       7.4950      2.00000
    630       7.4950      2.00000
    631       7.4950      2.00000
    632       7.4950      2.00000
    633       7.6874      2.00000
    634       7.6874      2.00000
    635       7.6874      2.00000
    636       7.6874      2.00000
    637       7.6874      2.00000
    638       7.6874      2.00000
    639       7.6874      2.00000
    640       7.6874      2.00000
    641       7.8498      2.00000
    642       7.8498      2.00000
    643       7.8498      2.00000
    644       7.8498      2.00000
    645       7.8498      2.00000
    646       7.8498      2.00000
    647       7.8498      2.00000
    648       7.8498      2.00000
    649       7.8498      2.00000
    650       7.8498      2.00000
    651       7.8498      2.00000
    652       7.8498      2.00000
    653       7.8499      2.00000
    654       7.8499      2.00000
    655       7.8499      2.00000
    656       7.8499      2.00000
    657       7.8499      2.00000
    658       7.8499      2.00000
    659       7.8499      2.00000
    660       7.8499      2.00000
    661       7.8499      2.00000
    662       7.8499      2.00000
    663       7.8500      2.00000
    664       7.8500      2.00000
    665       8.1620      2.00000
    666       8.1620      2.00000
    667       8.1620      2.00000
    668       8.1620      2.00000
    669       8.1620      2.00000
    670       8.1620      2.00000
    671       8.1620      2.00000
    672       8.1620      2.00000
    673       8.2805      2.00000
    674       8.2805      2.00000
    675       8.2805      2.00000
    676       8.2805      2.00000
    677       8.2805      2.00000
    678       8.2805      2.00000
    679       8.2805      2.00000
    680       8.2805      2.00000
    681       8.2805      2.00000
    682       8.2805      2.00000
    683       8.2805      2.00000
    684       8.2805      2.00000
    685       8.2805      2.00000
    686       8.2805      2.00000
    687       8.2805      2.00000
    688       8.2805      2.00000
    689       8.4639      2.00035
    690       8.4639      2.00035
    691       8.4639      2.00035
    692       8.4639      2.00035
    693       8.4639      2.00035
    694       8.4639      2.00035
    695       8.4639      2.00035
    696       8.4639      2.00035
    697       8.4639      2.00035
    698       8.4640      2.00035
    699       8.4640      2.00035
    700       8.4640      2.00035
    701       8.4640      2.00035
    702       8.4640      2.00035
    703       8.4640      2.00035
    704       8.4640      2.00035
    705       8.4640      2.00035
    706       8.4640      2.00035
    707       8.4640      2.00035
    708       8.4640      2.00035
    709       8.4640      2.00035
    710       8.4640      2.00035
    711       8.4640      2.00036
    712       8.4640      2.00036
    713       8.6634      2.02271
    714       8.6634      2.02271
    715       8.6634      2.02271
    716       8.6634      2.02272
    717       8.6634      2.02272
    718       8.6634      2.02272
    719       8.6634      2.02272
    720       8.6634      2.02273
    721       8.6634      2.02273
    722       8.6634      2.02273
    723       8.6634      2.02273
    724       8.6634      2.02273
    725       8.6634      2.02274
    726       8.6634      2.02274
    727       8.6634      2.02274
    728       8.6634      2.02274
    729       8.6634      2.02274
    730       8.6634      2.02274
    731       8.6635      2.02274
    732       8.6635      2.02275
    733       8.6635      2.02275
    734       8.6635      2.02275
    735       8.6635      2.02275
    736       8.6635      2.02275
    737       8.7373      2.05387
    738       8.7373      2.05387
    739       8.7373      2.05387
    740       8.7373      2.05387
    741       8.7373      2.05387
    742       8.7373      2.05387
    743       8.7373      2.05388
    744       8.7373      2.05388
    745       8.7373      2.05388
    746       8.7373      2.05388
    747       8.7374      2.05388
    748       8.7374      2.05388
    749       8.7374      2.05388
    750       8.7374      2.05388
    751       8.7374      2.05388
    752       8.7374      2.05388
    753       9.0469      0.94604
    754       9.0469      0.94603
    755       9.0469      0.94593
    756       9.0469      0.94593
    757       9.0469      0.94588
    758       9.0469      0.94585
    759       9.0469      0.94578
    760       9.0469      0.94576
    761       9.0469      0.94576
    762       9.0469      0.94571
    763       9.0469      0.94566
    764       9.0470      0.94561
    765       9.0470      0.94552
    766       9.0470      0.94546
    767       9.0470      0.94542
    768       9.0470      0.94539
    769       9.0470      0.94536
    770       9.0470      0.94535
    771       9.0470      0.94528
    772       9.0470      0.94527
    773       9.0470      0.94520
    774       9.0470      0.94518
    775       9.0470      0.94510
    776       9.0470      0.94508
    777       9.4363     -0.01710
    778       9.4363     -0.01710
    779       9.4364     -0.01709
    780       9.4364     -0.01709
    781       9.4364     -0.01709
    782       9.4364     -0.01709
    783       9.4364     -0.01709
    784       9.4364     -0.01709
    785       9.4364     -0.01709
    786       9.4364     -0.01709
    787       9.4364     -0.01709
    788       9.4364     -0.01708
    789       9.4364     -0.01708
    790       9.4364     -0.01708
    791       9.4364     -0.01708
    792       9.4364     -0.01708
    793       9.4364     -0.01708
    794       9.4364     -0.01708
    795       9.4364     -0.01708
    796       9.4364     -0.01708
    797       9.4364     -0.01708
    798       9.4364     -0.01707
    799       9.4364     -0.01707
    800       9.4364     -0.01707
    801       9.4403     -0.01605
    802       9.4403     -0.01605
    803       9.4403     -0.01605
    804       9.4403     -0.01605
    805       9.4403     -0.01605
    806       9.4403     -0.01605
    807       9.4403     -0.01604
    808       9.4403     -0.01604
    809       9.4403     -0.01604
    810       9.4403     -0.01604
    811       9.4403     -0.01604
    812       9.4403     -0.01604
    813       9.4404     -0.01603
    814       9.4404     -0.01603
    815       9.4404     -0.01603
    816       9.4404     -0.01603
    817       9.4404     -0.01603
    818       9.4404     -0.01603
    819       9.4404     -0.01603
    820       9.4404     -0.01603
    821       9.4404     -0.01602
    822       9.4404     -0.01602
    823       9.4404     -0.01602
    824       9.4404     -0.01602
    825       9.5382     -0.00244
    826       9.5382     -0.00244
    827       9.5382     -0.00244
    828       9.5382     -0.00244
    829       9.5382     -0.00244
    830       9.5382     -0.00244
    831       9.5382     -0.00244
    832       9.5382     -0.00244
    833       9.5382     -0.00244
    834       9.5382     -0.00244
    835       9.5382     -0.00244
    836       9.5382     -0.00244
    837       9.5382     -0.00244
    838       9.5382     -0.00244
    839       9.5383     -0.00244
    840       9.5383     -0.00244
    841       9.5383     -0.00244
    842       9.5383     -0.00244
    843       9.5383     -0.00243
    844       9.5383     -0.00243
    845       9.5383     -0.00243
    846       9.5383     -0.00243
    847       9.5383     -0.00243
    848       9.5383     -0.00243
    849       9.7106     -0.00002
    850       9.7106     -0.00002
    851       9.7106     -0.00002
    852       9.7106     -0.00002
    853       9.7106     -0.00002
    854       9.7106     -0.00002
    855       9.7106     -0.00002
    856       9.7107     -0.00002
    857       9.7107     -0.00002
    858       9.7107     -0.00002
    859       9.7107     -0.00002
    860       9.7107     -0.00002
    861       9.7107     -0.00002
    862       9.7107     -0.00002
    863       9.7107     -0.00002
    864       9.7107     -0.00002
    865       9.8997     -0.00000
    866       9.8997     -0.00000
    867       9.8997     -0.00000
    868       9.8997     -0.00000
    869       9.8997     -0.00000
    870       9.8997     -0.00000
    871       9.8997     -0.00000
    872       9.8997     -0.00000
    873       9.8997     -0.00000
    874       9.8997     -0.00000
    875       9.8997     -0.00000
    876       9.8997     -0.00000
    877       9.8997     -0.00000
    878       9.8997     -0.00000
    879       9.8997     -0.00000
    880       9.8997     -0.00000
    881       9.8997     -0.00000
    882       9.8997     -0.00000
    883       9.8997     -0.00000
    884       9.8997     -0.00000
    885       9.8997     -0.00000
    886       9.8997     -0.00000
    887       9.8997     -0.00000
    888       9.8997     -0.00000
    889      11.1119     -0.00000
    890      11.1119     -0.00000
    891      11.1119     -0.00000
    892      11.1119     -0.00000
    893      11.1120     -0.00000
    894      11.1120     -0.00000
    895      11.1120     -0.00000
    896      11.1120     -0.00000
    897      11.3456     -0.00000
    898      11.3456     -0.00000
    899      11.3456     -0.00000
    900      11.3456     -0.00000
    901      11.3456     -0.00000
    902      11.3456     -0.00000
    903      11.3456     -0.00000
    904      11.3456     -0.00000
    905      11.3456     -0.00000
    906      11.3457     -0.00000
    907      11.3457     -0.00000
    908      11.3457     -0.00000
    909      11.3457     -0.00000
    910      11.3457     -0.00000
    911      11.3457     -0.00000
    912      11.3457     -0.00000
    913      11.3457     -0.00000
    914      11.3457     -0.00000
    915      11.3457     -0.00000
    916      11.3457     -0.00000
    917      11.3457     -0.00000
    918      11.3457     -0.00000
    919      11.3457     -0.00000
    920      11.3457     -0.00000
    921      11.4828     -0.00000
    922      11.4828     -0.00000
    923      11.4828     -0.00000
    924      11.4828     -0.00000


--------------------------------------------------------------------------------------------------------


 soft charge-density along one line, spin component            1
         0         1         2         3         4         5         6         7         8         9
 total charge-density along one line
 
 pseudopotential strength for first ion, spin component:            1
 13.207 -25.588   0.000   0.000  -0.000  -0.000  -0.000   0.000
-25.588  13.396   0.000   0.000  -0.000  -0.000  -0.000   0.000
  0.000   0.000  -6.258   0.000  -0.000   4.839  -0.000   0.000
  0.000   0.000   0.000  -6.258  -0.000  -0.000   4.839   0.000
 -0.000  -0.000  -0.000  -0.000  -6.258   0.000   0.000   4.839
 -0.000  -0.000   4.839  -0.000   0.000   8.551   0.000  -0.000
 -0.000  -0.000  -0.000   4.839   0.000   0.000   8.551  -0.000
  0.000   0.000   0.000   0.000   4.839  -0.000  -0.000   8.551
 -0.000  -0.000  -0.000   0.000   0.000   0.000  -0.000  -0.000
  0.000   0.000   0.000   0.000   0.000  -0.000  -0.000  -0.000
 -0.000  -0.000  -0.000   0.000   0.000   0.000  -0.000  -0.000
 -0.000  -0.000   0.000  -0.000   0.000  -0.000   0.000  -0.000
  0.000   0.000  -0.000  -0.000  -0.000   0.000   0.000   0.000
 -0.000  -0.000  -0.000   0.000   0.000   0.000  -0.000  -0.000
  0.000   0.000   0.000   0.000   0.000  -0.000  -0.000  -0.000
 -0.000  -0.000  -0.000   0.000   0.000   0.000  -0.000  -0.000
 -0.000  -0.000   0.000  -0.000   0.000  -0.000   0.000  -0.000
  0.000   0.000  -0.000  -0.000  -0.000   0.000   0.000   0.000
 total augmentation occupancy for first ion, spin component:            1
  1.998  -0.025  -0.000  -0.000   0.000   0.000  -0.000   0.000  -0.000  -0.000  -0.000  -0.000   0.000   0.000   0.000  -0.000
 -0.025   1.429  -0.000  -0.000  -0.000  -0.000   0.000  -0.000  -0.000  -0.000  -0.000  -0.000   0.000   0.000   0.000  -0.000
 -0.000  -0.000   2.001  -0.000  -0.000  -0.022   0.000   0.000  -0.000  -0.000  -0.000  -0.000  -0.000  -0.000  -0.000  -0.000
 -0.000  -0.000  -0.000   2.001  -0.000   0.000  -0.022   0.000  -0.000  -0.000   0.000  -0.000   0.000   0.000  -0.000  -0.000
  0.000  -0.000  -0.000  -0.000   2.001   0.000   0.000  -0.022   0.000  -0.000  -0.000  -0.000   0.000  -0.000  -0.000  -0.000
  0.000  -0.000  -0.022   0.000   0.000   0.033  -0.000  -0.000   0.000   0.000   0.000   0.000  -0.000  -0.000   0.000   0.000
  0.000   0.000   0.000  -0.022   0.000  -0.000   0.033  -0.000   0.000   0.000   0.000  -0.000   0.000  -0.000   0.000   0.000
  0.000  -0.000   0.000   0.000  -0.022  -0.000  -0.000   0.033  -0.000  -0.000   0.000   0.000  -0.000  -0.000   0.000  -0.000
 -0.000  -0.000  -0.000   0.000   0.000   0.000   0.000  -0.000   3.546  -0.000   0.000  -0.000   0.000  -1.762   0.000  -0.000
 -0.000  -0.000  -0.000   0.000  -0.000   0.000  -0.000  -0.000  -0.000   3.546  -0.000  -0.000   0.000   0.000  -1.762   0.000
 -0.000  -0.000  -0.000  -0.000  -0.000   0.000   0.000  -0.000   0.000  -0.000   3.797  -0.000  -0.000  -0.000   0.000  -1.973
 -0.000  -0.000  -0.000  -0.000  -0.000   0.000   0.000  -0.000  -0.000  -0.000  -0.000   3.546  -0.000   0.000   0.000   0.000
  0.000   0.000  -0.000  -0.000   0.000  -0.000  -0.000  -0.000   0.000   0.000  -0.000  -0.000   3.797  -0.000  -0.000   0.000
  0.000   0.000   0.000   0.000   0.000  -0.000  -0.000   0.000  -1.762   0.000  -0.000   0.000  -0.000   0.890  -0.000   0.000
  0.000   0.000   0.000   0.000  -0.000   0.000  -0.000   0.000   0.000  -1.762   0.000   0.000  -0.000  -0.000   0.890  -0.000
  0.000  -0.000  -0.000   0.000   0.000  -0.000  -0.000  -0.000  -0.000   0.000  -1.973   0.000   0.000   0.000  -0.000   1.032
  0.000   0.000   0.000   0.000  -0.000  -0.000  -0.000   0.000   0.000   0.000   0.000  -1.762   0.000  -0.000  -0.000  -0.000
 -0.000  -0.000   0.000   0.000   0.000   0.000  -0.000   0.000  -0.000  -0.000   0.000   0.000  -1.973   0.000   0.000  -0.000


------------------------ aborting loop because EDIFF is reached ----------------------------------------


    CHARGE:  cpu time      0.5331: real time      0.3846
    FORLOC:  cpu time      0.0158: real time      0.0017
    FORNL :  cpu time      1.0006: real time      0.7581
    STRESS:  cpu time      2.5011: real time      1.9010
    FORCOR:  cpu time      0.0375: real time      0.0086
    FORHAR:  cpu time      0.0025: real time      0.0024
    MIXING:  cpu time      0.0573: real time      0.0058
    OFIELD:  cpu time      0.0002: real time      0.0000

  FORCE on cell =-STRESS in cart. coord.  units (eV):
  Direction    XX          YY          ZZ          XY          YZ          ZX
  --------------------------------------------------------------------------------------
  Alpha Z  7513.99399  7513.99399  7513.99399
  Ewald  -45171.33601-45171.33573-45171.33586     0.00231     0.00015     0.00225
  Hartree  8963.06558  8963.06500  8963.06527    -0.00015    -0.00001    -0.00015
  E(xc)   -6524.58536 -6524.58537 -6524.58537    -0.00002    -0.00000    -0.00002
  Local    7236.27065  7236.27280  7236.27180     0.00031     0.00002     0.00030
  n-local -1986.44658 -2007.90548 -2027.59361    -0.00035    -0.00003    -0.00035
  augment   280.89196   280.89187   280.89191    -0.00010    -0.00001    -0.00010
  Kinetic 29673.89702 29695.86766 29757.25897     0.00051     0.00005     0.00053
  Fock        0.00000     0.00000     0.00000     0.00000     0.00000     0.00000
  -------------------------------------------------------------------------------------
  Total      -0.00563    -0.00563    -0.00563     0.00000     0.00000     0.00000
  in kB      -0.00311    -0.00311    -0.00311     0.00000     0.00000     0.00000
  external pressure =       -0.00 kB  Pullay stress =        0.00 kB


 VOLUME and BASIS-vectors are now :
 -----------------------------------------------------------------------------
  energy-cutoff  :      350.00
  volume of cell :     2897.11
      direct lattice vectors                 reciprocal lattice vectors
    14.255687346 -0.000000591 -0.000000587     0.070147442  0.000000003  0.000000003
    -0.000000601 14.255686798 -0.000000038     0.000000003  0.070147445  0.000000000
    -0.000000573 -0.000000040 14.255687052     0.000000003  0.000000000  0.070147443

  length of vectors
    14.255687346 14.255686798 14.255687052     0.070147442  0.070147445  0.070147443


 FORCES acting on ions
    electron-ion (+dipol)            ewald-force                    non-local-force                 convergence-correction
 -----------------------------------------------------------------------------------------------
   -.274E-03 0.165E-03 0.558E-03   -.388E-03 0.262E-03 0.482E-03   0.245E-21 -.341E-21 -.410E-21   0.779E-07 -.573E-07 -.897E-08
   0.259E-03 -.301E-03 -.107E-03   -.693E-04 -.276E-03 -.187E-03   -.286E-21 -.662E-21 0.238E-21   -.837E-09 0.638E-07 0.228E-07
   -.972E-03 -.267E-02 0.109E-03   -.630E-03 -.134E-02 0.102E-03   -.296E-21 0.764E-21 0.807E-21   0.117E-06 0.728E-07 -.203E-07
   0.162E-02 0.150E-03 0.585E-03   0.105E-02 -.972E-04 0.306E-03   0.101E-20 -.542E-21 0.359E-21   -.102E-06 0.555E-07 -.278E-07
   -.790E-03 0.107E-03 -.196E-03   -.662E-03 0.113E-04 -.114E-04   0.207E-21 0.586E-21 -.228E-21   0.336E-07 -.645E-08 0.910E-08
   -.438E-03 0.438E-04 -.533E-03   -.531E-03 0.633E-04 -.225E-03   -.495E-21 0.897E-21 -.410E-21   0.114E-06 -.159E-07 -.635E-08
   -.155E-02 -.767E-03 -.472E-03   -.105E-02 -.413E-03 -.255E-03   -.749E-21 0.821E-21 -.960E-22   0.100E-06 0.550E-07 -.126E-07
   0.722E-03 0.794E-03 0.798E-03   0.408E-03 0.368E-03 0.375E-03   0.260E-22 0.625E-21 0.562E-21   -.909E-07 -.618E-07 -.131E-07
   0.128E-02 0.503E-03 -.320E-03   0.777E-03 0.380E-03 -.281E-03   -.115E-21 0.705E-21 -.101E-20   -.135E-06 -.675E-07 0.435E-08
   -.472E-03 0.472E-03 0.554E-03   -.132E-03 0.158E-03 0.249E-03   -.999E-22 -.129E-21 -.222E-21   -.118E-07 -.186E-07 -.157E-07
   -.848E-03 -.853E-04 0.394E-04   -.511E-03 -.874E-04 0.682E-04   -.343E-21 -.197E-21 0.218E-21   0.152E-07 0.127E-07 -.200E-07
   -.146E-02 0.371E-03 0.101E-03   -.816E-03 0.455E-03 0.233E-04   -.197E-21 -.208E-21 0.467E-21   0.105E-06 -.385E-07 -.149E-07
   0.159E-02 0.725E-04 0.119E-02   0.645E-03 0.263E-04 0.623E-03   0.340E-21 -.949E-21 0.366E-21   -.891E-07 0.280E-07 -.137E-07
   -.138E-02 -.454E-03 0.190E-03   -.728E-03 -.376E-03 -.102E-03   -.804E-21 0.314E-21 -.518E-21   0.765E-07 0.288E-07 0.871E-09
   0.917E-04 -.566E-03 0.373E-03   -.907E-04 -.295E-03 0.132E-03   0.505E-22 0.289E-21 0.582E-21   -.513E-08 0.688E-07 -.144E-07
   0.841E-04 0.108E-02 0.442E-03   0.255E-03 0.481E-03 0.111E-03   -.161E-21 -.744E-22 -.523E-21   -.199E-07 -.705E-07 -.121E-07
   0.429E-03 0.487E-03 0.184E-03   -.466E-04 0.311E-03 -.931E-05   -.309E-21 0.157E-21 0.127E-21   0.170E-07 -.624E-07 0.257E-08
   -.404E-03 0.648E-04 -.144E-03   -.434E-03 -.710E-04 -.947E-04   -.206E-21 -.582E-21 -.476E-21   0.984E-08 0.228E-07 0.114E-07
   -.250E-03 -.105E-02 -.678E-03   -.461E-04 -.721E-03 -.320E-03   -.231E-21 -.710E-21 0.642E-21   0.771E-07 0.674E-07 -.177E-07
   0.135E-02 -.156E-02 -.416E-03   0.677E-03 -.610E-03 -.287E-03   0.153E-21 -.447E-21 0.118E-20   -.101E-06 0.486E-07 0.961E-08
   -.834E-03 -.176E-02 -.518E-03   -.646E-03 -.882E-03 -.272E-03   0.300E-21 -.607E-21 0.405E-21   0.124E-06 0.692E-07 -.211E-08
   -.204E-02 -.110E-03 -.273E-03   -.123E-02 -.756E-04 -.199E-03   0.988E-22 0.923E-21 0.314E-22   0.117E-06 -.381E-07 0.144E-07
   0.110E-02 0.391E-03 -.559E-04   0.428E-03 0.198E-03 -.220E-04   0.167E-21 0.794E-22 -.576E-21   0.234E-08 -.533E-07 -.113E-07
   0.106E-02 0.285E-03 0.139E-02   0.566E-03 0.249E-03 0.720E-03   -.773E-21 0.251E-21 0.827E-22   -.118E-06 -.166E-07 -.135E-07
   0.104E-02 0.612E-04 -.986E-03   0.789E-03 -.162E-03 -.446E-03   -.319E-21 0.324E-21 -.123E-20   -.131E-06 -.184E-08 0.197E-07
   0.831E-04 0.486E-03 0.798E-03   0.156E-03 0.215E-03 0.474E-03   0.335E-21 0.114E-21 -.507E-21   -.700E-07 0.252E-07 -.167E-07
   0.828E-03 -.406E-04 -.472E-03   0.292E-03 -.108E-04 -.207E-03   -.109E-20 0.472E-21 0.874E-21   0.932E-08 -.633E-08 0.409E-08
   -.138E-02 0.496E-03 0.132E-02   -.857E-03 0.352E-03 0.753E-03   -.285E-21 0.419E-21 -.463E-21   0.128E-06 -.209E-07 -.243E-07
   0.903E-03 -.167E-02 -.724E-03   0.550E-03 -.749E-03 -.385E-03   -.572E-21 -.311E-21 -.534E-21   -.807E-07 0.537E-07 0.146E-07
   0.156E-04 -.174E-02 -.814E-03   0.162E-03 -.916E-03 -.410E-03   -.270E-21 0.550E-21 -.112E-20   -.818E-07 0.688E-07 0.302E-07
   0.498E-03 -.799E-03 -.307E-03   0.341E-03 -.402E-03 0.154E-04   0.563E-21 -.684E-21 0.117E-20   -.117E-07 0.675E-07 -.212E-07
   0.606E-03 -.106E-02 -.203E-03   0.483E-03 -.763E-03 -.298E-03   0.735E-21 0.570E-21 0.500E-21   -.118E-06 0.733E-07 0.137E-07
   0.593E-03 0.178E-02 0.216E-03   0.433E-03 0.850E-03 -.222E-04   0.274E-21 -.921E-21 -.480E-21   -.961E-07 -.477E-07 0.181E-07
   -.223E-03 -.102E-02 -.909E-03   -.227E-03 -.375E-03 -.395E-03   0.920E-23 0.621E-21 0.848E-21   0.931E-07 -.141E-07 0.195E-07
   0.142E-02 -.212E-03 0.100E-03   0.677E-03 -.288E-04 -.214E-04   0.364E-21 -.329E-21 0.152E-21   -.261E-08 -.115E-07 -.838E-08
   -.138E-02 0.492E-04 -.201E-02   -.716E-03 0.172E-03 -.102E-02   -.330E-21 -.225E-21 -.926E-22   0.121E-06 -.208E-07 0.262E-07
   0.100E-02 -.444E-03 -.107E-03   0.586E-03 -.178E-03 0.908E-05   -.170E-21 -.827E-22 0.202E-21   -.895E-07 -.254E-07 -.592E-08
   -.173E-02 0.144E-02 0.238E-03   -.857E-03 0.842E-03 0.169E-03   -.143E-21 -.286E-21 0.164E-21   0.128E-06 -.686E-07 -.196E-07
   -.166E-02 -.575E-03 -.680E-03   -.830E-03 -.428E-03 -.396E-03   -.120E-20 0.754E-21 0.225E-21   0.976E-07 0.589E-07 0.184E-07
   -.214E-02 -.475E-03 -.130E-03   -.999E-03 -.306E-03 -.160E-03   -.757E-21 -.164E-21 -.844E-21   0.143E-06 -.379E-07 0.197E-07
   0.139E-02 -.234E-03 -.112E-02   0.884E-03 -.211E-03 -.741E-03   -.133E-21 0.662E-22 -.529E-22   -.131E-06 0.167E-07 0.223E-07
   -.726E-05 -.149E-02 -.236E-04   -.190E-05 -.751E-03 -.333E-04   0.232E-21 -.116E-21 0.469E-21   -.701E-07 0.489E-07 0.104E-07
   0.148E-02 -.175E-03 0.982E-03   0.733E-03 -.190E-03 0.558E-03   0.401E-21 -.189E-21 0.361E-21   -.954E-07 0.504E-07 -.211E-08
   0.123E-02 0.134E-02 0.227E-03   0.675E-03 0.514E-03 0.236E-03   -.233E-21 -.732E-21 -.665E-21   -.116E-06 0.493E-07 -.199E-07
   -.165E-02 0.190E-03 0.113E-02   -.108E-02 0.274E-03 0.478E-03   0.610E-21 -.926E-22 -.435E-21   0.135E-06 -.245E-07 0.447E-08
   -.332E-03 0.755E-03 -.248E-03   -.209E-03 0.308E-03 -.222E-03   0.150E-21 0.579E-23 -.271E-21   0.874E-07 -.459E-07 0.352E-09
   -.139E-02 -.397E-03 -.769E-03   -.842E-03 -.246E-03 -.342E-03   -.598E-21 0.731E-21 -.144E-21   0.132E-06 -.385E-07 0.135E-07
   -.125E-02 0.879E-03 -.120E-03   -.830E-03 0.341E-03 -.250E-04   0.159E-21 0.457E-21 0.136E-21   0.101E-06 0.142E-07 0.130E-07
   -.815E-03 -.361E-04 -.922E-04   -.399E-03 -.719E-04 0.305E-04   -.375E-21 0.635E-21 -.453E-21   0.112E-07 0.520E-07 -.169E-07
   -.593E-03 -.126E-04 0.277E-03   -.274E-03 0.623E-05 0.204E-03   -.615E-21 -.170E-21 -.784E-21   0.119E-07 0.671E-08 -.448E-08
   0.246E-03 0.490E-03 0.393E-03   0.103E-03 0.216E-03 0.235E-03   -.207E-21 0.493E-21 0.797E-21   0.720E-08 -.505E-07 -.475E-08
   -.684E-03 -.136E-03 -.494E-03   -.606E-03 -.582E-04 -.307E-03   0.544E-21 -.493E-21 -.367E-21   0.927E-07 -.236E-07 0.144E-07
   0.565E-03 0.857E-04 -.378E-03   0.455E-03 0.231E-03 -.161E-03   -.525E-21 -.533E-21 0.546E-22   -.239E-07 -.633E-07 0.177E-07
   0.178E-02 -.116E-02 -.756E-03   0.103E-02 -.514E-03 -.411E-03   0.541E-21 0.276E-21 -.559E-21   -.949E-07 0.633E-07 0.207E-08
   0.133E-02 0.982E-04 -.787E-03   0.620E-03 0.179E-03 -.244E-03   -.355E-21 0.545E-21 -.470E-21   -.949E-07 -.561E-07 -.789E-08
   -.132E-03 -.447E-03 -.340E-03   -.574E-04 -.350E-03 -.184E-03   -.757E-21 -.294E-21 -.260E-21   0.824E-07 0.271E-07 -.264E-08
   -.111E-02 -.518E-03 -.109E-02   -.778E-03 -.452E-03 -.682E-03   -.632E-21 0.850E-21 -.852E-21   0.137E-06 0.253E-07 0.351E-07
   -.190E-02 0.278E-03 -.896E-03   -.965E-03 -.677E-04 -.506E-03   0.246E-21 -.286E-21 0.260E-21   0.136E-06 0.185E-07 0.715E-08
   0.891E-03 0.681E-05 -.377E-03   0.635E-03 0.373E-04 -.222E-03   -.930E-21 -.101E-20 -.110E-21   -.140E-07 0.620E-08 0.217E-07
   -.143E-02 0.117E-02 0.496E-03   -.865E-03 0.749E-03 0.324E-03   -.121E-20 0.484E-21 -.814E-21   0.871E-07 -.677E-07 -.249E-07
   0.348E-03 -.824E-04 0.980E-04   0.439E-03 0.108E-03 0.118E-03   0.154E-21 -.996E-21 0.136E-21   -.112E-06 -.180E-07 -.165E-07
   0.306E-03 0.385E-05 0.948E-03   0.540E-04 -.237E-04 0.412E-03   0.705E-21 -.248E-21 -.463E-22   -.753E-07 0.447E-07 -.229E-07
   0.145E-02 -.116E-03 -.115E-04   0.866E-03 -.856E-04 0.756E-04   -.139E-21 0.591E-21 0.510E-21   -.107E-06 -.310E-07 -.172E-07
   -.106E-02 0.427E-03 0.853E-03   -.666E-03 0.353E-03 0.463E-03   -.636E-21 -.535E-21 -.369E-21   0.916E-07 -.288E-07 -.171E-07
   0.146E-02 0.163E-02 0.661E-03   0.827E-03 0.617E-03 0.205E-03   0.887E-22 0.321E-21 -.427E-21   -.109E-06 -.490E-07 -.623E-09
   0.903E-03 0.366E-03 0.415E-03   0.728E-03 0.361E-03 0.288E-03   0.779E-21 -.728E-21 0.361E-21   -.136E-06 0.661E-09 0.105E-07
   0.109E-02 -.297E-03 -.494E-03   0.704E-03 -.284E-03 -.387E-03   -.411E-21 0.256E-22 0.688E-21   -.126E-06 -.350E-08 0.102E-07
   0.192E-02 0.940E-03 0.441E-03   0.124E-02 0.621E-03 0.811E-04   0.384E-21 -.528E-21 0.993E-22   -.119E-06 -.659E-07 0.105E-07
   -.172E-02 0.295E-03 0.129E-02   -.101E-02 -.640E-04 0.680E-03   -.110E-20 0.145E-21 0.382E-21   0.133E-06 0.195E-07 -.871E-08
   -.563E-03 -.495E-03 0.450E-03   -.369E-03 -.131E-03 0.226E-03   -.296E-21 0.601E-21 -.261E-21   0.222E-07 -.108E-07 -.472E-08
   -.895E-03 -.150E-03 0.166E-02   -.656E-03 -.867E-04 0.801E-03   -.369E-22 -.337E-22 0.662E-22   0.901E-07 0.440E-07 -.260E-07
   0.378E-03 -.667E-03 -.768E-03   0.171E-03 -.354E-03 -.411E-03   0.149E-21 0.106E-20 0.695E-21   -.801E-07 0.506E-07 -.522E-09
   -.169E-02 0.882E-03 0.229E-03   -.881E-03 0.495E-03 -.132E-04   0.229E-22 -.154E-21 -.874E-21   0.129E-06 0.370E-07 0.198E-07
   -.756E-03 0.778E-04 0.211E-03   -.566E-03 0.151E-03 0.185E-03   -.107E-20 -.278E-21 0.936E-21   0.119E-06 0.398E-07 0.262E-08
   0.765E-03 -.147E-02 -.231E-03   0.655E-03 -.700E-03 -.175E-03   -.126E-21 0.501E-21 0.256E-21   -.127E-06 0.235E-07 -.107E-07
   -.412E-03 0.770E-03 -.121E-03   -.420E-03 0.543E-03 0.891E-04   0.333E-21 0.544E-21 -.629E-22   0.830E-07 -.395E-07 -.224E-07
   -.259E-03 0.847E-03 0.517E-03   -.655E-04 0.442E-03 0.231E-03   -.544E-21 0.692E-21 0.400E-21   -.642E-08 -.679E-07 -.180E-07
   0.363E-03 -.142E-03 -.469E-03   0.361E-03 -.180E-03 -.196E-03   -.160E-20 -.261E-21 -.751E-21   -.810E-07 -.298E-07 -.828E-08
   -.101E-02 0.661E-03 -.388E-03   -.645E-03 0.433E-03 -.354E-03   -.749E-21 -.104E-21 0.417E-21   0.817E-07 -.579E-07 0.650E-08
   -.132E-02 0.816E-04 0.157E-03   -.586E-03 0.167E-04 0.105E-03   0.154E-21 0.106E-21 -.257E-21   0.879E-09 -.212E-07 -.158E-07
   0.913E-03 0.179E-03 0.231E-03   0.496E-03 0.712E-04 -.516E-04   0.174E-21 -.237E-21 -.443E-21   -.124E-06 -.547E-07 -.905E-08
   -.868E-03 -.598E-03 -.421E-03   -.592E-03 -.169E-03 -.938E-04   -.376E-22 0.609E-21 -.387E-21   0.125E-07 0.201E-07 0.233E-07
   0.598E-03 0.176E-03 0.105E-03   0.552E-03 0.898E-05 -.461E-04   -.538E-21 -.260E-21 -.265E-21   -.118E-07 0.117E-07 0.278E-08
   0.723E-03 -.277E-03 -.136E-03   0.486E-03 0.579E-04 -.666E-04   0.513E-21 -.265E-22 0.348E-21   -.788E-07 0.311E-07 -.824E-08
   -.287E-03 0.584E-03 -.341E-03   -.347E-03 0.445E-03 -.192E-03   0.793E-22 0.972E-21 -.264E-21   0.218E-07 -.605E-07 0.134E-07
   0.141E-03 0.137E-02 0.618E-03   0.336E-03 0.641E-03 0.256E-03   -.351E-21 -.883E-22 -.331E-22   -.893E-07 -.529E-07 0.254E-08
   -.180E-02 -.438E-03 -.220E-03   -.101E-02 -.335E-03 -.240E-03   -.198E-21 0.107E-20 -.783E-21   0.102E-06 -.122E-07 0.252E-07
   0.765E-03 0.513E-03 0.703E-03   0.578E-03 0.257E-04 0.467E-03   0.725E-21 0.480E-21 -.414E-21   -.123E-06 0.635E-07 -.157E-07
   -.385E-03 0.866E-03 -.878E-03   -.151E-03 0.500E-03 -.475E-03   0.871E-21 -.798E-21 -.187E-21   0.733E-07 0.104E-07 0.263E-07
   0.416E-03 -.759E-03 0.719E-04   0.348E-03 -.496E-03 -.573E-04   0.135E-20 0.450E-21 0.864E-21   -.234E-08 0.608E-07 0.175E-07
   0.113E-02 -.173E-04 0.170E-03   0.440E-03 0.172E-04 0.234E-04   0.771E-21 -.271E-21 0.124E-20   -.870E-07 0.315E-07 -.188E-07
   0.161E-02 0.767E-03 -.332E-03   0.980E-03 0.209E-03 -.161E-03   0.837E-21 -.605E-21 0.839E-21   -.372E-07 -.205E-07 0.165E-07
   0.952E-03 0.528E-03 -.510E-03   0.527E-03 0.284E-03 -.203E-03   -.567E-22 0.462E-21 -.433E-21   -.246E-07 -.247E-07 0.151E-07
   -.109E-03 0.104E-02 0.578E-03   0.375E-04 0.549E-03 0.242E-03   -.829E-21 0.818E-21 -.389E-21   -.699E-07 -.561E-07 -.197E-08
   0.344E-03 0.322E-03 -.108E-02   0.376E-03 0.136E-03 -.485E-03   -.352E-21 0.247E-21 -.314E-22   -.813E-07 -.460E-07 0.506E-08
   0.183E-02 -.118E-02 -.118E-02   0.938E-03 -.626E-03 -.565E-03   0.461E-21 -.208E-21 -.662E-22   -.101E-06 0.570E-07 0.256E-07
   0.185E-02 0.124E-02 -.431E-03   0.897E-03 0.950E-03 -.294E-04   -.368E-21 -.856E-21 -.265E-21   -.141E-06 -.856E-07 0.103E-07
   -.120E-02 -.678E-03 0.163E-02   -.534E-03 -.414E-03 0.789E-03   0.191E-21 0.316E-21 0.369E-21   0.848E-07 0.580E-07 -.233E-07
   0.938E-04 -.938E-03 -.737E-03   -.149E-03 -.454E-03 -.413E-03   -.153E-21 -.234E-21 0.235E-21   0.871E-07 0.506E-07 0.211E-07
   0.634E-03 0.679E-03 0.872E-03   0.443E-03 0.322E-03 0.549E-03   0.838E-21 -.101E-20 0.510E-21   -.782E-07 -.504E-07 -.196E-07
   0.226E-02 0.324E-03 -.499E-03   0.122E-02 0.297E-03 -.213E-03   -.185E-21 -.540E-21 0.199E-21   -.121E-06 -.592E-07 0.106E-07
   -.321E-03 0.447E-03 -.490E-03   0.648E-04 0.297E-03 -.321E-03   0.105E-20 0.850E-22 -.510E-21   -.738E-07 -.512E-07 0.166E-07
   0.155E-02 -.981E-03 -.887E-03   0.968E-03 -.551E-03 -.354E-03   -.278E-21 -.275E-21 0.124E-21   -.104E-06 0.448E-07 0.229E-07
   0.951E-03 -.926E-03 -.730E-05   0.429E-03 -.347E-03 0.713E-04   0.105E-20 -.589E-21 -.460E-21   -.142E-07 0.203E-07 -.115E-07
   0.799E-03 0.602E-04 -.489E-03   0.203E-03 0.908E-04 -.140E-03   -.237E-21 -.377E-21 0.121E-21   0.773E-07 0.381E-07 0.175E-07
   0.159E-02 -.755E-03 0.842E-03   0.818E-03 -.127E-03 0.618E-03   0.758E-21 0.248E-21 -.172E-21   -.133E-06 0.752E-08 -.220E-07
   0.135E-02 0.169E-02 -.470E-04   0.801E-03 0.837E-03 -.744E-04   0.140E-21 -.106E-20 0.653E-21   -.993E-07 -.498E-07 0.117E-07
   0.530E-03 -.910E-03 -.179E-04   0.176E-03 -.537E-03 0.336E-04   0.674E-21 0.553E-21 0.179E-21   -.601E-08 0.636E-07 0.129E-07
   -.808E-03 -.165E-03 0.935E-03   -.411E-03 0.125E-03 0.486E-03   -.826E-21 -.233E-21 -.468E-21   0.922E-07 -.252E-07 -.211E-07
   0.140E-03 0.342E-03 -.632E-03   0.477E-04 0.330E-03 -.184E-03   0.801E-21 -.285E-21 0.533E-21   -.972E-08 -.617E-07 0.124E-07
   0.597E-04 -.334E-03 0.103E-02   0.245E-03 -.295E-03 0.522E-03   -.105E-21 0.498E-21 -.582E-21   -.894E-07 0.596E-07 -.451E-08
   -.173E-02 0.108E-02 0.661E-03   -.975E-03 0.605E-03 0.326E-03   -.816E-22 0.829E-21 -.644E-21   0.138E-06 -.669E-07 -.135E-07
   0.102E-03 -.156E-03 -.738E-03   -.622E-04 -.674E-04 -.451E-03   -.941E-21 0.115E-21 0.582E-21   0.717E-07 -.473E-07 0.274E-07
   -.262E-03 0.102E-02 0.184E-03   -.137E-03 0.511E-03 0.106E-03   0.123E-21 -.534E-21 0.850E-21   0.892E-07 -.561E-07 -.121E-07
   -.129E-02 0.118E-02 0.754E-03   -.937E-03 0.438E-03 0.512E-03   0.238E-21 -.501E-21 0.799E-21   0.130E-06 0.117E-07 -.336E-07
   0.102E-02 -.172E-02 -.568E-03   0.610E-03 -.116E-02 -.391E-03   0.393E-21 -.729E-21 -.874E-21   -.126E-06 0.869E-07 0.218E-07
   -.279E-02 -.415E-03 -.332E-03   -.131E-02 -.114E-03 -.741E-04   0.258E-21 -.418E-21 -.139E-20   0.105E-06 0.493E-07 0.227E-07
   -.158E-02 0.919E-03 0.529E-03   -.898E-03 0.411E-03 0.334E-03   -.304E-21 0.165E-21 -.893E-21   0.117E-06 -.503E-07 -.277E-08
   0.141E-02 -.197E-03 0.441E-03   0.789E-03 -.669E-04 0.103E-03   -.585E-21 0.786E-21 0.864E-21   -.184E-07 0.217E-07 -.231E-07
   -.450E-03 -.179E-03 0.255E-04   -.100E-03 -.922E-04 0.318E-04   0.488E-21 0.572E-21 -.546E-21   0.443E-08 0.496E-07 0.212E-08
   0.971E-03 0.351E-03 -.828E-03   0.502E-03 0.128E-03 -.249E-03   0.609E-21 0.314E-22 -.771E-21   -.944E-07 -.296E-07 -.361E-09
   -.117E-02 0.656E-03 0.816E-03   -.697E-03 0.230E-03 0.542E-03   0.293E-21 0.202E-21 0.273E-21   0.836E-07 0.220E-07 -.599E-08
   -.191E-02 -.856E-03 -.160E-03   -.993E-03 -.570E-03 0.389E-04   -.303E-21 0.496E-21 -.674E-21   0.849E-07 0.398E-07 -.212E-07
   0.104E-02 0.957E-03 0.568E-03   0.697E-03 0.715E-03 0.371E-03   0.674E-21 0.175E-21 0.596E-22   -.130E-06 -.733E-07 -.563E-08
   0.290E-04 -.364E-03 0.300E-04   0.162E-03 -.295E-03 -.147E-05   0.291E-21 -.192E-21 -.165E-22   0.355E-08 0.619E-07 -.275E-08
   -.146E-04 -.722E-03 -.176E-04   0.593E-04 -.568E-03 -.742E-04   -.113E-21 0.946E-21 -.128E-21   0.810E-07 0.398E-07 -.104E-07
   -.104E-02 0.668E-04 0.629E-03   -.535E-03 -.287E-04 0.302E-03   -.546E-22 -.336E-21 0.357E-21   0.985E-07 0.280E-07 -.255E-10
   -.106E-02 0.150E-04 -.181E-04   -.567E-03 0.717E-04 -.111E-03   -.327E-21 -.194E-22 -.205E-21   0.106E-06 -.283E-07 0.165E-07
 -----------------------------------------------------------------------------------------------
   0.151E-08 0.300E-09 0.187E-08   0.217E-11 0.479E-12 0.396E-12   -.551E-20 0.357E-20 -.409E-20   0.355E-11 0.398E-11 0.519E-11
 
 
 POSITION                                       TOTAL-FORCE (eV/Angst)
 -----------------------------------------------------------------------------------
      5.34588     12.47373     12.47373         0.000000      0.000000     -0.000000
      7.12784      3.56392     10.69177        -0.000000      0.000000      0.000000
      3.56392      3.56392      3.56392        -0.000000     -0.000000     -0.000000
      8.90980      5.34588      1.78196         0.000000      0.000000      0.000000
     -0.00000     14.25569     10.69177        -0.000000     -0.000000      0.000000
      3.56392     14.25569      3.56392        -0.000000      0.000000     -0.000000
      1.78196      5.34588      1.78196        -0.000000     -0.000000     -0.000000
      8.90980     12.47373      5.34588         0.000000      0.000000     -0.000000
     10.69176     10.69176     -0.00000        -0.000000      0.000000      0.000000
      7.12784     14.25569     14.25569        -0.000000     -0.000000      0.000000
      0.00000      7.12784      3.56392         0.000000      0.000000     -0.000000
      1.78196      8.90980      1.78196         0.000000     -0.000000     -0.000000
      8.90980      1.78196      5.34588         0.000000     -0.000000     -0.000000
      5.34588      1.78196      5.34588        -0.000000     -0.000000     -0.000000
      7.12784      3.56392     14.25569        -0.000000      0.000000     -0.000000
      7.12784     10.69176     14.25569         0.000000      0.000000     -0.000000
     14.25569     10.69176     14.25569         0.000000     -0.000000      0.000000
      7.12784      7.12784      7.12784         0.000000     -0.000000      0.000000
      5.34588      5.34588      1.78196        -0.000000     -0.000000      0.000000
      8.90980      1.78196     12.47373        -0.000000     -0.000000      0.000000
      3.56392      3.56392      0.00000        -0.000000     -0.000000      0.000000
      1.78196     12.47373      8.90980        -0.000000      0.000000     -0.000000
     14.25569     10.69176      3.56392         0.000000     -0.000000     -0.000000
     10.69176     14.25569      7.12784        -0.000000     -0.000000     -0.000000
     10.69176     14.25569     10.69177        -0.000000     -0.000000      0.000000
     12.47373      1.78196      5.34588        -0.000000      0.000000      0.000000
     14.25569     -0.00000     -0.00000         0.000000     -0.000000     -0.000000
      3.56392     14.25569     14.25569         0.000000      0.000000     -0.000000
     12.47373      1.78196     12.47373        -0.000000      0.000000     -0.000000
      8.90980      5.34588      8.90980         0.000000      0.000000      0.000000
      7.12784      3.56392      3.56392        -0.000000     -0.000000     -0.000000
     10.69176      3.56392      7.12784        -0.000000     -0.000000     -0.000000
      8.90980      8.90980      8.90980        -0.000000      0.000000      0.000000
      1.78196      8.90980      8.90980         0.000000      0.000000     -0.000000
     14.25569     -0.00000      3.56392         0.000000      0.000000     -0.000000
      3.56392     14.25569      7.12784        -0.000000     -0.000000      0.000000
     12.47373      8.90980      5.34588         0.000000     -0.000000     -0.000000
      3.56392     10.69176      3.56392        -0.000000     -0.000000      0.000000
      5.34588      5.34588     12.47373        -0.000000     -0.000000     -0.000000
      3.56392     10.69177     10.69177         0.000000     -0.000000      0.000000
     10.69176      7.12784      7.12784        -0.000000      0.000000      0.000000
     12.47373      1.78196      8.90980        -0.000000      0.000000      0.000000
     12.47372      5.34588     12.47373         0.000000      0.000000      0.000000
     10.69176      3.56392      3.56392        -0.000000      0.000000     -0.000000
      3.56392     14.25569     10.69176         0.000000      0.000000     -0.000000
      1.78196     12.47373      5.34588        -0.000000      0.000000     -0.000000
      3.56392     10.69177      7.12784        -0.000000      0.000000     -0.000000
      1.78196      1.78196      8.90980        -0.000000     -0.000000      0.000000
      0.00000      3.56392      3.56392        -0.000000      0.000000     -0.000000
     -0.00000      7.12784     14.25569        -0.000000     -0.000000     -0.000000
     14.25569     10.69176      7.12784         0.000000     -0.000000     -0.000000
      5.34588      8.90980     12.47373         0.000000     -0.000000      0.000000
      7.12784     10.69176     10.69177        -0.000000     -0.000000     -0.000000
      8.90980      5.34588      5.34588         0.000000      0.000000     -0.000000
      8.90980     12.47373      1.78196        -0.000000     -0.000000      0.000000
      1.78196      1.78196      5.34588        -0.000000      0.000000      0.000000
      3.56392      7.12784     10.69177        -0.000000     -0.000000     -0.000000
      3.56392      7.12784      0.00000        -0.000000      0.000000      0.000000
     14.25569      7.12784     10.69176         0.000000     -0.000000      0.000000
      5.34588     12.47373      1.78196        -0.000000     -0.000000     -0.000000
     10.69177     -0.00000      3.56392         0.000000     -0.000000      0.000000
     12.47373      5.34588      1.78196        -0.000000      0.000000      0.000000
      8.90980      8.90980      1.78196        -0.000000     -0.000000     -0.000000
      5.34588      8.90980      5.34588         0.000000     -0.000000     -0.000000
      8.90980      8.90980     12.47373         0.000000      0.000000     -0.000000
     10.69176      7.12784     10.69176         0.000000      0.000000      0.000000
     10.69176     -0.00000     -0.00000         0.000000      0.000000      0.000000
      8.90980     12.47373      8.90980        -0.000000     -0.000000      0.000000
      3.56392      7.12784      7.12784        -0.000000      0.000000      0.000000
      0.00000      0.00000      7.12784        -0.000000      0.000000      0.000000
      1.78196      5.34588      5.34588         0.000000     -0.000000     -0.000000
     12.47373      5.34588      5.34588        -0.000000     -0.000000      0.000000
      3.56392      3.56392     10.69177         0.000000      0.000000      0.000000
      3.56392      3.56392      7.12784        -0.000000     -0.000000     -0.000000
     10.69176      7.12784      3.56392        -0.000000     -0.000000      0.000000
      5.34588      8.90980      1.78196         0.000000      0.000000     -0.000000
      7.12784     10.69176      3.56392        -0.000000      0.000000      0.000000
     12.47373      8.90980      1.78196         0.000000     -0.000000     -0.000000
      5.34588     12.47373      5.34588        -0.000000     -0.000000      0.000000
      7.12784     14.25569      3.56392        -0.000000     -0.000000     -0.000000
     10.69176     10.69176      3.56392         0.000000     -0.000000      0.000000
      7.12784      7.12784     10.69177        -0.000000      0.000000     -0.000000
     14.25569      7.12784      7.12784         0.000000      0.000000     -0.000000
     12.47373      1.78196      1.78196         0.000000      0.000000     -0.000000
     -0.00000     10.69176     10.69177        -0.000000     -0.000000     -0.000000
     12.47373      8.90980     12.47373        -0.000000      0.000000     -0.000000
      5.34588      8.90980      8.90980        -0.000000      0.000000      0.000000
     10.69176      3.56392     14.25569        -0.000000     -0.000000      0.000000
      5.34588      1.78196      8.90980         0.000000     -0.000000     -0.000000
     14.25569      3.56392     10.69176        -0.000000      0.000000     -0.000000
      8.90980      1.78196      1.78196        -0.000000     -0.000000     -0.000000
      7.12784     14.25569     10.69177         0.000000      0.000000      0.000000
      7.12784     14.25569      7.12784         0.000000      0.000000      0.000000
     12.47373     12.47372      8.90980        -0.000000     -0.000000     -0.000000
     12.47373     12.47373      1.78196         0.000000     -0.000000     -0.000000
     12.47372      5.34588      8.90980        -0.000000      0.000000      0.000000
     10.69176     10.69176     10.69177         0.000000     -0.000000      0.000000
      5.34588      5.34588      5.34588        -0.000000     -0.000000     -0.000000
      1.78196      5.34588     12.47373         0.000000     -0.000000      0.000000
     12.47373     12.47373      5.34588         0.000000     -0.000000     -0.000000
      8.90980     12.47373     12.47373        -0.000000     -0.000000      0.000000
     12.47373     12.47373     12.47373        -0.000000     -0.000000      0.000000
      8.90980      1.78196      8.90980        -0.000000      0.000000     -0.000000
      7.12784      7.12784     -0.00000         0.000000      0.000000      0.000000
      1.78196      5.34588      8.90980         0.000000      0.000000     -0.000000
     10.69176      7.12784     14.25569        -0.000000     -0.000000     -0.000000
     12.47372      8.90980      8.90980         0.000000      0.000000     -0.000000
      7.12784      3.56392      7.12784        -0.000000      0.000000      0.000000
      1.78196      8.90980      5.34588         0.000000      0.000000      0.000000
      7.12784     10.69176      7.12784        -0.000000      0.000000     -0.000000
      8.90980      5.34588     12.47373         0.000000      0.000000     -0.000000
      3.56392     10.69176     14.25569         0.000000      0.000000     -0.000000
      5.34588     12.47373      8.90980         0.000000      0.000000      0.000000
      1.78196     12.47373      1.78196         0.000000      0.000000     -0.000000
      3.56392      7.12784      3.56392        -0.000000     -0.000000     -0.000000
     10.69176      3.56392     10.69177         0.000000      0.000000      0.000000
      5.34588      5.34588      8.90980        -0.000000      0.000000     -0.000000
      1.78196     12.47373     12.47373        -0.000000      0.000000     -0.000000
      7.12784      7.12784      3.56392         0.000000     -0.000000      0.000000
     -0.00000      3.56392      7.12784        -0.000000     -0.000000      0.000000
      8.90980      8.90980      5.34588         0.000000      0.000000     -0.000000
      5.34588      1.78196     12.47373        -0.000000     -0.000000      0.000000
      5.34588      1.78196      1.78196        -0.000000      0.000000     -0.000000
     10.69176     10.69176      7.12784         0.000000     -0.000000     -0.000000
     14.25569      3.56392     14.25569         0.000000      0.000000      0.000000
      1.78196      1.78196      1.78196        -0.000000      0.000000     -0.000000
      1.78196      1.78196     12.47373         0.000000     -0.000000     -0.000000
      1.78196      8.90980     12.47373         0.000000      0.000000     -0.000000
 -----------------------------------------------------------------------------------
    total drift:                                0.000000      0.000000      0.000000


--------------------------------------------------------------------------------------------------------



  FREE ENERGIE OF THE ION-ELECTRON SYSTEM (eV)
  ---------------------------------------------------
  free  energy   TOTEN  =     -1075.46938247 eV

  energy  without entropy=    -1075.39538579  energy(sigma->0) =    -1075.44471691
 d Force = 0.0000000E+00[ 0.000E+00, 0.000E+00]  d Energy = 0.1505620E-03-0.151E-03
 d Force = 0.0000000E+00[ 0.000E+00, 0.000E+00]  d Ewald  = 0.3201134E+02-0.320E+02
 


--------------------------------------------------------------------------------------------------------


    POTLOK:  cpu time      0.1220: real time      0.0214


--------------------------------------------------------------------------------------------------------




--------------------------------------------------------------------------------------------------------


  
 reached required accuracy - stopping structural energy minimisation
     LOOP+:  cpu time     38.8784: real time     34.3143
    4ORBIT:  cpu time      0.0000: real time      0.0000

 total amount of memory used by VASP MPI-rank0   672936. kBytes
=======================================================================

   base                                    :      30000. kBytes
   nonlr-proj                              :      35480. kBytes
   fftplans                                :      18931. kBytes
   grid                                    :      35979. kBytes
   one-center                              :       1990. kBytes
   wavefun                                 :     550556. kBytes
 
  
  
 General timing and accounting informations for this job:
 ========================================================
  
                  Total CPU time used (sec):      321.060
                            User time (sec):      302.131
                          System time (sec):       18.929
                         Elapsed time (sec):      252.249
  
                   Maximum memory used (kb):     1977348.
                   Average memory used (kb):          N/A
  
                          Minor page faults:       213424
                          Major page faults:          892
                 Voluntary context switches:       140329
