Zr                                      
    1.000000000000000     
    13.2837596881779803   -0.0000004843482001   -0.0000004822668540
    -0.0000004929754015   13.2837592386593943   -0.0000000307598980
    -0.0000004692523463   -0.0000000331956116   13.2837594467956048
  Zr            
   128
Direct
  0.3750000111131148  0.8749999932931971  0.8749999775539635
  0.4999999897653366  0.2500000121068904  0.7500000043531880
  0.2500000389527005  0.2500001065896154  0.2499999956302027
  0.6249999349587829  0.3749999940906391  0.1249999765867756
  0.0000000317368119  0.9999999957305041  0.7500000077983260
  0.2500000176848202  0.9999999982247686  0.2500000213037513
  0.1250000621047144  0.3750000307006002  0.1250000189066715
  0.6249999710887471  0.8749999682591274  0.3749999680906282
  0.7499999489286878  0.7499999798042588  0.0000000128609857
  0.5000000188115581  0.9999999811726293  0.9999999778482189
  0.0000000339779735  0.5000000034352559  0.2499999983974983
  0.1250000583950273  0.6249999849953597  0.1249999959837539
  0.6249999366644869  0.1249999971064289  0.3749999523876618
  0.3750000551960887  0.1250000182417433  0.3749999924937159
  0.4999999964081525  0.2500000226504484  0.9999999851131736
  0.4999999965146529  0.7499999569735939  0.9999999823981592
  0.9999999829787207  0.7499999804712131  0.9999999927150890
  0.5000000162833245  0.4999999974679055  0.5000000057721901
  0.3750000099439367  0.3750000422820435  0.1250000270881156
  0.6249999459806961  0.1250000621286663  0.8750000166731658
  0.2500000335002889  0.2500000704743097  0.0000000207378794
  0.1250000816219258  0.8750000044127304  0.6250000109720714
  0.9999999560495518  0.7499999843514817  0.2500000022307364
  0.7499999575374475  0.9999999885507390  0.4999999443605257
  0.7499999583664962  0.9999999976616517  0.7500000394144167
  0.8749999966113096  0.1249999805789152  0.3749999680593137
  0.9999999669504804  0.0000000016187528  0.0000000188594003
  0.2500000552097864  0.9999999801052712  0.9999999472004913
  0.8749999638302614  0.1250000666801034  0.8750000289796895
  0.6249999992898529  0.3750000696873031  0.6250000325688730
  0.4999999800228000  0.2500000319603329  0.2500000121892305
  0.7499999756728790  0.2500000425138330  0.5000000082458386
  0.6249999761948608  0.6249999286546476  0.6249999914185133
  0.1250000089662480  0.6250000407323294  0.6250000363080972
  0.9999999431617370  0.0000000084387559  0.2499999960293268
  0.2500000550996870  0.9999999979489371  0.5000000804677788
  0.8749999599260166  0.6250000177430254  0.3750000042463524
  0.2500000692257852  0.7499999423573562  0.2499999904566532
  0.3750000664145722  0.3750000230630514  0.8750000272410691
  0.2500000857194807  0.7500000190448851  0.7500000052669858
  0.7499999441331052  0.5000000093935426  0.5000000449816189
  0.8750000002894281  0.1250000597661364  0.6250000009558366
  0.8749999409928825  0.3750000070483731  0.8749999606837844
  0.7499999508539361  0.2499999466821918  0.2499999908583104
  0.2500000660580183  0.9999999923147759  0.7499999548767226
  0.1250000132944875  0.8749999698455958  0.3750000099574423
  0.2500000557185579  0.7500000158872641  0.5000000307304241
  0.1250000500747133  0.1249999648920680  0.6250000047928571
  0.0000000325767373  0.2500000014723691  0.2500000036422805
  0.0000000237045434  0.5000000004969427  0.9999999888865609
  0.9999999901826495  0.7499999804019558  0.4999999842683772
  0.3750000274903120  0.6250000054158384  0.8750000197711699
  0.4999999772928695  0.7499999964648985  0.7500000150978398
  0.6249999285455904  0.3750000465078945  0.3750000302561423
  0.6249999469097296  0.8749999959982909  0.1250000313712376
  0.1250000052786196  0.1250000179479140  0.3750000136076780
  0.2500000444841354  0.5000000208088508  0.7500000438001329
  0.2500000759589707  0.4999999889957292  0.0000000358478854
  0.9999999642626669  0.4999999997086923  0.7500000151104499
  0.3750000572197803  0.8749999532116102  0.1249999801013297
  0.7499999859373826  0.0000000032129675  0.2499999960423216
  0.8749999878017068  0.3749999998605793  0.1249999621075528
  0.6249999421232203  0.6250000046664838  0.1250000004124049
  0.3750000424748667  0.6249999828256663  0.3749999658684730
  0.6249999413841391  0.6249999350254517  0.8749999736399322
  0.7499999637366753  0.4999999852677348  0.7499999833544863
  0.7499999562918540  0.0000000119639956  0.0000000198548803
  0.6249999228882800  0.8749999623190233  0.6249999824314780
  0.2500000690070154  0.4999999883272410  0.4999999484204613
  0.0000000225846670  0.0000000197267954  0.4999999820079977
  0.1250000359025948  0.3750000060223928  0.3749999336785574
  0.8749999849097821  0.3750000266935601  0.3750000307225118
  0.2500000674412206  0.2499999646867000  0.7499999909069016
  0.2500000303504490  0.2499999968261668  0.4999999915153183
  0.7499999692717609  0.5000000587151338  0.2500000092868296
  0.3750000166062294  0.6249999691220268  0.1250000047535179
  0.5000000103272881  0.7499999661275509  0.2499999793569831
  0.8749999853859473  0.6250000057418128  0.1250000187529876
  0.3750000406569877  0.8749999735108172  0.3750000155992155
  0.5000000527451871  0.9999999967490145  0.2499999937133927
  0.7499999634565975  0.7499999928549840  0.2499999908398451
  0.5000000348159186  0.5000000238342110  0.7500000167856787
  0.9999999759352136  0.4999999929914864  0.4999999958530089
  0.8749999710003497  0.1250000109619992  0.1250000054254016
  0.0000000115830993  0.7499999765443858  0.7500000136540594
  0.8749999942180171  0.6249999450453775  0.8749999753167502
  0.3750000721479021  0.6250000175655152  0.6250000088752016
  0.7499999692851566  0.2499999796306089  0.9999999718128835
  0.3750000153764818  0.1249999653289627  0.6250000351462799
  0.9999999832760481  0.2500000304049537  0.7499999971766266
  0.6249999549114051  0.1250000006768698  0.1249999932358795
  0.4999999354627386  0.9999999694138005  0.7500000132733518
  0.4999999619104794  0.9999999788794817  0.5000000203804907
  0.8750000043205763  0.8749999582198530  0.6249999769019607
  0.8749999861472949  0.8749999871276420  0.1250000432998331
  0.8749999268747535  0.3750000472570489  0.6250000472892846
  0.7499999259300340  0.7499999501277488  0.7500000171377657
  0.3750000479356028  0.3750000271560145  0.3749999346648431
  0.1249999963576548  0.3750000375033482  0.8750000294867279
  0.8749999745931517  0.8749999728688410  0.3749999650785275
  0.6249999095171901  0.8749999869704109  0.8750000199154286
  0.8750000127223218  0.8749999820954933  0.8750000196278411
  0.6249999379941356  0.1250000392517940  0.6250000354343420
  0.4999999620039366  0.5000000369627959  0.0000000002494934
  0.1249999681380351  0.3749999975590672  0.6250000195103417
  0.7499999364496404  0.5000000300690171  0.9999999662217440
  0.8749999459567125  0.6249999324938073  0.6250000019083267
  0.4999999788546565  0.2500000364290980  0.5000000006907012
  0.1250000323048692  0.6250000064944469  0.3749999625885959
  0.4999999944096560  0.7499999862217436  0.5000000252066876
  0.6249999974891507  0.3750000134284003  0.8749999589624577
  0.2500000691280415  0.7499999566668872  0.9999999735682884
  0.3749999959730877  0.8750000062379791  0.6250000295799188
  0.1250000104780658  0.8749999592498429  0.1249999926301530
  0.2500000519433345  0.4999999529391501  0.2499999697601718
  0.7499999590715669  0.2500000687621807  0.7500000227722612
  0.3750001114432840  0.3750000165365363  0.6250000132428154
  0.1250000631476972  0.8749999632665290  0.8749999788075598
  0.4999999435532949  0.5000000078435379  0.2499999824284816
  0.0000000179142882  0.2500000071533688  0.4999999989695897
  0.6249999611461867  0.6249999859953778  0.3750000330177423
  0.3750000467323651  0.1249999738163958  0.8749999672939981
  0.3750000763767653  0.1250000343020412  0.1250000063281937
  0.7499999583767333  0.7499999615805503  0.4999999772410597
  0.9999999987589672  0.2500000146086109  0.9999999988097686
  0.1250000005464618  0.1250000289889388  0.1250000007405958
  0.1250000417108322  0.1249999973620915  0.8749999748447728
  0.1250000423114437  0.6249999993654325  0.8750000007814730
 
  0.00000000E+00  0.00000000E+00  0.00000000E+00
  0.00000000E+00  0.00000000E+00  0.00000000E+00
  0.00000000E+00  0.00000000E+00  0.00000000E+00
  0.00000000E+00  0.00000000E+00  0.00000000E+00
  0.00000000E+00  0.00000000E+00  0.00000000E+00
  0.00000000E+00  0.00000000E+00  0.00000000E+00
  0.00000000E+00  0.00000000E+00  0.00000000E+00
  0.00000000E+00  0.00000000E+00  0.00000000E+00
  0.00000000E+00  0.00000000E+00  0.00000000E+00
  0.00000000E+00  0.00000000E+00  0.00000000E+00
  0.00000000E+00  0.00000000E+00  0.00000000E+00
  0.00000000E+00  0.00000000E+00  0.00000000E+00
  0.00000000E+00  0.00000000E+00  0.00000000E+00
  0.00000000E+00  0.00000000E+00  0.00000000E+00
  0.00000000E+00  0.00000000E+00  0.00000000E+00
  0.00000000E+00  0.00000000E+00  0.00000000E+00
  0.00000000E+00  0.00000000E+00  0.00000000E+00
  0.00000000E+00  0.00000000E+00  0.00000000E+00
  0.00000000E+00  0.00000000E+00  0.00000000E+00
  0.00000000E+00  0.00000000E+00  0.00000000E+00
  0.00000000E+00  0.00000000E+00  0.00000000E+00
  0.00000000E+00  0.00000000E+00  0.00000000E+00
  0.00000000E+00  0.00000000E+00  0.00000000E+00
  0.00000000E+00  0.00000000E+00  0.00000000E+00
  0.00000000E+00  0.00000000E+00  0.00000000E+00
  0.00000000E+00  0.00000000E+00  0.00000000E+00
  0.00000000E+00  0.00000000E+00  0.00000000E+00
  0.00000000E+00  0.00000000E+00  0.00000000E+00
  0.00000000E+00  0.00000000E+00  0.00000000E+00
  0.00000000E+00  0.00000000E+00  0.00000000E+00
  0.00000000E+00  0.00000000E+00  0.00000000E+00
  0.00000000E+00  0.00000000E+00  0.00000000E+00
  0.00000000E+00  0.00000000E+00  0.00000000E+00
  0.00000000E+00  0.00000000E+00  0.00000000E+00
  0.00000000E+00  0.00000000E+00  0.00000000E+00
  0.00000000E+00  0.00000000E+00  0.00000000E+00
  0.00000000E+00  0.00000000E+00  0.00000000E+00
  0.00000000E+00  0.00000000E+00  0.00000000E+00
  0.00000000E+00  0.00000000E+00  0.00000000E+00
  0.00000000E+00  0.00000000E+00  0.00000000E+00
  0.00000000E+00  0.00000000E+00  0.00000000E+00
  0.00000000E+00  0.00000000E+00  0.00000000E+00
  0.00000000E+00  0.00000000E+00  0.00000000E+00
  0.00000000E+00  0.00000000E+00  0.00000000E+00
  0.00000000E+00  0.00000000E+00  0.00000000E+00
  0.00000000E+00  0.00000000E+00  0.00000000E+00
  0.00000000E+00  0.00000000E+00  0.00000000E+00
  0.00000000E+00  0.00000000E+00  0.00000000E+00
  0.00000000E+00  0.00000000E+00  0.00000000E+00
  0.00000000E+00  0.00000000E+00  0.00000000E+00
  0.00000000E+00  0.00000000E+00  0.00000000E+00
  0.00000000E+00  0.00000000E+00  0.00000000E+00
  0.00000000E+00  0.00000000E+00  0.00000000E+00
  0.00000000E+00  0.00000000E+00  0.00000000E+00
  0.00000000E+00  0.00000000E+00  0.00000000E+00
  0.00000000E+00  0.00000000E+00  0.00000000E+00
  0.00000000E+00  0.00000000E+00  0.00000000E+00
  0.00000000E+00  0.00000000E+00  0.00000000E+00
  0.00000000E+00  0.00000000E+00  0.00000000E+00
  0.00000000E+00  0.00000000E+00  0.00000000E+00
  0.00000000E+00  0.00000000E+00  0.00000000E+00
  0.00000000E+00  0.00000000E+00  0.00000000E+00
  0.00000000E+00  0.00000000E+00  0.00000000E+00
  0.00000000E+00  0.00000000E+00  0.00000000E+00
  0.00000000E+00  0.00000000E+00  0.00000000E+00
  0.00000000E+00  0.00000000E+00  0.00000000E+00
  0.00000000E+00  0.00000000E+00  0.00000000E+00
  0.00000000E+00  0.00000000E+00  0.00000000E+00
  0.00000000E+00  0.00000000E+00  0.00000000E+00
  0.00000000E+00  0.00000000E+00  0.00000000E+00
  0.00000000E+00  0.00000000E+00  0.00000000E+00
  0.00000000E+00  0.00000000E+00  0.00000000E+00
  0.00000000E+00  0.00000000E+00  0.00000000E+00
  0.00000000E+00  0.00000000E+00  0.00000000E+00
  0.00000000E+00  0.00000000E+00  0.00000000E+00
  0.00000000E+00  0.00000000E+00  0.00000000E+00
  0.00000000E+00  0.00000000E+00  0.00000000E+00
  0.00000000E+00  0.00000000E+00  0.00000000E+00
  0.00000000E+00  0.00000000E+00  0.00000000E+00
  0.00000000E+00  0.00000000E+00  0.00000000E+00
  0.00000000E+00  0.00000000E+00  0.00000000E+00
  0.00000000E+00  0.00000000E+00  0.00000000E+00
  0.00000000E+00  0.00000000E+00  0.00000000E+00
  0.00000000E+00  0.00000000E+00  0.00000000E+00
  0.00000000E+00  0.00000000E+00  0.00000000E+00
  0.00000000E+00  0.00000000E+00  0.00000000E+00
  0.00000000E+00  0.00000000E+00  0.00000000E+00
  0.00000000E+00  0.00000000E+00  0.00000000E+00
  0.00000000E+00  0.00000000E+00  0.00000000E+00
  0.00000000E+00  0.00000000E+00  0.00000000E+00
  0.00000000E+00  0.00000000E+00  0.00000000E+00
  0.00000000E+00  0.00000000E+00  0.00000000E+00
  0.00000000E+00  0.00000000E+00  0.00000000E+00
  0.00000000E+00  0.00000000E+00  0.00000000E+00
  0.00000000E+00  0.00000000E+00  0.00000000E+00
  0.00000000E+00  0.00000000E+00  0.00000000E+00
  0.00000000E+00  0.00000000E+00  0.00000000E+00
  0.00000000E+00  0.00000000E+00  0.00000000E+00
  0.00000000E+00  0.00000000E+00  0.00000000E+00
  0.00000000E+00  0.00000000E+00  0.00000000E+00
  0.00000000E+00  0.00000000E+00  0.00000000E+00
  0.00000000E+00  0.00000000E+00  0.00000000E+00
  0.00000000E+00  0.00000000E+00  0.00000000E+00
  0.00000000E+00  0.00000000E+00  0.00000000E+00
  0.00000000E+00  0.00000000E+00  0.00000000E+00
  0.00000000E+00  0.00000000E+00  0.00000000E+00
  0.00000000E+00  0.00000000E+00  0.00000000E+00
  0.00000000E+00  0.00000000E+00  0.00000000E+00
  0.00000000E+00  0.00000000E+00  0.00000000E+00
  0.00000000E+00  0.00000000E+00  0.00000000E+00
  0.00000000E+00  0.00000000E+00  0.00000000E+00
  0.00000000E+00  0.00000000E+00  0.00000000E+00
  0.00000000E+00  0.00000000E+00  0.00000000E+00
  0.00000000E+00  0.00000000E+00  0.00000000E+00
  0.00000000E+00  0.00000000E+00  0.00000000E+00
  0.00000000E+00  0.00000000E+00  0.00000000E+00
  0.00000000E+00  0.00000000E+00  0.00000000E+00
  0.00000000E+00  0.00000000E+00  0.00000000E+00
  0.00000000E+00  0.00000000E+00  0.00000000E+00
  0.00000000E+00  0.00000000E+00  0.00000000E+00
  0.00000000E+00  0.00000000E+00  0.00000000E+00
  0.00000000E+00  0.00000000E+00  0.00000000E+00
  0.00000000E+00  0.00000000E+00  0.00000000E+00
  0.00000000E+00  0.00000000E+00  0.00000000E+00
  0.00000000E+00  0.00000000E+00  0.00000000E+00
  0.00000000E+00  0.00000000E+00  0.00000000E+00
  0.00000000E+00  0.00000000E+00  0.00000000E+00
  0.00000000E+00  0.00000000E+00  0.00000000E+00
