Zr                                      
    1.000000000000000     
    14.2556873464278002   -0.0000005912937662   -0.0000005871721162
    -0.0000006005521907   14.2556867982399620   -0.0000000376898990
    -0.0000005732053811   -0.0000000403038256   14.2556870520620329
  Zr            
   128
Direct
     0.3750000111131158    0.8749999932931942    0.8749999775539621
     0.4999999897653353    0.2500000121068879    0.7500000043531898
     0.2500000389526988    0.2500001065896171    0.2499999956302048
     0.6249999349587796    0.3749999940906363    0.1249999765867784
     0.0000000317368105    0.9999999957305050    0.7500000077983273
     0.2500000176848189    0.9999999982247658    0.2500000213037481
     0.1250000621047178    0.3750000307005976    0.1250000189066682
     0.6249999710887479    0.8749999682591252    0.3749999680906271
     0.7499999489286893    0.7499999798042580    0.0000000128609869
     0.5000000188115550    0.9999999811726283    0.9999999778482191
     0.0000000339779760    0.5000000034352539    0.2499999983974988
     0.1250000583950239    0.6249999849953625    0.1249999959837567
     0.6249999366644872    0.1249999971064284    0.3749999523876610
     0.3750000551960895    0.1250000182417423    0.3749999924937129
     0.4999999964081496    0.2500000226504469    0.9999999851131705
     0.4999999965146529    0.7499999569735962    0.9999999823981582
     0.9999999829787214    0.7499999804712161    0.9999999927150895
     0.5000000162833231    0.4999999974679028    0.5000000057721934
     0.3750000099439390    0.3750000422820463    0.1250000270881131
     0.6249999459806972    0.1250000621286631    0.8750000166731624
     0.2500000335002923    0.2500000704743073    0.0000000207378790
     0.1250000816219270    0.8750000044127333    0.6250000109720730
     0.9999999560495496    0.7499999843514829    0.2500000022307347
     0.7499999575374474    0.9999999885507407    0.4999999443605248
     0.7499999583664945    0.9999999976616536    0.7500000394144166
     0.8749999966113080    0.1249999805789130    0.3749999680593135
     0.9999999669504831    0.0000000016187514    0.0000000188594029
     0.2500000552097887    0.9999999801052724    0.9999999472004930
     0.8749999638302626    0.1250000666801014    0.8750000289796915
     0.6249999992898552    0.3750000696873030    0.6250000325688703
     0.4999999800227997    0.2500000319603330    0.2500000121892327
     0.7499999756728783    0.2500000425138325    0.5000000082458413
     0.6249999761948573    0.6249999286546455    0.6249999914185125
     0.1250000089662464    0.6250000407323313    0.6250000363080943
     0.9999999431617397    0.0000000084387537    0.2499999960293238
     0.2500000550996901    0.9999999979489402    0.5000000804677782
     0.8749999599260150    0.6250000177430266    0.3750000042463526
     0.2500000692257842    0.7499999423573556    0.2499999904566508
     0.3750000664145716    0.3750000230630519    0.8750000272410716
     0.2500000857194777    0.7500000190448830    0.7500000052669833
     0.7499999441331084    0.5000000093935455    0.5000000449816184
     0.8750000002894254    0.1250000597661369    0.6250000009558363
     0.8749999409928790    0.3750000070483708    0.8749999606837875
     0.7499999508539332    0.2499999466821947    0.2499999908583135
     0.2500000660580213    0.9999999923147769    0.7499999548767207
     0.1250000132944891    0.8749999698455966    0.3750000099574393
     0.2500000557185587    0.7500000158872666    0.5000000307304262
     0.1250000500747106    0.1249999648920692    0.6250000047928594
     0.0000000325767360    0.2500000014723724    0.2500000036422776
     0.0000000237045441    0.5000000004969394    0.9999999888865574
     0.9999999901826513    0.7499999804019524    0.4999999842683778
     0.3750000274903087    0.6250000054158420    0.8750000197711714
     0.4999999772928660    0.7499999964649007    0.7500000150978394
     0.6249999285455914    0.3750000465078926    0.3750000302561389
     0.6249999469097318    0.8749999959982944    0.1250000313712363
     0.1250000052786220    0.1250000179479116    0.3750000136076750
     0.2500000444841319    0.5000000208088480    0.7500000438001351
     0.2500000759589724    0.4999999889957323    0.0000000358478829
     0.9999999642626705    0.4999999997086917    0.7500000151104516
     0.3750000572197791    0.8749999532116135    0.1249999801013288
     0.7499999859373858    0.0000000032129677    0.2499999960423196
     0.8749999878017078    0.3749999998605773    0.1249999621075517
     0.6249999421232175    0.6250000046664823    0.1250000004124061
     0.3750000424748663    0.6249999828256634    0.3749999658684757
     0.6249999413841394    0.6249999350254498    0.8749999736399303
     0.7499999637366770    0.4999999852677348    0.7499999833544848
     0.7499999562918518    0.0000000119639978    0.0000000198548804
     0.6249999228882785    0.8749999623190234    0.6249999824314756
     0.2500000690070152    0.4999999883272395    0.4999999484204594
     0.0000000225846648    0.0000000197267980    0.4999999820079992
     0.1250000359025947    0.3750000060223897    0.3749999336785592
     0.8749999849097847    0.3750000266935629    0.3750000307225108
     0.2500000674412206    0.2499999646867010    0.7499999909069004
     0.2500000303504493    0.2499999968261690    0.4999999915153168
     0.7499999692717623    0.5000000587151305    0.2500000092868291
     0.3750000166062293    0.6249999691220296    0.1250000047535167
     0.5000000103272910    0.7499999661275538    0.2499999793569856
     0.8749999853859478    0.6250000057418106    0.1250000187529849
     0.3750000406569853    0.8749999735108176    0.3750000155992126
     0.5000000527451860    0.9999999967490112    0.2499999937133950
     0.7499999634565953    0.7499999928549812    0.2499999908398465
     0.5000000348159190    0.5000000238342110    0.7500000167856768
     0.9999999759352107    0.4999999929914836    0.4999999958530097
     0.8749999710003493    0.1250000109619975    0.1250000054253988
     0.0000000115830971    0.7499999765443874    0.7500000136540592
     0.8749999942180153    0.6249999450453743    0.8749999753167472
     0.3750000721479054    0.6250000175655117    0.6250000088752046
     0.7499999692851560    0.2499999796306085    0.9999999718128834
     0.3750000153764788    0.1249999653289606    0.6250000351462788
     0.9999999832760480    0.2500000304049550    0.7499999971766300
     0.6249999549114023    0.1250000006768701    0.1249999932358818
     0.4999999354627391    0.9999999694137998    0.7500000132733504
     0.4999999619104827    0.9999999788794796    0.5000000203804902
     0.8750000043205759    0.8749999582198527    0.6249999769019610
     0.8749999861472944    0.8749999871276444    0.1250000432998348
     0.8749999268747501    0.3750000472570463    0.6250000472892836
     0.7499999259300338    0.7499999501277514    0.7500000171377650
     0.3750000479356004    0.3750000271560125    0.3749999346648423
     0.1249999963576514    0.3750000375033480    0.8750000294867277
     0.8749999745931518    0.8749999728688422    0.3749999650785298
     0.6249999095171930    0.8749999869704084    0.8750000199154258
     0.8750000127223245    0.8749999820954955    0.8750000196278407
     0.6249999379941329    0.1250000392517947    0.6250000354343399
     0.4999999620039333    0.5000000369627955    0.0000000002494929
     0.1249999681380345    0.3749999975590654    0.6250000195103382
     0.7499999364496404    0.5000000300690175    0.9999999662217434
     0.8749999459567093    0.6249999324938074    0.6250000019083259
     0.4999999788546532    0.2500000364290997    0.5000000006907044
     0.1250000323048681    0.6250000064944459    0.3749999625885962
     0.4999999944096558    0.7499999862217450    0.5000000252066883
     0.6249999974891480    0.3750000134283979    0.8749999589624551
     0.2500000691280420    0.7499999566668905    0.9999999735682863
     0.3749999959730843    0.8750000062379826    0.6250000295799154
     0.1250000104780682    0.8749999592498412    0.1249999926301513
     0.2500000519433314    0.4999999529391488    0.2499999697601751
     0.7499999590715660    0.2500000687621835    0.7500000227722623
     0.3750001114432848    0.3750000165365392    0.6250000132428184
     0.1250000631476951    0.8749999632665322    0.8749999788075584
     0.4999999435532914    0.5000000078435392    0.2499999824284842
     0.0000000179142887    0.2500000071533677    0.4999999989695922
     0.6249999611461874    0.6249999859953803    0.3750000330177414
     0.3750000467323673    0.1249999738163936    0.8749999672939950
     0.3750000763767645    0.1250000343020403    0.1250000063281931
     0.7499999583767334    0.7499999615805493    0.4999999772410604
     0.9999999987589661    0.2500000146086094    0.9999999988097699
     0.1250000005464642    0.1250000289889357    0.1250000007405987
     0.1250000417108339    0.1249999973620888    0.8749999748447692
     0.1250000423114415    0.6249999993654356    0.8750000007814762
 
  0.00000000E+00  0.00000000E+00  0.00000000E+00
  0.00000000E+00  0.00000000E+00  0.00000000E+00
  0.00000000E+00  0.00000000E+00  0.00000000E+00
  0.00000000E+00  0.00000000E+00  0.00000000E+00
  0.00000000E+00  0.00000000E+00  0.00000000E+00
  0.00000000E+00  0.00000000E+00  0.00000000E+00
  0.00000000E+00  0.00000000E+00  0.00000000E+00
  0.00000000E+00  0.00000000E+00  0.00000000E+00
  0.00000000E+00  0.00000000E+00  0.00000000E+00
  0.00000000E+00  0.00000000E+00  0.00000000E+00
  0.00000000E+00  0.00000000E+00  0.00000000E+00
  0.00000000E+00  0.00000000E+00  0.00000000E+00
  0.00000000E+00  0.00000000E+00  0.00000000E+00
  0.00000000E+00  0.00000000E+00  0.00000000E+00
  0.00000000E+00  0.00000000E+00  0.00000000E+00
  0.00000000E+00  0.00000000E+00  0.00000000E+00
  0.00000000E+00  0.00000000E+00  0.00000000E+00
  0.00000000E+00  0.00000000E+00  0.00000000E+00
  0.00000000E+00  0.00000000E+00  0.00000000E+00
  0.00000000E+00  0.00000000E+00  0.00000000E+00
  0.00000000E+00  0.00000000E+00  0.00000000E+00
  0.00000000E+00  0.00000000E+00  0.00000000E+00
  0.00000000E+00  0.00000000E+00  0.00000000E+00
  0.00000000E+00  0.00000000E+00  0.00000000E+00
  0.00000000E+00  0.00000000E+00  0.00000000E+00
  0.00000000E+00  0.00000000E+00  0.00000000E+00
  0.00000000E+00  0.00000000E+00  0.00000000E+00
  0.00000000E+00  0.00000000E+00  0.00000000E+00
  0.00000000E+00  0.00000000E+00  0.00000000E+00
  0.00000000E+00  0.00000000E+00  0.00000000E+00
  0.00000000E+00  0.00000000E+00  0.00000000E+00
  0.00000000E+00  0.00000000E+00  0.00000000E+00
  0.00000000E+00  0.00000000E+00  0.00000000E+00
  0.00000000E+00  0.00000000E+00  0.00000000E+00
  0.00000000E+00  0.00000000E+00  0.00000000E+00
  0.00000000E+00  0.00000000E+00  0.00000000E+00
  0.00000000E+00  0.00000000E+00  0.00000000E+00
  0.00000000E+00  0.00000000E+00  0.00000000E+00
  0.00000000E+00  0.00000000E+00  0.00000000E+00
  0.00000000E+00  0.00000000E+00  0.00000000E+00
  0.00000000E+00  0.00000000E+00  0.00000000E+00
  0.00000000E+00  0.00000000E+00  0.00000000E+00
  0.00000000E+00  0.00000000E+00  0.00000000E+00
  0.00000000E+00  0.00000000E+00  0.00000000E+00
  0.00000000E+00  0.00000000E+00  0.00000000E+00
  0.00000000E+00  0.00000000E+00  0.00000000E+00
  0.00000000E+00  0.00000000E+00  0.00000000E+00
  0.00000000E+00  0.00000000E+00  0.00000000E+00
  0.00000000E+00  0.00000000E+00  0.00000000E+00
  0.00000000E+00  0.00000000E+00  0.00000000E+00
  0.00000000E+00  0.00000000E+00  0.00000000E+00
  0.00000000E+00  0.00000000E+00  0.00000000E+00
  0.00000000E+00  0.00000000E+00  0.00000000E+00
  0.00000000E+00  0.00000000E+00  0.00000000E+00
  0.00000000E+00  0.00000000E+00  0.00000000E+00
  0.00000000E+00  0.00000000E+00  0.00000000E+00
  0.00000000E+00  0.00000000E+00  0.00000000E+00
  0.00000000E+00  0.00000000E+00  0.00000000E+00
  0.00000000E+00  0.00000000E+00  0.00000000E+00
  0.00000000E+00  0.00000000E+00  0.00000000E+00
  0.00000000E+00  0.00000000E+00  0.00000000E+00
  0.00000000E+00  0.00000000E+00  0.00000000E+00
  0.00000000E+00  0.00000000E+00  0.00000000E+00
  0.00000000E+00  0.00000000E+00  0.00000000E+00
  0.00000000E+00  0.00000000E+00  0.00000000E+00
  0.00000000E+00  0.00000000E+00  0.00000000E+00
  0.00000000E+00  0.00000000E+00  0.00000000E+00
  0.00000000E+00  0.00000000E+00  0.00000000E+00
  0.00000000E+00  0.00000000E+00  0.00000000E+00
  0.00000000E+00  0.00000000E+00  0.00000000E+00
  0.00000000E+00  0.00000000E+00  0.00000000E+00
  0.00000000E+00  0.00000000E+00  0.00000000E+00
  0.00000000E+00  0.00000000E+00  0.00000000E+00
  0.00000000E+00  0.00000000E+00  0.00000000E+00
  0.00000000E+00  0.00000000E+00  0.00000000E+00
  0.00000000E+00  0.00000000E+00  0.00000000E+00
  0.00000000E+00  0.00000000E+00  0.00000000E+00
  0.00000000E+00  0.00000000E+00  0.00000000E+00
  0.00000000E+00  0.00000000E+00  0.00000000E+00
  0.00000000E+00  0.00000000E+00  0.00000000E+00
  0.00000000E+00  0.00000000E+00  0.00000000E+00
  0.00000000E+00  0.00000000E+00  0.00000000E+00
  0.00000000E+00  0.00000000E+00  0.00000000E+00
  0.00000000E+00  0.00000000E+00  0.00000000E+00
  0.00000000E+00  0.00000000E+00  0.00000000E+00
  0.00000000E+00  0.00000000E+00  0.00000000E+00
  0.00000000E+00  0.00000000E+00  0.00000000E+00
  0.00000000E+00  0.00000000E+00  0.00000000E+00
  0.00000000E+00  0.00000000E+00  0.00000000E+00
  0.00000000E+00  0.00000000E+00  0.00000000E+00
  0.00000000E+00  0.00000000E+00  0.00000000E+00
  0.00000000E+00  0.00000000E+00  0.00000000E+00
  0.00000000E+00  0.00000000E+00  0.00000000E+00
  0.00000000E+00  0.00000000E+00  0.00000000E+00
  0.00000000E+00  0.00000000E+00  0.00000000E+00
  0.00000000E+00  0.00000000E+00  0.00000000E+00
  0.00000000E+00  0.00000000E+00  0.00000000E+00
  0.00000000E+00  0.00000000E+00  0.00000000E+00
  0.00000000E+00  0.00000000E+00  0.00000000E+00
  0.00000000E+00  0.00000000E+00  0.00000000E+00
  0.00000000E+00  0.00000000E+00  0.00000000E+00
  0.00000000E+00  0.00000000E+00  0.00000000E+00
  0.00000000E+00  0.00000000E+00  0.00000000E+00
  0.00000000E+00  0.00000000E+00  0.00000000E+00
  0.00000000E+00  0.00000000E+00  0.00000000E+00
  0.00000000E+00  0.00000000E+00  0.00000000E+00
  0.00000000E+00  0.00000000E+00  0.00000000E+00
  0.00000000E+00  0.00000000E+00  0.00000000E+00
  0.00000000E+00  0.00000000E+00  0.00000000E+00
  0.00000000E+00  0.00000000E+00  0.00000000E+00
  0.00000000E+00  0.00000000E+00  0.00000000E+00
  0.00000000E+00  0.00000000E+00  0.00000000E+00
  0.00000000E+00  0.00000000E+00  0.00000000E+00
  0.00000000E+00  0.00000000E+00  0.00000000E+00
  0.00000000E+00  0.00000000E+00  0.00000000E+00
  0.00000000E+00  0.00000000E+00  0.00000000E+00
  0.00000000E+00  0.00000000E+00  0.00000000E+00
  0.00000000E+00  0.00000000E+00  0.00000000E+00
  0.00000000E+00  0.00000000E+00  0.00000000E+00
  0.00000000E+00  0.00000000E+00  0.00000000E+00
  0.00000000E+00  0.00000000E+00  0.00000000E+00
  0.00000000E+00  0.00000000E+00  0.00000000E+00
  0.00000000E+00  0.00000000E+00  0.00000000E+00
  0.00000000E+00  0.00000000E+00  0.00000000E+00
  0.00000000E+00  0.00000000E+00  0.00000000E+00
  0.00000000E+00  0.00000000E+00  0.00000000E+00
  0.00000000E+00  0.00000000E+00  0.00000000E+00
  0.00000000E+00  0.00000000E+00  0.00000000E+00
