<?xml version="1.0" encoding="ISO-8859-1"?>
<modeling>
 <generator>
  <i name="program" type="string">vasp </i>
  <i name="version" type="string">6.5.1  </i>
  <i name="subversion" type="string">10Mar25 (build Aug 28 2025 04:51:22) complex                          parallel </i>
  <i name="platform" type="string">LinuxNV </i>
  <i name="date" type="string">2026 05 18 </i>
  <i name="time" type="string">15:12:46 </i>
 </generator>
 <incar>
  <i type="string" name="SYSTEM">bcc_NbZr_Zr128</i>
  <i type="int" name="ISTART">     0</i>
  <i type="string" name="PREC">Normal</i>
  <i type="string" name="ALGO">Normal</i>
  <i type="int" name="ICHARG">     2</i>
  <i type="int" name="NELM">   120</i>
  <i type="int" name="IBRION">     2</i>
  <i name="EDIFF">      0.00000100</i>
  <i type="int" name="NSW">   100</i>
  <i type="int" name="ISIF">     3</i>
  <i type="int" name="ISYM">     2</i>
  <i name="ENCUT">    350.00000000</i>
  <i type="string" name="LREAL">Auto</i>
  <i type="int" name="ISMEAR">     1</i>
  <i name="SIGMA">      0.20000000</i>
  <i type="logical" name="LWAVE"> F  </i>
  <i type="logical" name="LCHARG"> F  </i>
 </incar>
 <primitive_cell>
  <structure name="primitive_cell" >
   <crystal>
    <varray name="basis" >
     <v>       1.66047040       1.66047012      -1.66046993 </v>
     <v>      -1.66047011       1.66046986       1.66046992 </v>
     <v>       1.66046999      -1.66046978       1.66046963 </v>
    </varray>
    <i name="volume">     18.31272961 </i>
    <varray name="rec_basis" >
     <v>       0.30111950       0.30111954       0.00000000 </v>
     <v>      -0.00000000       0.30111956       0.30111960 </v>
     <v>       0.30111955      -0.00000003       0.30111961 </v>
    </varray>
   </crystal>
   <varray name="positions" >
    <v>       0.99999887       0.99999980       0.99999970 </v>
   </varray>
  </structure>
  <varray name="primitive_index" >
   <v type="int" >        1 </v>
  </varray>
 </primitive_cell>
 <kpoints>
  <generation param="Gamma">
   <v type="int" name="divisions">       2        2        2 </v>
   <v name="usershift">      0.00000000       0.00000000       0.00000000 </v>
   <v name="genvec1">      0.50000000       0.00000000       0.00000000 </v>
   <v name="genvec2">      0.00000000       0.50000000      -0.00000000 </v>
   <v name="genvec3">      0.00000000       0.00000000       0.50000000 </v>
   <v name="shift">      0.00000000       0.00000000       0.00000000 </v>
  </generation>
  <varray name="kpointlist" >
   <v>       0.00000000       0.00000000       0.00000000 </v>
   <v>       0.50000000       0.00000000       0.00000000 </v>
   <v>       0.50000000       0.50000000       0.00000000 </v>
   <v>       0.50000000       0.50000000       0.50000000 </v>
  </varray>
  <varray name="weights" >
   <v>       0.12500000 </v>
   <v>       0.37500000 </v>
   <v>       0.37500000 </v>
   <v>       0.12500000 </v>
  </varray>
 </kpoints>
 <parameters>
  <separator name="general" >
   <i type="string" name="SYSTEM">bcc_NbZr_Zr128</i>
   <i type="logical" name="LCOMPAT"> F  </i>
  </separator>
  <separator name="electronic" >
   <i type="string" name="PREC">normal</i>
   <i name="ENMAX">    350.00000000</i>
   <i name="ENAUG">    461.25700000</i>
   <i name="EDIFF">      0.00000100</i>
   <i type="int" name="IALGO">    38</i>
   <i type="int" name="IWAVPR">    11</i>
   <i type="int" name="NBANDS">   924</i>
   <i type="int" name="NBANDSLOW">    -1</i>
   <i type="int" name="NBANDSHIGH">    -1</i>
   <i name="NELECT">   1536.00000000</i>
   <i type="int" name="TURBO">     0</i>
   <i type="int" name="IRESTART">     0</i>
   <i type="int" name="NREBOOT">     0</i>
   <i type="int" name="NMIN">     0</i>
   <i name="EREF">      0.00000000</i>
   <separator name="electronic smearing" >
    <i type="int" name="ISMEAR">     1</i>
    <i name="SIGMA">      0.20000000</i>
    <i name="KSPACING">      0.50000000</i>
    <i type="logical" name="KGAMMA"> T  </i>
    <i type="logical" name="KBLOWUP"> T  </i>
   </separator>
   <separator name="electronic projectors" >
    <i type="logical" name="LREAL"> T  </i>
    <v name="ROPT">     -0.00050000</v>
    <i type="int" name="LMAXPAW">  -100</i>
    <i type="int" name="LMAXMIX">     2</i>
    <i type="logical" name="NLSPLINE"> F  </i>
   </separator>
   <separator name="electronic startup" >
    <i type="int" name="ISTART">     0</i>
    <i type="int" name="ICHARG">     2</i>
    <i type="int" name="INIWAV">     1</i>
   </separator>
   <separator name="electronic spin" >
    <i type="int" name="ISPIN">     1</i>
    <i type="logical" name="LNONCOLLINEAR"> F  </i>
    <v name="MAGMOM">      1.00000000      1.00000000      1.00000000      1.00000000      1.00000000      1.00000000      1.00000000      1.00000000      1.00000000      1.00000000      1.00000000      1.00000000      1.00000000      1.00000000      1.00000000      1.00000000      1.00000000      1.00000000      1.00000000      1.00000000
      1.00000000      1.00000000      1.00000000      1.00000000      1.00000000      1.00000000      1.00000000      1.00000000      1.00000000      1.00000000      1.00000000      1.00000000      1.00000000      1.00000000      1.00000000      1.00000000      1.00000000      1.00000000      1.00000000      1.00000000
      1.00000000      1.00000000      1.00000000      1.00000000      1.00000000      1.00000000      1.00000000      1.00000000      1.00000000      1.00000000      1.00000000      1.00000000      1.00000000      1.00000000      1.00000000      1.00000000      1.00000000      1.00000000      1.00000000      1.00000000
      1.00000000      1.00000000      1.00000000      1.00000000      1.00000000      1.00000000      1.00000000      1.00000000      1.00000000      1.00000000      1.00000000      1.00000000      1.00000000      1.00000000      1.00000000      1.00000000      1.00000000      1.00000000      1.00000000      1.00000000
      1.00000000      1.00000000      1.00000000      1.00000000      1.00000000      1.00000000      1.00000000      1.00000000      1.00000000      1.00000000      1.00000000      1.00000000      1.00000000      1.00000000      1.00000000      1.00000000      1.00000000      1.00000000      1.00000000      1.00000000
      1.00000000      1.00000000      1.00000000      1.00000000      1.00000000      1.00000000      1.00000000      1.00000000      1.00000000      1.00000000      1.00000000      1.00000000      1.00000000      1.00000000      1.00000000      1.00000000      1.00000000      1.00000000      1.00000000      1.00000000
      1.00000000      1.00000000      1.00000000      1.00000000      1.00000000      1.00000000      1.00000000      1.00000000</v>
    <i name="NUPDOWN">     -1.00000000</i>
    <i type="logical" name="LSORBIT"> F  </i>
    <v name="SAXIS">      0.00000000      0.00000000      1.00000000</v>
    <i type="logical" name="LSPIRAL"> F  </i>
    <v name="QSPIRAL">      0.00000000      0.00000000      0.00000000</v>
    <i type="logical" name="LZEROZ"> F  </i>
   </separator>
   <separator name="electronic exchange-correlation" >
    <i type="logical" name="LASPH"> F  </i>
   </separator>
   <separator name="electronic convergence" >
    <i type="int" name="NELM">   120</i>
    <i type="int" name="NELMDL">    -5</i>
    <i type="int" name="NELMIN">     2</i>
    <i name="ENINI">    350.00000000</i>
    <separator name="electronic convergence detail" >
     <i type="logical" name="LDIAG"> T  </i>
     <i type="logical" name="LSUBROT"> F  </i>
     <i type="logical" name="LROBUST"> F  </i>
     <i type="int" name="ISEARCH">     0</i>
     <i name="WEIMIN">      0.00100000</i>
     <i name="EBREAK">      0.00000000</i>
     <i name="DEPER">      0.30000000</i>
     <i type="int" name="NRMM">     4</i>
     <i name="TIME">      0.40000000</i>
    </separator>
   </separator>
   <separator name="electronic mixer" >
    <i name="AMIX">      0.40000000</i>
    <i name="BMIX">      1.00000000</i>
    <i name="AMIN">      0.10000000</i>
    <i name="AMIX_MAG">      1.60000000</i>
    <i name="BMIX_MAG">      1.00000000</i>
    <separator name="electronic mixer details" >
     <i type="int" name="IMIX">     4</i>
     <i type="logical" name="MIXFIRST"> F  </i>
     <i type="int" name="MAXMIX">   -45</i>
     <i name="WC">    100.00000000</i>
     <i type="int" name="INIMIX">     1</i>
     <i type="int" name="MIXPRE">     1</i>
     <i type="int" name="MREMOVE">     5</i>
    </separator>
   </separator>
   <separator name="electronic dipolcorrection" >
    <i type="logical" name="LDIPOL"> F  </i>
    <i type="logical" name="LMONO"> F  </i>
    <i type="int" name="IDIPOL">     0</i>
    <i name="EPSILON">      1.00000000</i>
    <v name="DIPOL">   -100.00000000   -100.00000000   -100.00000000</v>
    <i name="EFIELD">      0.00000000</i>
    <i type="logical" name="LVACPOTAV"> F  </i>
   </separator>
  </separator>
  <separator name="grids" >
   <i type="int" name="NGX">    64</i>
   <i type="int" name="NGY">    64</i>
   <i type="int" name="NGZ">    64</i>
   <i type="int" name="NGXF">   128</i>
   <i type="int" name="NGYF">   128</i>
   <i type="int" name="NGZF">   128</i>
   <i type="logical" name="ADDGRID"> F  </i>
  </separator>
  <separator name="ionic" >
   <i type="int" name="NSW">   100</i>
   <i type="int" name="IBRION">     2</i>
   <i type="int" name="MDALGO">     0</i>
   <i type="int" name="ISIF">     3</i>
   <i name="PSTRESS">      0.00000000</i>
   <i name="EDIFFG">      0.00001000</i>
   <i type="int" name="NFREE">     1</i>
   <i name="POTIM">      0.50000000</i>
   <i name="SMASS">     -3.00000000</i>
   <i name="SCALEE">      1.00000000</i>
  </separator>
  <separator name="ionic md" >
   <i name="TEBEG">      0.00010000</i>
   <i name="TEEND">      0.00010000</i>
   <i type="int" name="NBLOCK">     1</i>
   <i type="int" name="KBLOCK">   100</i>
   <i type="int" name="NPACO">   256</i>
   <i name="APACO">     10.00000000</i>
  </separator>
  <separator name="symmetry" >
   <i type="int" name="ISYM">     2</i>
   <i name="SYMPREC">      0.00001000</i>
  </separator>
  <separator name="dos" >
   <i type="int" name="LORBIT">     0</i>
   <v name="RWIGS">     -1.00000000</v>
   <i type="int" name="NEDOS">   301</i>
   <i name="EMIN">     10.00000000</i>
   <i name="EMAX">    -10.00000000</i>
   <i name="EFERMI">      0.00000000</i>
  </separator>
  <separator name="writing" >
   <i type="int" name="NWRITE">     2</i>
   <i type="logical" name="LWAVE"> F  </i>
   <i type="logical" name="LDOWNSAMPLE"> F  </i>
   <i type="logical" name="LCHARG"> F  </i>
   <i type="logical" name="LPARD"> F  </i>
   <i type="logical" name="LVTOT"> F  </i>
   <i type="logical" name="LVHAR"> F  </i>
   <i type="logical" name="LELF"> F  </i>
   <i type="logical" name="LOPTICS"> F  </i>
   <v name="STM">      0.00000000      0.00000000      0.00000000      0.00000000      0.00000000      0.00000000      0.00000000</v>
  </separator>
  <separator name="performance" >
   <i type="int" name="NPAR">     4</i>
   <i type="int" name="NSIM">     4</i>
   <i type="int" name="NBLK">    -1</i>
   <i type="logical" name="LPLANE"> T  </i>
   <i type="logical" name="LSCALAPACK"> T  </i>
   <i type="logical" name="LSCAAWARE"> F  </i>
   <i type="logical" name="LSCALU"> F  </i>
   <i type="logical" name="LASYNC"> F  </i>
   <i type="logical" name="LORBITALREAL"> F  </i>
  </separator>
  <separator name="miscellaneous" >
   <i type="int" name="IDIOT">     3</i>
   <i type="int" name="PHON_NSTRUCT">    -1</i>
   <i type="logical" name="LMUSIC"> F  </i>
   <v name="POMASS">     91.22400000</v>
   <v name="DARWINR">      0.00000000</v>
   <v name="DARWINV">      1.00000000</v>
   <i type="logical" name="LCORR"> T  </i>
  </separator>
  <i type="logical" name="GGA_COMPAT"> T  </i>
  <i type="logical" name="LBERRY"> F  </i>
  <i type="int" name="ICORELEVEL">     0</i>
  <i type="logical" name="LDAU"> F  </i>
  <i type="int" name="I_CONSTRAINED_M">     0</i>
  <separator name="electronic exchange-correlation" >
   <i type="string" name="GGA    ">PE</i>
   <i type="string" name="XC_C">1</i>
   <i type="int" name="VOSKOWN">     0</i>
   <i type="logical" name="LHFCALC"> F  </i>
   <i type="string" name="PRECFOCK"></i>
   <i type="logical" name="LSYMGRAD"> F  </i>
   <i type="logical" name="LHFONE"> F  </i>
   <i type="logical" name="LRHFCALC"> F  </i>
   <i type="logical" name="LTHOMAS"> F  </i>
   <i type="logical" name="LMODELHF"> F  </i>
   <i type="logical" name="LFOCKACE"> F  </i>
   <i name="ENCUT4O">     -1.00000000</i>
   <i type="int" name="EXXOEP">     0</i>
   <i type="int" name="FOURORBIT">     0</i>
   <i name="AEXX">      0.00000000</i>
   <i name="HFALPHA">      0.00000000</i>
   <i name="MCALPHA">      0.00000000</i>
   <i name="ALDAX">      1.00000000</i>
   <i name="AGGAX">      1.00000000</i>
   <i name="AMGGAX">      1.00000000</i>
   <i name="ALDAC">      1.00000000</i>
   <i name="AGGAC">      1.00000000</i>
   <i name="AMGGAC">      1.00000000</i>
   <i type="int" name="NKREDX">     1</i>
   <i type="int" name="NKREDY">     1</i>
   <i type="int" name="NKREDZ">     1</i>
   <i type="logical" name="SHIFTRED"> F  </i>
   <i type="logical" name="ODDONLY"> F  </i>
   <i type="logical" name="EVENONLY"> F  </i>
   <i type="int" name="LMAXFOCK">     0</i>
   <i type="int" name="NMAXFOCKAE">     0</i>
   <i type="logical" name="LFOCKAEDFT"> F  </i>
   <i name="HFSCREEN">      0.00000000</i>
   <i name="HFSCREENC">      0.00000000</i>
   <i type="int" name="NBANDSGWLOW">     0</i>
  </separator>
  <separator name="vdW DFT" >
   <i type="logical" name="LUSE_VDW"> F  </i>
   <i type="int" name="IVDW_NL">    -1</i>
   <i type="logical" name="LSPIN_VDW"> F  </i>
   <i name="ZAB_VDW">     -0.84910000</i>
   <i name="GAMMA_VDW">      1.39626340</i>
   <i name="ALPHA_VDW">      0.00000000</i>
   <i name="PARAM1">      0.12340000</i>
   <i name="PARAM2">      1.00000000</i>
   <i name="BPARAM">      6.30000000</i>
   <i name="CPARAM">      0.00930000</i>
  </separator>
  <separator name="model GW" >
   <i type="int" name="MODEL_GW">     0</i>
   <i name="MODEL_EPS0">     10.98763665</i>
   <i name="MODEL_ALPHA">      1.00000000</i>
  </separator>
  <separator name="linear response parameters" >
   <i type="logical" name="LEPSILON"> F  </i>
   <i type="logical" name="LRPA"> F  </i>
   <i type="logical" name="LNABLA"> F  </i>
   <i type="logical" name="LVEL"> F  </i>
   <i name="CSHIFT">      0.10000000</i>
   <i name="OMEGAMAX">     -1.00000000</i>
   <i name="DEG_THRESHOLD">      0.00200000</i>
   <i name="RTIME">     -0.10000000</i>
   <i name="WPLASMAI">      0.00000000</i>
   <v name="DFIELD">      0.00000000      0.00000000      0.00000000</v>
   <v name="WPLASMA">      0.00000000      0.00000000      0.00000000      0.00000000      0.00000000      0.00000000      0.00000000      0.00000000      0.00000000</v>
  </separator>
  <separator name="orbital magnetization" >
   <i type="logical" name="NUCIND"> F  </i>
   <v name="MAGPOS">      0.00000000      0.00000000      0.00000000</v>
   <i type="logical" name="LNICSALL"> T  </i>
   <i type="logical" name="ORBITALMAG"> F  </i>
   <i type="logical" name="LMAGBLOCH"> F  </i>
   <i type="logical" name="LCHIMAG"> F  </i>
   <i type="logical" name="LGAUGE"> T  </i>
   <i type="int" name="MAGATOM">     0</i>
   <v name="MAGDIPOL">      0.00000000      0.00000000      0.00000000</v>
   <v name="AVECCONST">      0.00000000      0.00000000      0.00000000</v>
  </separator>
  <separator name="response functions" >
   <i type="logical" name="LALL_IN_ONE"> F  </i>
   <i type="int" name="IALL_IN_ONE">    -1</i>
   <i type="int" name="NBANDS_WAVE">    -1</i>
   <i type="logical" name="LFINITE_TEMPERATURE"> F  </i>
   <i type="logical" name="LADDER"> F  </i>
   <i type="logical" name="LRPAFORCE"> F  </i>
   <i type="logical" name="LFXC"> F  </i>
   <i type="logical" name="LHARTREE"> T  </i>
   <i type="int" name="IBSE">     2</i>
   <v type="int" name="KPOINT">    -1     0     0     0</v>
   <i type="logical" name="LTCTC"> F  </i>
   <i type="logical" name="LTCTE"> F  </i>
   <i type="logical" name="LTETE"> F  </i>
   <i type="logical" name="LTRIPLET"> F  </i>
   <i type="logical" name="LFXCEPS"> F  </i>
   <i type="logical" name="LFXHEG"> F  </i>
   <i type="int" name="NATURALO">     2</i>
   <i type="logical" name="LHOLEGF"> F  </i>
   <i type="logical" name="L2ORDER"> F  </i>
   <i type="logical" name="LDMP1"> F  </i>
   <i type="logical" name="LMP2LT"> F  </i>
   <i type="logical" name="LSMP2LT"> F  </i>
   <i type="logical" name="LGWLF"> F  </i>
   <i name="ENCUTGW">     -1.60000002</i>
   <i name="ENCUTGWSOFT">     -1.60000002</i>
   <i name="ENCUTLF">     -1.00000000</i>
   <i type="logical" name="ESF_SPLINES"> F  </i>
   <i name="ESF_CONV">      0.01000000</i>
   <i type="int" name="ESF_NINTER">    15</i>
   <i type="int" name="LMAXMP2">    -1</i>
   <i name="SCISSOR">      0.00000000</i>
   <i type="int" name="NOMEGA">     0</i>
   <i type="int" name="NOMEGAR">     0</i>
   <i type="int" name="NBANDSGW">    -1</i>
   <i type="int" name="NBANDSO">    -1</i>
   <i type="int" name="NBANDSV">    -1</i>
   <i type="int" name="NELMGW">     1</i>
   <i type="int" name="NELMHF">     1</i>
   <i type="int" name="DIM">     3</i>
   <i type="int" name="IESPILON">     4</i>
   <i type="int" name="ANTIRES">     0</i>
   <i name="OMEGAMAX">    -30.00000000</i>
   <i name="OMEGAMIN">    -30.00000000</i>
   <i name="OMEGATL">   -200.00000000</i>
   <i type="int" name="OMEGAGRID">     0</i>
   <i name="CSHIFT">     -0.10000000</i>
   <i type="logical" name="LSELFENERGY"> F  </i>
   <i type="logical" name="LSPECTRAL"> F  </i>
   <i type="logical" name="LSPECTRALGW"> F  </i>
   <i type="logical" name="LSINGLES"> F  </i>
   <i type="logical" name="LFERMIGW"> F  </i>
   <i type="logical" name="ODDONLYGW"> F  </i>
   <i type="logical" name="EVENONLYGW"> F  </i>
   <i type="int" name="NKREDLFX">     1</i>
   <i type="int" name="NKREDLFY">     1</i>
   <i type="int" name="NKREDLFZ">     1</i>
   <i type="int" name="MAXMEM">  2800</i>
   <i type="int" name="TELESCOPE">     0</i>
   <i type="int" name="NTAUPAR">    -1</i>
   <i type="int" name="NOMEGAPAR">    -1</i>
   <i name="DAMP_NEWTON">      0.80000001</i>
   <i name="LAMBDA">      1.00000000</i>
  </separator>
  <separator name="External order field" >
   <i name="OFIELD_KAPPA">      0.00000000</i>
   <v name="OFIELD_K">      0.00000000      0.00000000      0.00000000</v>
   <i name="OFIELD_Q6_NEAR">      0.00000000</i>
   <i name="OFIELD_Q6_FAR">      0.00000000</i>
   <i name="OFIELD_A">      0.00000000</i>
  </separator>
  <separator name="optional k-points parameters" >
   <i type="int" name="KPOINTS_OPT_MODE">     1</i>
   <i type="logical" name="LKPOINTS_OPT"> F  </i>
  </separator>
 </parameters>
 <atominfo>
  <atoms>     128 </atoms>
  <types>       1 </types>
  <array name="atoms" >
   <dimension dim="1">ion</dimension>
   <field type="string">element</field>
   <field type="int">atomtype</field>
   <set>
    <rc><c>Zr</c><c>   1</c></rc>
    <rc><c>Zr</c><c>   1</c></rc>
    <rc><c>Zr</c><c>   1</c></rc>
    <rc><c>Zr</c><c>   1</c></rc>
    <rc><c>Zr</c><c>   1</c></rc>
    <rc><c>Zr</c><c>   1</c></rc>
    <rc><c>Zr</c><c>   1</c></rc>
    <rc><c>Zr</c><c>   1</c></rc>
    <rc><c>Zr</c><c>   1</c></rc>
    <rc><c>Zr</c><c>   1</c></rc>
    <rc><c>Zr</c><c>   1</c></rc>
    <rc><c>Zr</c><c>   1</c></rc>
    <rc><c>Zr</c><c>   1</c></rc>
    <rc><c>Zr</c><c>   1</c></rc>
    <rc><c>Zr</c><c>   1</c></rc>
    <rc><c>Zr</c><c>   1</c></rc>
    <rc><c>Zr</c><c>   1</c></rc>
    <rc><c>Zr</c><c>   1</c></rc>
    <rc><c>Zr</c><c>   1</c></rc>
    <rc><c>Zr</c><c>   1</c></rc>
    <rc><c>Zr</c><c>   1</c></rc>
    <rc><c>Zr</c><c>   1</c></rc>
    <rc><c>Zr</c><c>   1</c></rc>
    <rc><c>Zr</c><c>   1</c></rc>
    <rc><c>Zr</c><c>   1</c></rc>
    <rc><c>Zr</c><c>   1</c></rc>
    <rc><c>Zr</c><c>   1</c></rc>
    <rc><c>Zr</c><c>   1</c></rc>
    <rc><c>Zr</c><c>   1</c></rc>
    <rc><c>Zr</c><c>   1</c></rc>
    <rc><c>Zr</c><c>   1</c></rc>
    <rc><c>Zr</c><c>   1</c></rc>
    <rc><c>Zr</c><c>   1</c></rc>
    <rc><c>Zr</c><c>   1</c></rc>
    <rc><c>Zr</c><c>   1</c></rc>
    <rc><c>Zr</c><c>   1</c></rc>
    <rc><c>Zr</c><c>   1</c></rc>
    <rc><c>Zr</c><c>   1</c></rc>
    <rc><c>Zr</c><c>   1</c></rc>
    <rc><c>Zr</c><c>   1</c></rc>
    <rc><c>Zr</c><c>   1</c></rc>
    <rc><c>Zr</c><c>   1</c></rc>
    <rc><c>Zr</c><c>   1</c></rc>
    <rc><c>Zr</c><c>   1</c></rc>
    <rc><c>Zr</c><c>   1</c></rc>
    <rc><c>Zr</c><c>   1</c></rc>
    <rc><c>Zr</c><c>   1</c></rc>
    <rc><c>Zr</c><c>   1</c></rc>
    <rc><c>Zr</c><c>   1</c></rc>
    <rc><c>Zr</c><c>   1</c></rc>
    <rc><c>Zr</c><c>   1</c></rc>
    <rc><c>Zr</c><c>   1</c></rc>
    <rc><c>Zr</c><c>   1</c></rc>
    <rc><c>Zr</c><c>   1</c></rc>
    <rc><c>Zr</c><c>   1</c></rc>
    <rc><c>Zr</c><c>   1</c></rc>
    <rc><c>Zr</c><c>   1</c></rc>
    <rc><c>Zr</c><c>   1</c></rc>
    <rc><c>Zr</c><c>   1</c></rc>
    <rc><c>Zr</c><c>   1</c></rc>
    <rc><c>Zr</c><c>   1</c></rc>
    <rc><c>Zr</c><c>   1</c></rc>
    <rc><c>Zr</c><c>   1</c></rc>
    <rc><c>Zr</c><c>   1</c></rc>
    <rc><c>Zr</c><c>   1</c></rc>
    <rc><c>Zr</c><c>   1</c></rc>
    <rc><c>Zr</c><c>   1</c></rc>
    <rc><c>Zr</c><c>   1</c></rc>
    <rc><c>Zr</c><c>   1</c></rc>
    <rc><c>Zr</c><c>   1</c></rc>
    <rc><c>Zr</c><c>   1</c></rc>
    <rc><c>Zr</c><c>   1</c></rc>
    <rc><c>Zr</c><c>   1</c></rc>
    <rc><c>Zr</c><c>   1</c></rc>
    <rc><c>Zr</c><c>   1</c></rc>
    <rc><c>Zr</c><c>   1</c></rc>
    <rc><c>Zr</c><c>   1</c></rc>
    <rc><c>Zr</c><c>   1</c></rc>
    <rc><c>Zr</c><c>   1</c></rc>
    <rc><c>Zr</c><c>   1</c></rc>
    <rc><c>Zr</c><c>   1</c></rc>
    <rc><c>Zr</c><c>   1</c></rc>
    <rc><c>Zr</c><c>   1</c></rc>
    <rc><c>Zr</c><c>   1</c></rc>
    <rc><c>Zr</c><c>   1</c></rc>
    <rc><c>Zr</c><c>   1</c></rc>
    <rc><c>Zr</c><c>   1</c></rc>
    <rc><c>Zr</c><c>   1</c></rc>
    <rc><c>Zr</c><c>   1</c></rc>
    <rc><c>Zr</c><c>   1</c></rc>
    <rc><c>Zr</c><c>   1</c></rc>
    <rc><c>Zr</c><c>   1</c></rc>
    <rc><c>Zr</c><c>   1</c></rc>
    <rc><c>Zr</c><c>   1</c></rc>
    <rc><c>Zr</c><c>   1</c></rc>
    <rc><c>Zr</c><c>   1</c></rc>
    <rc><c>Zr</c><c>   1</c></rc>
    <rc><c>Zr</c><c>   1</c></rc>
    <rc><c>Zr</c><c>   1</c></rc>
    <rc><c>Zr</c><c>   1</c></rc>
    <rc><c>Zr</c><c>   1</c></rc>
    <rc><c>Zr</c><c>   1</c></rc>
    <rc><c>Zr</c><c>   1</c></rc>
    <rc><c>Zr</c><c>   1</c></rc>
    <rc><c>Zr</c><c>   1</c></rc>
    <rc><c>Zr</c><c>   1</c></rc>
    <rc><c>Zr</c><c>   1</c></rc>
    <rc><c>Zr</c><c>   1</c></rc>
    <rc><c>Zr</c><c>   1</c></rc>
    <rc><c>Zr</c><c>   1</c></rc>
    <rc><c>Zr</c><c>   1</c></rc>
    <rc><c>Zr</c><c>   1</c></rc>
    <rc><c>Zr</c><c>   1</c></rc>
    <rc><c>Zr</c><c>   1</c></rc>
    <rc><c>Zr</c><c>   1</c></rc>
    <rc><c>Zr</c><c>   1</c></rc>
    <rc><c>Zr</c><c>   1</c></rc>
    <rc><c>Zr</c><c>   1</c></rc>
    <rc><c>Zr</c><c>   1</c></rc>
    <rc><c>Zr</c><c>   1</c></rc>
    <rc><c>Zr</c><c>   1</c></rc>
    <rc><c>Zr</c><c>   1</c></rc>
    <rc><c>Zr</c><c>   1</c></rc>
    <rc><c>Zr</c><c>   1</c></rc>
    <rc><c>Zr</c><c>   1</c></rc>
    <rc><c>Zr</c><c>   1</c></rc>
    <rc><c>Zr</c><c>   1</c></rc>
    <rc><c>Zr</c><c>   1</c></rc>
   </set>
  </array>
  <array name="atomtypes" >
   <dimension dim="1">type</dimension>
   <field type="int">atomspertype</field>
   <field type="string">element</field>
   <field>mass</field>
   <field>valence</field>
   <field type="string">pseudopotential</field>
   <set>
    <rc><c> 128</c><c>Zr</c><c>     91.22400000</c><c>     12.00000000</c><c>  PAW_PBE Zr_sv 04Jan2005               </c></rc>
   </set>
  </array>
 </atominfo>
 <structure name="initialpos" >
  <crystal>
   <varray name="basis" >
    <v>      13.28375969      -0.00000048      -0.00000048 </v>
    <v>      -0.00000049      13.28375924      -0.00000003 </v>
    <v>      -0.00000047      -0.00000003      13.28375945 </v>
   </varray>
   <i name="volume">   2344.02915106 </i>
   <varray name="rec_basis" >
    <v>       0.07527989       0.00000000       0.00000000 </v>
    <v>       0.00000000       0.07527989       0.00000000 </v>
    <v>       0.00000000       0.00000000       0.07527989 </v>
   </varray>
  </crystal>
  <varray name="positions" >
   <v>       0.37500001       0.87499999       0.87499998 </v>
   <v>       0.49999999       0.25000001       0.75000000 </v>
   <v>       0.25000004       0.25000011       0.25000000 </v>
   <v>       0.62499993       0.37499999       0.12499998 </v>
   <v>       0.00000003       1.00000000       0.75000001 </v>
   <v>       0.25000002       1.00000000       0.25000002 </v>
   <v>       0.12500006       0.37500003       0.12500002 </v>
   <v>       0.62499997       0.87499997       0.37499997 </v>
   <v>       0.74999995       0.74999998       0.00000001 </v>
   <v>       0.50000002       0.99999998       0.99999998 </v>
   <v>       0.00000003       0.50000000       0.25000000 </v>
   <v>       0.12500006       0.62499998       0.12500000 </v>
   <v>       0.62499994       0.12500000       0.37499995 </v>
   <v>       0.37500006       0.12500002       0.37499999 </v>
   <v>       0.50000000       0.25000002       0.99999999 </v>
   <v>       0.50000000       0.74999996       0.99999998 </v>
   <v>       0.99999998       0.74999998       0.99999999 </v>
   <v>       0.50000002       0.50000000       0.50000001 </v>
   <v>       0.37500001       0.37500004       0.12500003 </v>
   <v>       0.62499995       0.12500006       0.87500002 </v>
   <v>       0.25000003       0.25000007       0.00000002 </v>
   <v>       0.12500008       0.87500000       0.62500001 </v>
   <v>       0.99999996       0.74999998       0.25000000 </v>
   <v>       0.74999996       0.99999999       0.49999994 </v>
   <v>       0.74999996       1.00000000       0.75000004 </v>
   <v>       0.87500000       0.12499998       0.37499997 </v>
   <v>       0.99999997       0.00000000       0.00000002 </v>
   <v>       0.25000006       0.99999998       0.99999995 </v>
   <v>       0.87499996       0.12500007       0.87500003 </v>
   <v>       0.62500000       0.37500007       0.62500003 </v>
   <v>       0.49999998       0.25000003       0.25000001 </v>
   <v>       0.74999998       0.25000004       0.50000001 </v>
   <v>       0.62499998       0.62499993       0.62499999 </v>
   <v>       0.12500001       0.62500004       0.62500004 </v>
   <v>       0.99999994       0.00000001       0.25000000 </v>
   <v>       0.25000006       1.00000000       0.50000008 </v>
   <v>       0.87499996       0.62500002       0.37500000 </v>
   <v>       0.25000007       0.74999994       0.24999999 </v>
   <v>       0.37500007       0.37500002       0.87500003 </v>
   <v>       0.25000009       0.75000002       0.75000001 </v>
   <v>       0.74999994       0.50000001       0.50000004 </v>
   <v>       0.87500000       0.12500006       0.62500000 </v>
   <v>       0.87499994       0.37500001       0.87499996 </v>
   <v>       0.74999995       0.24999995       0.24999999 </v>
   <v>       0.25000007       0.99999999       0.74999995 </v>
   <v>       0.12500001       0.87499997       0.37500001 </v>
   <v>       0.25000006       0.75000002       0.50000003 </v>
   <v>       0.12500005       0.12499996       0.62500000 </v>
   <v>       0.00000003       0.25000000       0.25000000 </v>
   <v>       0.00000002       0.50000000       0.99999999 </v>
   <v>       0.99999999       0.74999998       0.49999998 </v>
   <v>       0.37500003       0.62500001       0.87500002 </v>
   <v>       0.49999998       0.75000000       0.75000002 </v>
   <v>       0.62499993       0.37500005       0.37500003 </v>
   <v>       0.62499995       0.87500000       0.12500003 </v>
   <v>       0.12500001       0.12500002       0.37500001 </v>
   <v>       0.25000004       0.50000002       0.75000004 </v>
   <v>       0.25000008       0.49999999       0.00000004 </v>
   <v>       0.99999996       0.50000000       0.75000002 </v>
   <v>       0.37500006       0.87499995       0.12499998 </v>
   <v>       0.74999999       0.00000000       0.25000000 </v>
   <v>       0.87499999       0.37500000       0.12499996 </v>
   <v>       0.62499994       0.62500000       0.12500000 </v>
   <v>       0.37500004       0.62499998       0.37499997 </v>
   <v>       0.62499994       0.62499994       0.87499997 </v>
   <v>       0.74999996       0.49999999       0.74999998 </v>
   <v>       0.74999996       0.00000001       0.00000002 </v>
   <v>       0.62499992       0.87499996       0.62499998 </v>
   <v>       0.25000007       0.49999999       0.49999995 </v>
   <v>       0.00000002       0.00000002       0.49999998 </v>
   <v>       0.12500004       0.37500001       0.37499993 </v>
   <v>       0.87499998       0.37500003       0.37500003 </v>
   <v>       0.25000007       0.24999996       0.74999999 </v>
   <v>       0.25000003       0.25000000       0.49999999 </v>
   <v>       0.74999997       0.50000006       0.25000001 </v>
   <v>       0.37500002       0.62499997       0.12500000 </v>
   <v>       0.50000001       0.74999997       0.24999998 </v>
   <v>       0.87499999       0.62500001       0.12500002 </v>
   <v>       0.37500004       0.87499997       0.37500002 </v>
   <v>       0.50000005       1.00000000       0.24999999 </v>
   <v>       0.74999996       0.74999999       0.24999999 </v>
   <v>       0.50000003       0.50000002       0.75000002 </v>
   <v>       0.99999998       0.49999999       0.50000000 </v>
   <v>       0.87499997       0.12500001       0.12500001 </v>
   <v>       0.00000001       0.74999998       0.75000001 </v>
   <v>       0.87499999       0.62499995       0.87499998 </v>
   <v>       0.37500007       0.62500002       0.62500001 </v>
   <v>       0.74999997       0.24999998       0.99999997 </v>
   <v>       0.37500002       0.12499997       0.62500004 </v>
   <v>       0.99999998       0.25000003       0.75000000 </v>
   <v>       0.62499995       0.12500000       0.12499999 </v>
   <v>       0.49999994       0.99999997       0.75000001 </v>
   <v>       0.49999996       0.99999998       0.50000002 </v>
   <v>       0.87500000       0.87499996       0.62499998 </v>
   <v>       0.87499999       0.87499999       0.12500004 </v>
   <v>       0.87499993       0.37500005       0.62500005 </v>
   <v>       0.74999993       0.74999995       0.75000002 </v>
   <v>       0.37500005       0.37500003       0.37499993 </v>
   <v>       0.12500000       0.37500004       0.87500003 </v>
   <v>       0.87499997       0.87499997       0.37499997 </v>
   <v>       0.62499991       0.87499999       0.87500002 </v>
   <v>       0.87500001       0.87499998       0.87500002 </v>
   <v>       0.62499994       0.12500004       0.62500004 </v>
   <v>       0.49999996       0.50000004       0.00000000 </v>
   <v>       0.12499997       0.37500000       0.62500002 </v>
   <v>       0.74999994       0.50000003       0.99999997 </v>
   <v>       0.87499995       0.62499993       0.62500000 </v>
   <v>       0.49999998       0.25000004       0.50000000 </v>
   <v>       0.12500003       0.62500001       0.37499996 </v>
   <v>       0.49999999       0.74999999       0.50000003 </v>
   <v>       0.62500000       0.37500001       0.87499996 </v>
   <v>       0.25000007       0.74999996       0.99999997 </v>
   <v>       0.37500000       0.87500001       0.62500003 </v>
   <v>       0.12500001       0.87499996       0.12499999 </v>
   <v>       0.25000005       0.49999995       0.24999997 </v>
   <v>       0.74999996       0.25000007       0.75000002 </v>
   <v>       0.37500011       0.37500002       0.62500001 </v>
   <v>       0.12500006       0.87499996       0.87499998 </v>
   <v>       0.49999994       0.50000001       0.24999998 </v>
   <v>       0.00000002       0.25000001       0.50000000 </v>
   <v>       0.62499996       0.62499999       0.37500003 </v>
   <v>       0.37500005       0.12499997       0.87499997 </v>
   <v>       0.37500008       0.12500003       0.12500001 </v>
   <v>       0.74999996       0.74999996       0.49999998 </v>
   <v>       1.00000000       0.25000001       1.00000000 </v>
   <v>       0.12500000       0.12500003       0.12500000 </v>
   <v>       0.12500004       0.12500000       0.87499997 </v>
   <v>       0.12500004       0.62500000       0.87500000 </v>
  </varray>
 </structure>
 <calculation>
  <scstep>
   <time name="dav">    3.82    5.09</time>
   <time name="total">    4.03    5.17</time>
   <energy>
    <i name="alphaZ">   9286.93262904 </i>
    <i name="ewald">-145427.83903277 </i>
    <i name="hartreedc"> -24407.99778826 </i>
    <i name="XCdc">   6511.82444580 </i>
    <i name="pawpsdc"> 128519.36237625 </i>
    <i name="pawaedc">-126091.47310150 </i>
    <i name="eentropy">     -0.01312928 </i>
    <i name="bandstr">   2430.04868019 </i>
    <i name="atom"> 164377.91643804 </i>
    <i name="e_fr_energy">  15198.76151750 </i>
    <i name="e_wo_entrp">  15198.77464678 </i>
    <i name="e_0_energy">  15198.76589392 </i>
   </energy>
  </scstep>
  <scstep>
   <time name="dav">    3.10    3.09</time>
   <time name="total">    3.11    3.09</time>
   <energy>
    <i name="e_fr_energy">    628.31299719 </i>
    <i name="e_wo_entrp">    628.30524130 </i>
    <i name="e_0_energy">    628.31041190 </i>
   </energy>
  </scstep>
  <scstep>
   <time name="dav">    4.32    4.29</time>
   <time name="total">    4.32    4.29</time>
   <energy>
    <i name="e_fr_energy">   -844.57012484 </i>
    <i name="e_wo_entrp">   -844.63817381 </i>
    <i name="e_0_energy">   -844.59280783 </i>
   </energy>
  </scstep>
  <scstep>
   <time name="dav">    4.08    4.07</time>
   <time name="total">    4.08    4.07</time>
   <energy>
    <i name="e_fr_energy">  -1048.08621798 </i>
    <i name="e_wo_entrp">  -1048.35618024 </i>
    <i name="e_0_energy">  -1048.17620540 </i>
   </energy>
  </scstep>
  <scstep>
   <time name="dav">    3.84    3.81</time>
   <time name="total">    4.37    4.13</time>
   <energy>
    <i name="e_fr_energy">  -1061.53079488 </i>
    <i name="e_wo_entrp">  -1061.79264616 </i>
    <i name="e_0_energy">  -1061.61807864 </i>
   </energy>
  </scstep>
  <scstep>
   <time name="dav">    3.47    3.41</time>
   <time name="total">    4.11    3.75</time>
   <energy>
    <i name="e_fr_energy">  -1039.05172995 </i>
    <i name="e_wo_entrp">  -1039.37513927 </i>
    <i name="e_0_energy">  -1039.15953305 </i>
   </energy>
  </scstep>
  <scstep>
   <time name="dav">    3.58    3.53</time>
   <time name="total">    4.22    3.86</time>
   <energy>
    <i name="e_fr_energy">  -1036.29736855 </i>
    <i name="e_wo_entrp">  -1036.61594746 </i>
    <i name="e_0_energy">  -1036.40356152 </i>
   </energy>
  </scstep>
  <scstep>
   <time name="dav">    3.68    3.62</time>
   <time name="total">    4.32    3.95</time>
   <energy>
    <i name="e_fr_energy">  -1036.91849552 </i>
    <i name="e_wo_entrp">  -1037.21901279 </i>
    <i name="e_0_energy">  -1037.01866794 </i>
   </energy>
  </scstep>
  <scstep>
   <time name="dav">    3.49    3.43</time>
   <time name="total">    4.14    3.76</time>
   <energy>
    <i name="e_fr_energy">  -1036.90204027 </i>
    <i name="e_wo_entrp">  -1037.20547588 </i>
    <i name="e_0_energy">  -1037.00318547 </i>
   </energy>
  </scstep>
  <scstep>
   <time name="dav">    3.84    3.79</time>
   <time name="total">    4.50    4.12</time>
   <energy>
    <i name="e_fr_energy">  -1036.89723878 </i>
    <i name="e_wo_entrp">  -1037.20165083 </i>
    <i name="e_0_energy">  -1036.99870947 </i>
   </energy>
  </scstep>
  <scstep>
   <time name="dav">    3.53    3.47</time>
   <time name="total">    4.19    3.81</time>
   <energy>
    <i name="e_fr_energy">  -1036.89719345 </i>
    <i name="e_wo_entrp">  -1037.20151046 </i>
    <i name="e_0_energy">  -1036.99863245 </i>
   </energy>
  </scstep>
  <scstep>
   <time name="dav">    3.48    3.42</time>
   <time name="total">    4.13    3.75</time>
   <energy>
    <i name="e_fr_energy">  -1036.89717732 </i>
    <i name="e_wo_entrp">  -1037.20157917 </i>
    <i name="e_0_energy">  -1036.99864460 </i>
   </energy>
  </scstep>
  <scstep>
   <time name="dav">    3.25    3.20</time>
   <time name="total">    3.92    3.53</time>
   <energy>
    <i name="e_fr_energy">  -1036.89715904 </i>
    <i name="e_wo_entrp">  -1037.20156957 </i>
    <i name="e_0_energy">  -1036.99862922 </i>
   </energy>
  </scstep>
  <scstep>
   <time name="dav">    2.12    2.07</time>
   <time name="total">    2.78    2.40</time>
   <energy>
    <i name="e_fr_energy">  -1036.89715718 </i>
    <i name="e_wo_entrp">  -1037.20156593 </i>
    <i name="e_0_energy">  -1036.99862677 </i>
   </energy>
  </scstep>
  <scstep>
   <time name="dav">    2.10    2.06</time>
   <time name="total">    2.24    2.08</time>
   <energy>
    <i name="alphaZ">   9286.93262904 </i>
    <i name="ewald">-145427.83903277 </i>
    <i name="hartreedc"> -23268.96214388 </i>
    <i name="XCdc">   6442.66672980 </i>
    <i name="pawpsdc"> 256974.14171557 </i>
    <i name="pawaedc">-254186.69503811 </i>
    <i name="eentropy">      0.30440686 </i>
    <i name="bandstr"> -15235.36286262 </i>
    <i name="atom"> 164377.91643804 </i>
    <i name="e_fr_energy">  -1036.89715808 </i>
    <i name="e_wo_entrp">  -1037.20156494 </i>
    <i name="e_0_energy">  -1036.99862704 </i>
   </energy>
  </scstep>
  <structure>
   <crystal>
    <varray name="basis" >
     <v>      13.28375969      -0.00000048      -0.00000048 </v>
     <v>      -0.00000049      13.28375924      -0.00000003 </v>
     <v>      -0.00000047      -0.00000003      13.28375945 </v>
    </varray>
    <i name="volume">   2344.02915106 </i>
    <varray name="rec_basis" >
     <v>       0.07527989       0.00000000       0.00000000 </v>
     <v>       0.00000000       0.07527989       0.00000000 </v>
     <v>       0.00000000       0.00000000       0.07527989 </v>
    </varray>
   </crystal>
   <varray name="positions" >
    <v>       0.37500001       0.87499999       0.87499998 </v>
    <v>       0.49999999       0.25000001       0.75000000 </v>
    <v>       0.25000004       0.25000011       0.25000000 </v>
    <v>       0.62499993       0.37499999       0.12499998 </v>
    <v>       0.00000003       1.00000000       0.75000001 </v>
    <v>       0.25000002       1.00000000       0.25000002 </v>
    <v>       0.12500006       0.37500003       0.12500002 </v>
    <v>       0.62499997       0.87499997       0.37499997 </v>
    <v>       0.74999995       0.74999998       0.00000001 </v>
    <v>       0.50000002       0.99999998       0.99999998 </v>
    <v>       0.00000003       0.50000000       0.25000000 </v>
    <v>       0.12500006       0.62499998       0.12500000 </v>
    <v>       0.62499994       0.12500000       0.37499995 </v>
    <v>       0.37500006       0.12500002       0.37499999 </v>
    <v>       0.50000000       0.25000002       0.99999999 </v>
    <v>       0.50000000       0.74999996       0.99999998 </v>
    <v>       0.99999998       0.74999998       0.99999999 </v>
    <v>       0.50000002       0.50000000       0.50000001 </v>
    <v>       0.37500001       0.37500004       0.12500003 </v>
    <v>       0.62499995       0.12500006       0.87500002 </v>
    <v>       0.25000003       0.25000007       0.00000002 </v>
    <v>       0.12500008       0.87500000       0.62500001 </v>
    <v>       0.99999996       0.74999998       0.25000000 </v>
    <v>       0.74999996       0.99999999       0.49999994 </v>
    <v>       0.74999996       1.00000000       0.75000004 </v>
    <v>       0.87500000       0.12499998       0.37499997 </v>
    <v>       0.99999997       0.00000000       0.00000002 </v>
    <v>       0.25000006       0.99999998       0.99999995 </v>
    <v>       0.87499996       0.12500007       0.87500003 </v>
    <v>       0.62500000       0.37500007       0.62500003 </v>
    <v>       0.49999998       0.25000003       0.25000001 </v>
    <v>       0.74999998       0.25000004       0.50000001 </v>
    <v>       0.62499998       0.62499993       0.62499999 </v>
    <v>       0.12500001       0.62500004       0.62500004 </v>
    <v>       0.99999994       0.00000001       0.25000000 </v>
    <v>       0.25000006       1.00000000       0.50000008 </v>
    <v>       0.87499996       0.62500002       0.37500000 </v>
    <v>       0.25000007       0.74999994       0.24999999 </v>
    <v>       0.37500007       0.37500002       0.87500003 </v>
    <v>       0.25000009       0.75000002       0.75000001 </v>
    <v>       0.74999994       0.50000001       0.50000004 </v>
    <v>       0.87500000       0.12500006       0.62500000 </v>
    <v>       0.87499994       0.37500001       0.87499996 </v>
    <v>       0.74999995       0.24999995       0.24999999 </v>
    <v>       0.25000007       0.99999999       0.74999995 </v>
    <v>       0.12500001       0.87499997       0.37500001 </v>
    <v>       0.25000006       0.75000002       0.50000003 </v>
    <v>       0.12500005       0.12499996       0.62500000 </v>
    <v>       0.00000003       0.25000000       0.25000000 </v>
    <v>       0.00000002       0.50000000       0.99999999 </v>
    <v>       0.99999999       0.74999998       0.49999998 </v>
    <v>       0.37500003       0.62500001       0.87500002 </v>
    <v>       0.49999998       0.75000000       0.75000002 </v>
    <v>       0.62499993       0.37500005       0.37500003 </v>
    <v>       0.62499995       0.87500000       0.12500003 </v>
    <v>       0.12500001       0.12500002       0.37500001 </v>
    <v>       0.25000004       0.50000002       0.75000004 </v>
    <v>       0.25000008       0.49999999       0.00000004 </v>
    <v>       0.99999996       0.50000000       0.75000002 </v>
    <v>       0.37500006       0.87499995       0.12499998 </v>
    <v>       0.74999999       0.00000000       0.25000000 </v>
    <v>       0.87499999       0.37500000       0.12499996 </v>
    <v>       0.62499994       0.62500000       0.12500000 </v>
    <v>       0.37500004       0.62499998       0.37499997 </v>
    <v>       0.62499994       0.62499994       0.87499997 </v>
    <v>       0.74999996       0.49999999       0.74999998 </v>
    <v>       0.74999996       0.00000001       0.00000002 </v>
    <v>       0.62499992       0.87499996       0.62499998 </v>
    <v>       0.25000007       0.49999999       0.49999995 </v>
    <v>       0.00000002       0.00000002       0.49999998 </v>
    <v>       0.12500004       0.37500001       0.37499993 </v>
    <v>       0.87499998       0.37500003       0.37500003 </v>
    <v>       0.25000007       0.24999996       0.74999999 </v>
    <v>       0.25000003       0.25000000       0.49999999 </v>
    <v>       0.74999997       0.50000006       0.25000001 </v>
    <v>       0.37500002       0.62499997       0.12500000 </v>
    <v>       0.50000001       0.74999997       0.24999998 </v>
    <v>       0.87499999       0.62500001       0.12500002 </v>
    <v>       0.37500004       0.87499997       0.37500002 </v>
    <v>       0.50000005       1.00000000       0.24999999 </v>
    <v>       0.74999996       0.74999999       0.24999999 </v>
    <v>       0.50000003       0.50000002       0.75000002 </v>
    <v>       0.99999998       0.49999999       0.50000000 </v>
    <v>       0.87499997       0.12500001       0.12500001 </v>
    <v>       0.00000001       0.74999998       0.75000001 </v>
    <v>       0.87499999       0.62499995       0.87499998 </v>
    <v>       0.37500007       0.62500002       0.62500001 </v>
    <v>       0.74999997       0.24999998       0.99999997 </v>
    <v>       0.37500002       0.12499997       0.62500004 </v>
    <v>       0.99999998       0.25000003       0.75000000 </v>
    <v>       0.62499995       0.12500000       0.12499999 </v>
    <v>       0.49999994       0.99999997       0.75000001 </v>
    <v>       0.49999996       0.99999998       0.50000002 </v>
    <v>       0.87500000       0.87499996       0.62499998 </v>
    <v>       0.87499999       0.87499999       0.12500004 </v>
    <v>       0.87499993       0.37500005       0.62500005 </v>
    <v>       0.74999993       0.74999995       0.75000002 </v>
    <v>       0.37500005       0.37500003       0.37499993 </v>
    <v>       0.12500000       0.37500004       0.87500003 </v>
    <v>       0.87499997       0.87499997       0.37499997 </v>
    <v>       0.62499991       0.87499999       0.87500002 </v>
    <v>       0.87500001       0.87499998       0.87500002 </v>
    <v>       0.62499994       0.12500004       0.62500004 </v>
    <v>       0.49999996       0.50000004       0.00000000 </v>
    <v>       0.12499997       0.37500000       0.62500002 </v>
    <v>       0.74999994       0.50000003       0.99999997 </v>
    <v>       0.87499995       0.62499993       0.62500000 </v>
    <v>       0.49999998       0.25000004       0.50000000 </v>
    <v>       0.12500003       0.62500001       0.37499996 </v>
    <v>       0.49999999       0.74999999       0.50000003 </v>
    <v>       0.62500000       0.37500001       0.87499996 </v>
    <v>       0.25000007       0.74999996       0.99999997 </v>
    <v>       0.37500000       0.87500001       0.62500003 </v>
    <v>       0.12500001       0.87499996       0.12499999 </v>
    <v>       0.25000005       0.49999995       0.24999997 </v>
    <v>       0.74999996       0.25000007       0.75000002 </v>
    <v>       0.37500011       0.37500002       0.62500001 </v>
    <v>       0.12500006       0.87499996       0.87499998 </v>
    <v>       0.49999994       0.50000001       0.24999998 </v>
    <v>       0.00000002       0.25000001       0.50000000 </v>
    <v>       0.62499996       0.62499999       0.37500003 </v>
    <v>       0.37500005       0.12499997       0.87499997 </v>
    <v>       0.37500008       0.12500003       0.12500001 </v>
    <v>       0.74999996       0.74999996       0.49999998 </v>
    <v>       1.00000000       0.25000001       1.00000000 </v>
    <v>       0.12500000       0.12500003       0.12500000 </v>
    <v>       0.12500004       0.12500000       0.87499997 </v>
    <v>       0.12500004       0.62500000       0.87500000 </v>
   </varray>
  </structure>
  <varray name="forces" >
   <v>      -0.00000000      -0.00000000       0.00000000 </v>
   <v>       0.00000000       0.00000000      -0.00000000 </v>
   <v>      -0.00000000      -0.00000000      -0.00000000 </v>
   <v>       0.00000000       0.00000000       0.00000000 </v>
   <v>      -0.00000000       0.00000000       0.00000000 </v>
   <v>      -0.00000000       0.00000000       0.00000000 </v>
   <v>       0.00000000       0.00000000       0.00000000 </v>
   <v>       0.00000000      -0.00000000       0.00000000 </v>
   <v>      -0.00000000       0.00000000       0.00000000 </v>
   <v>       0.00000000       0.00000000      -0.00000000 </v>
   <v>      -0.00000000       0.00000000      -0.00000000 </v>
   <v>       0.00000000      -0.00000000      -0.00000000 </v>
   <v>      -0.00000000       0.00000000       0.00000000 </v>
   <v>       0.00000000      -0.00000000       0.00000000 </v>
   <v>      -0.00000000       0.00000000      -0.00000000 </v>
   <v>       0.00000000      -0.00000000       0.00000000 </v>
   <v>      -0.00000000       0.00000000      -0.00000000 </v>
   <v>       0.00000000      -0.00000000      -0.00000000 </v>
   <v>       0.00000000       0.00000000      -0.00000000 </v>
   <v>       0.00000000      -0.00000000      -0.00000000 </v>
   <v>      -0.00000000      -0.00000000      -0.00000000 </v>
   <v>      -0.00000000       0.00000000      -0.00000000 </v>
   <v>       0.00000000      -0.00000000      -0.00000000 </v>
   <v>      -0.00000000      -0.00000000       0.00000000 </v>
   <v>      -0.00000000      -0.00000000       0.00000000 </v>
   <v>      -0.00000000       0.00000000      -0.00000000 </v>
   <v>       0.00000000      -0.00000000       0.00000000 </v>
   <v>      -0.00000000       0.00000000      -0.00000000 </v>
   <v>       0.00000000      -0.00000000       0.00000000 </v>
   <v>      -0.00000000      -0.00000000       0.00000000 </v>
   <v>      -0.00000000       0.00000000      -0.00000000 </v>
   <v>      -0.00000000      -0.00000000       0.00000000 </v>
   <v>       0.00000000       0.00000000       0.00000000 </v>
   <v>       0.00000000      -0.00000000      -0.00000000 </v>
   <v>      -0.00000000      -0.00000000       0.00000000 </v>
   <v>      -0.00000000       0.00000000      -0.00000000 </v>
   <v>      -0.00000000      -0.00000000       0.00000000 </v>
   <v>      -0.00000000      -0.00000000      -0.00000000 </v>
   <v>      -0.00000000      -0.00000000      -0.00000000 </v>
   <v>       0.00000000       0.00000000      -0.00000000 </v>
   <v>      -0.00000000       0.00000000       0.00000000 </v>
   <v>      -0.00000000       0.00000000       0.00000000 </v>
   <v>       0.00000000       0.00000000      -0.00000000 </v>
   <v>      -0.00000000      -0.00000000       0.00000000 </v>
   <v>      -0.00000000      -0.00000000      -0.00000000 </v>
   <v>       0.00000000      -0.00000000      -0.00000000 </v>
   <v>       0.00000000      -0.00000000      -0.00000000 </v>
   <v>       0.00000000       0.00000000      -0.00000000 </v>
   <v>      -0.00000000       0.00000000      -0.00000000 </v>
   <v>      -0.00000000       0.00000000       0.00000000 </v>
   <v>       0.00000000      -0.00000000       0.00000000 </v>
   <v>       0.00000000      -0.00000000       0.00000000 </v>
   <v>       0.00000000      -0.00000000       0.00000000 </v>
   <v>       0.00000000      -0.00000000      -0.00000000 </v>
   <v>       0.00000000       0.00000000       0.00000000 </v>
   <v>      -0.00000000       0.00000000      -0.00000000 </v>
   <v>       0.00000000      -0.00000000      -0.00000000 </v>
   <v>       0.00000000      -0.00000000      -0.00000000 </v>
   <v>      -0.00000000       0.00000000       0.00000000 </v>
   <v>      -0.00000000      -0.00000000      -0.00000000 </v>
   <v>       0.00000000      -0.00000000       0.00000000 </v>
   <v>      -0.00000000      -0.00000000      -0.00000000 </v>
   <v>      -0.00000000       0.00000000       0.00000000 </v>
   <v>      -0.00000000      -0.00000000      -0.00000000 </v>
   <v>       0.00000000       0.00000000       0.00000000 </v>
   <v>      -0.00000000      -0.00000000       0.00000000 </v>
   <v>      -0.00000000      -0.00000000      -0.00000000 </v>
   <v>       0.00000000      -0.00000000       0.00000000 </v>
   <v>       0.00000000      -0.00000000       0.00000000 </v>
   <v>      -0.00000000       0.00000000      -0.00000000 </v>
   <v>      -0.00000000      -0.00000000       0.00000000 </v>
   <v>      -0.00000000      -0.00000000      -0.00000000 </v>
   <v>       0.00000000      -0.00000000      -0.00000000 </v>
   <v>       0.00000000      -0.00000000      -0.00000000 </v>
   <v>      -0.00000000      -0.00000000      -0.00000000 </v>
   <v>       0.00000000       0.00000000      -0.00000000 </v>
   <v>      -0.00000000      -0.00000000       0.00000000 </v>
   <v>      -0.00000000      -0.00000000       0.00000000 </v>
   <v>      -0.00000000      -0.00000000       0.00000000 </v>
   <v>      -0.00000000      -0.00000000       0.00000000 </v>
   <v>      -0.00000000      -0.00000000       0.00000000 </v>
   <v>      -0.00000000       0.00000000       0.00000000 </v>
   <v>       0.00000000       0.00000000       0.00000000 </v>
   <v>      -0.00000000      -0.00000000       0.00000000 </v>
   <v>       0.00000000      -0.00000000      -0.00000000 </v>
   <v>      -0.00000000       0.00000000       0.00000000 </v>
   <v>       0.00000000      -0.00000000       0.00000000 </v>
   <v>      -0.00000000       0.00000000       0.00000000 </v>
   <v>       0.00000000       0.00000000      -0.00000000 </v>
   <v>       0.00000000       0.00000000      -0.00000000 </v>
   <v>       0.00000000      -0.00000000       0.00000000 </v>
   <v>       0.00000000       0.00000000       0.00000000 </v>
   <v>       0.00000000      -0.00000000      -0.00000000 </v>
   <v>       0.00000000       0.00000000      -0.00000000 </v>
   <v>       0.00000000      -0.00000000      -0.00000000 </v>
   <v>       0.00000000       0.00000000       0.00000000 </v>
   <v>       0.00000000       0.00000000       0.00000000 </v>
   <v>      -0.00000000       0.00000000       0.00000000 </v>
   <v>      -0.00000000       0.00000000      -0.00000000 </v>
   <v>       0.00000000      -0.00000000       0.00000000 </v>
   <v>       0.00000000       0.00000000       0.00000000 </v>
   <v>      -0.00000000       0.00000000      -0.00000000 </v>
   <v>       0.00000000       0.00000000       0.00000000 </v>
   <v>       0.00000000       0.00000000       0.00000000 </v>
   <v>       0.00000000       0.00000000       0.00000000 </v>
   <v>       0.00000000      -0.00000000       0.00000000 </v>
   <v>       0.00000000       0.00000000       0.00000000 </v>
   <v>      -0.00000000       0.00000000       0.00000000 </v>
   <v>       0.00000000       0.00000000       0.00000000 </v>
   <v>       0.00000000       0.00000000      -0.00000000 </v>
   <v>      -0.00000000       0.00000000       0.00000000 </v>
   <v>      -0.00000000       0.00000000      -0.00000000 </v>
   <v>       0.00000000       0.00000000      -0.00000000 </v>
   <v>      -0.00000000       0.00000000       0.00000000 </v>
   <v>       0.00000000       0.00000000      -0.00000000 </v>
   <v>      -0.00000000       0.00000000       0.00000000 </v>
   <v>      -0.00000000      -0.00000000      -0.00000000 </v>
   <v>       0.00000000       0.00000000       0.00000000 </v>
   <v>       0.00000000       0.00000000       0.00000000 </v>
   <v>      -0.00000000      -0.00000000      -0.00000000 </v>
   <v>      -0.00000000       0.00000000       0.00000000 </v>
   <v>      -0.00000000       0.00000000      -0.00000000 </v>
   <v>       0.00000000       0.00000000      -0.00000000 </v>
   <v>      -0.00000000      -0.00000000       0.00000000 </v>
   <v>       0.00000000       0.00000000       0.00000000 </v>
   <v>      -0.00000000      -0.00000000      -0.00000000 </v>
   <v>       0.00000000       0.00000000      -0.00000000 </v>
   <v>       0.00000000       0.00000000      -0.00000000 </v>
  </varray>
  <varray name="stress" >
   <v>     262.68807704      -0.00001933      -0.00001882 </v>
   <v>      -0.00001933     262.68805926      -0.00000126 </v>
   <v>      -0.00001882      -0.00000126     262.68806750 </v>
  </varray>
  <energy>
   <i name="e_fr_energy">  -1036.89715808 </i>
   <i name="e_wo_entrp">  -1037.20156494 </i>
   <i name="e_0_energy">  -1036.99862704 </i>
  </energy>
  <time name="totalsc">   64.56   60.14</time>
 </calculation>
 <calculation>
  <scstep>
   <time name="dav">    3.23    3.18</time>
   <time name="total">    3.81    3.50</time>
   <energy>
    <i name="alphaZ">   6189.11053643 </i>
    <i name="ewald">-127028.02101352 </i>
    <i name="hartreedc"> -20324.91637573 </i>
    <i name="XCdc">   5664.47065461 </i>
    <i name="pawpsdc"> 256973.83400906 </i>
    <i name="pawaedc">-254186.39597971 </i>
    <i name="eentropy">      1.36868202 </i>
    <i name="bandstr"> -34794.88713315 </i>
    <i name="atom"> 164377.91643804 </i>
    <i name="e_fr_energy">  -3127.52018196 </i>
    <i name="e_wo_entrp">  -3128.88886397 </i>
    <i name="e_0_energy">  -3127.97640930 </i>
   </energy>
  </scstep>
  <scstep>
   <time name="dav">    3.61    3.55</time>
   <time name="total">    4.22    3.88</time>
   <energy>
    <i name="e_fr_energy">  -1145.23718380 </i>
    <i name="e_wo_entrp">  -1145.86833696 </i>
    <i name="e_0_energy">  -1145.44756819 </i>
   </energy>
  </scstep>
  <scstep>
   <time name="dav">    3.57    3.52</time>
   <time name="total">    4.20    3.84</time>
   <energy>
    <i name="e_fr_energy">   -921.74727322 </i>
    <i name="e_wo_entrp">   -921.71719184 </i>
    <i name="e_0_energy">   -921.73724610 </i>
   </energy>
  </scstep>
  <scstep>
   <time name="dav">    3.53    3.47</time>
   <time name="total">    4.15    3.80</time>
   <energy>
    <i name="e_fr_energy">   -977.41018611 </i>
    <i name="e_wo_entrp">   -977.44740434 </i>
    <i name="e_0_energy">   -977.42259219 </i>
   </energy>
  </scstep>
  <scstep>
   <time name="dav">    3.65    3.59</time>
   <time name="total">    4.28    3.93</time>
   <energy>
    <i name="e_fr_energy">  -1046.48795397 </i>
    <i name="e_wo_entrp">  -1046.55543221 </i>
    <i name="e_0_energy">  -1046.51044672 </i>
   </energy>
  </scstep>
  <scstep>
   <time name="dav">    3.12    3.07</time>
   <time name="total">    3.75    3.39</time>
   <energy>
    <i name="e_fr_energy">  -1047.94788028 </i>
    <i name="e_wo_entrp">  -1048.03349651 </i>
    <i name="e_0_energy">  -1047.97641903 </i>
   </energy>
  </scstep>
  <scstep>
   <time name="dav">    3.65    3.59</time>
   <time name="total">    4.29    3.92</time>
   <energy>
    <i name="e_fr_energy">  -1048.29881936 </i>
    <i name="e_wo_entrp">  -1048.38806389 </i>
    <i name="e_0_energy">  -1048.32856754 </i>
   </energy>
  </scstep>
  <scstep>
   <time name="dav">    3.48    3.43</time>
   <time name="total">    4.13    3.76</time>
   <energy>
    <i name="e_fr_energy">  -1048.30586705 </i>
    <i name="e_wo_entrp">  -1048.39557719 </i>
    <i name="e_0_energy">  -1048.33577043 </i>
   </energy>
  </scstep>
  <scstep>
   <time name="dav">    3.39    3.33</time>
   <time name="total">    4.02    3.66</time>
   <energy>
    <i name="e_fr_energy">  -1048.30299669 </i>
    <i name="e_wo_entrp">  -1048.39237045 </i>
    <i name="e_0_energy">  -1048.33278794 </i>
   </energy>
  </scstep>
  <scstep>
   <time name="dav">    3.71    3.66</time>
   <time name="total">    4.35    4.00</time>
   <energy>
    <i name="e_fr_energy">  -1048.30297674 </i>
    <i name="e_wo_entrp">  -1048.39231682 </i>
    <i name="e_0_energy">  -1048.33275677 </i>
   </energy>
  </scstep>
  <scstep>
   <time name="dav">    2.68    2.63</time>
   <time name="total">    3.33    2.95</time>
   <energy>
    <i name="e_fr_energy">  -1048.30295428 </i>
    <i name="e_wo_entrp">  -1048.39228498 </i>
    <i name="e_0_energy">  -1048.33273118 </i>
   </energy>
  </scstep>
  <scstep>
   <time name="dav">    2.32    2.27</time>
   <time name="total">    2.95    2.60</time>
   <energy>
    <i name="e_fr_energy">  -1048.30293408 </i>
    <i name="e_wo_entrp">  -1048.39226217 </i>
    <i name="e_0_energy">  -1048.33271011 </i>
   </energy>
  </scstep>
  <scstep>
   <time name="dav">    2.01    1.97</time>
   <time name="total">    2.65    2.31</time>
   <energy>
    <i name="e_fr_energy">  -1048.30293683 </i>
    <i name="e_wo_entrp">  -1048.39226700 </i>
    <i name="e_0_energy">  -1048.33271355 </i>
   </energy>
  </scstep>
  <scstep>
   <time name="dav">    1.99    1.95</time>
   <time name="total">    2.12    1.97</time>
   <energy>
    <i name="alphaZ">   6189.11053643 </i>
    <i name="ewald">-127028.02101352 </i>
    <i name="hartreedc"> -30302.70095792 </i>
    <i name="XCdc">   6201.14955673 </i>
    <i name="pawpsdc"> 154252.28405165 </i>
    <i name="pawaedc">-151786.98323732 </i>
    <i name="eentropy">      0.08932996 </i>
    <i name="bandstr"> -22951.14764062 </i>
    <i name="atom"> 164377.91643804 </i>
    <i name="e_fr_energy">  -1048.30293656 </i>
    <i name="e_wo_entrp">  -1048.39226652 </i>
    <i name="e_0_energy">  -1048.33271321 </i>
   </energy>
  </scstep>
  <structure>
   <crystal>
    <varray name="basis" >
     <v>      15.20789239      -0.00000070      -0.00000069 </v>
     <v>      -0.00000071      15.20789175      -0.00000004 </v>
     <v>      -0.00000068      -0.00000005      15.20789204 </v>
    </varray>
    <i name="volume">   3517.28098541 </i>
    <varray name="rec_basis" >
     <v>       0.06575533       0.00000000       0.00000000 </v>
     <v>       0.00000000       0.06575533       0.00000000 </v>
     <v>       0.00000000       0.00000000       0.06575533 </v>
    </varray>
   </crystal>
   <varray name="positions" >
    <v>       0.37500001       0.87499999       0.87499998 </v>
    <v>       0.49999999       0.25000001       0.75000000 </v>
    <v>       0.25000004       0.25000011       0.25000000 </v>
    <v>       0.62499993       0.37499999       0.12499998 </v>
    <v>       0.00000003       1.00000000       0.75000001 </v>
    <v>       0.25000002       1.00000000       0.25000002 </v>
    <v>       0.12500006       0.37500003       0.12500002 </v>
    <v>       0.62499997       0.87499997       0.37499997 </v>
    <v>       0.74999995       0.74999998       0.00000001 </v>
    <v>       0.50000002       0.99999998       0.99999998 </v>
    <v>       0.00000003       0.50000000       0.25000000 </v>
    <v>       0.12500006       0.62499998       0.12500000 </v>
    <v>       0.62499994       0.12500000       0.37499995 </v>
    <v>       0.37500006       0.12500002       0.37499999 </v>
    <v>       0.50000000       0.25000002       0.99999999 </v>
    <v>       0.50000000       0.74999996       0.99999998 </v>
    <v>       0.99999998       0.74999998       0.99999999 </v>
    <v>       0.50000002       0.50000000       0.50000001 </v>
    <v>       0.37500001       0.37500004       0.12500003 </v>
    <v>       0.62499995       0.12500006       0.87500002 </v>
    <v>       0.25000003       0.25000007       0.00000002 </v>
    <v>       0.12500008       0.87500000       0.62500001 </v>
    <v>       0.99999996       0.74999998       0.25000000 </v>
    <v>       0.74999996       0.99999999       0.49999994 </v>
    <v>       0.74999996       1.00000000       0.75000004 </v>
    <v>       0.87500000       0.12499998       0.37499997 </v>
    <v>       0.99999997       0.00000000       0.00000002 </v>
    <v>       0.25000006       0.99999998       0.99999995 </v>
    <v>       0.87499996       0.12500007       0.87500003 </v>
    <v>       0.62500000       0.37500007       0.62500003 </v>
    <v>       0.49999998       0.25000003       0.25000001 </v>
    <v>       0.74999998       0.25000004       0.50000001 </v>
    <v>       0.62499998       0.62499993       0.62499999 </v>
    <v>       0.12500001       0.62500004       0.62500004 </v>
    <v>       0.99999994       0.00000001       0.25000000 </v>
    <v>       0.25000006       1.00000000       0.50000008 </v>
    <v>       0.87499996       0.62500002       0.37500000 </v>
    <v>       0.25000007       0.74999994       0.24999999 </v>
    <v>       0.37500007       0.37500002       0.87500003 </v>
    <v>       0.25000009       0.75000002       0.75000001 </v>
    <v>       0.74999994       0.50000001       0.50000004 </v>
    <v>       0.87500000       0.12500006       0.62500000 </v>
    <v>       0.87499994       0.37500001       0.87499996 </v>
    <v>       0.74999995       0.24999995       0.24999999 </v>
    <v>       0.25000007       0.99999999       0.74999995 </v>
    <v>       0.12500001       0.87499997       0.37500001 </v>
    <v>       0.25000006       0.75000002       0.50000003 </v>
    <v>       0.12500005       0.12499996       0.62500000 </v>
    <v>       0.00000003       0.25000000       0.25000000 </v>
    <v>       0.00000002       0.50000000       0.99999999 </v>
    <v>       0.99999999       0.74999998       0.49999998 </v>
    <v>       0.37500003       0.62500001       0.87500002 </v>
    <v>       0.49999998       0.75000000       0.75000002 </v>
    <v>       0.62499993       0.37500005       0.37500003 </v>
    <v>       0.62499995       0.87500000       0.12500003 </v>
    <v>       0.12500001       0.12500002       0.37500001 </v>
    <v>       0.25000004       0.50000002       0.75000004 </v>
    <v>       0.25000008       0.49999999       0.00000004 </v>
    <v>       0.99999996       0.50000000       0.75000002 </v>
    <v>       0.37500006       0.87499995       0.12499998 </v>
    <v>       0.74999999       0.00000000       0.25000000 </v>
    <v>       0.87499999       0.37500000       0.12499996 </v>
    <v>       0.62499994       0.62500000       0.12500000 </v>
    <v>       0.37500004       0.62499998       0.37499997 </v>
    <v>       0.62499994       0.62499994       0.87499997 </v>
    <v>       0.74999996       0.49999999       0.74999998 </v>
    <v>       0.74999996       0.00000001       0.00000002 </v>
    <v>       0.62499992       0.87499996       0.62499998 </v>
    <v>       0.25000007       0.49999999       0.49999995 </v>
    <v>       0.00000002       0.00000002       0.49999998 </v>
    <v>       0.12500004       0.37500001       0.37499993 </v>
    <v>       0.87499998       0.37500003       0.37500003 </v>
    <v>       0.25000007       0.24999996       0.74999999 </v>
    <v>       0.25000003       0.25000000       0.49999999 </v>
    <v>       0.74999997       0.50000006       0.25000001 </v>
    <v>       0.37500002       0.62499997       0.12500000 </v>
    <v>       0.50000001       0.74999997       0.24999998 </v>
    <v>       0.87499999       0.62500001       0.12500002 </v>
    <v>       0.37500004       0.87499997       0.37500002 </v>
    <v>       0.50000005       1.00000000       0.24999999 </v>
    <v>       0.74999996       0.74999999       0.24999999 </v>
    <v>       0.50000003       0.50000002       0.75000002 </v>
    <v>       0.99999998       0.49999999       0.50000000 </v>
    <v>       0.87499997       0.12500001       0.12500001 </v>
    <v>       0.00000001       0.74999998       0.75000001 </v>
    <v>       0.87499999       0.62499995       0.87499998 </v>
    <v>       0.37500007       0.62500002       0.62500001 </v>
    <v>       0.74999997       0.24999998       0.99999997 </v>
    <v>       0.37500002       0.12499997       0.62500004 </v>
    <v>       0.99999998       0.25000003       0.75000000 </v>
    <v>       0.62499995       0.12500000       0.12499999 </v>
    <v>       0.49999994       0.99999997       0.75000001 </v>
    <v>       0.49999996       0.99999998       0.50000002 </v>
    <v>       0.87500000       0.87499996       0.62499998 </v>
    <v>       0.87499999       0.87499999       0.12500004 </v>
    <v>       0.87499993       0.37500005       0.62500005 </v>
    <v>       0.74999993       0.74999995       0.75000002 </v>
    <v>       0.37500005       0.37500003       0.37499993 </v>
    <v>       0.12500000       0.37500004       0.87500003 </v>
    <v>       0.87499997       0.87499997       0.37499997 </v>
    <v>       0.62499991       0.87499999       0.87500002 </v>
    <v>       0.87500001       0.87499998       0.87500002 </v>
    <v>       0.62499994       0.12500004       0.62500004 </v>
    <v>       0.49999996       0.50000004       0.00000000 </v>
    <v>       0.12499997       0.37500000       0.62500002 </v>
    <v>       0.74999994       0.50000003       0.99999997 </v>
    <v>       0.87499995       0.62499993       0.62500000 </v>
    <v>       0.49999998       0.25000004       0.50000000 </v>
    <v>       0.12500003       0.62500001       0.37499996 </v>
    <v>       0.49999999       0.74999999       0.50000003 </v>
    <v>       0.62500000       0.37500001       0.87499996 </v>
    <v>       0.25000007       0.74999996       0.99999997 </v>
    <v>       0.37500000       0.87500001       0.62500003 </v>
    <v>       0.12500001       0.87499996       0.12499999 </v>
    <v>       0.25000005       0.49999995       0.24999997 </v>
    <v>       0.74999996       0.25000007       0.75000002 </v>
    <v>       0.37500011       0.37500002       0.62500001 </v>
    <v>       0.12500006       0.87499996       0.87499998 </v>
    <v>       0.49999994       0.50000001       0.24999998 </v>
    <v>       0.00000002       0.25000001       0.50000000 </v>
    <v>       0.62499996       0.62499999       0.37500003 </v>
    <v>       0.37500005       0.12499997       0.87499997 </v>
    <v>       0.37500008       0.12500003       0.12500001 </v>
    <v>       0.74999996       0.74999996       0.49999998 </v>
    <v>       1.00000000       0.25000001       1.00000000 </v>
    <v>       0.12500000       0.12500003       0.12500000 </v>
    <v>       0.12500004       0.12500000       0.87499997 </v>
    <v>       0.12500004       0.62500000       0.87500000 </v>
   </varray>
  </structure>
  <varray name="forces" >
   <v>      -0.00000000      -0.00000000      -0.00000000 </v>
   <v>      -0.00000000       0.00000000       0.00000000 </v>
   <v>       0.00000000       0.00000000      -0.00000000 </v>
   <v>       0.00000000      -0.00000000      -0.00000000 </v>
   <v>       0.00000000      -0.00000000       0.00000000 </v>
   <v>       0.00000000      -0.00000000       0.00000000 </v>
   <v>       0.00000000       0.00000000      -0.00000000 </v>
   <v>       0.00000000       0.00000000       0.00000000 </v>
   <v>       0.00000000       0.00000000       0.00000000 </v>
   <v>       0.00000000       0.00000000       0.00000000 </v>
   <v>      -0.00000000      -0.00000000       0.00000000 </v>
   <v>       0.00000000      -0.00000000      -0.00000000 </v>
   <v>      -0.00000000       0.00000000       0.00000000 </v>
   <v>      -0.00000000      -0.00000000       0.00000000 </v>
   <v>      -0.00000000       0.00000000       0.00000000 </v>
   <v>      -0.00000000       0.00000000      -0.00000000 </v>
   <v>       0.00000000       0.00000000       0.00000000 </v>
   <v>       0.00000000       0.00000000       0.00000000 </v>
   <v>      -0.00000000       0.00000000      -0.00000000 </v>
   <v>      -0.00000000      -0.00000000       0.00000000 </v>
   <v>      -0.00000000      -0.00000000      -0.00000000 </v>
   <v>       0.00000000       0.00000000      -0.00000000 </v>
   <v>      -0.00000000      -0.00000000       0.00000000 </v>
   <v>       0.00000000       0.00000000       0.00000000 </v>
   <v>       0.00000000       0.00000000       0.00000000 </v>
   <v>      -0.00000000      -0.00000000       0.00000000 </v>
   <v>      -0.00000000      -0.00000000      -0.00000000 </v>
   <v>       0.00000000      -0.00000000      -0.00000000 </v>
   <v>      -0.00000000      -0.00000000      -0.00000000 </v>
   <v>      -0.00000000       0.00000000       0.00000000 </v>
   <v>      -0.00000000      -0.00000000      -0.00000000 </v>
   <v>      -0.00000000       0.00000000       0.00000000 </v>
   <v>       0.00000000      -0.00000000      -0.00000000 </v>
   <v>      -0.00000000       0.00000000      -0.00000000 </v>
   <v>      -0.00000000      -0.00000000      -0.00000000 </v>
   <v>      -0.00000000      -0.00000000      -0.00000000 </v>
   <v>       0.00000000      -0.00000000      -0.00000000 </v>
   <v>       0.00000000      -0.00000000       0.00000000 </v>
   <v>      -0.00000000      -0.00000000       0.00000000 </v>
   <v>      -0.00000000       0.00000000      -0.00000000 </v>
   <v>      -0.00000000      -0.00000000      -0.00000000 </v>
   <v>       0.00000000       0.00000000      -0.00000000 </v>
   <v>      -0.00000000      -0.00000000      -0.00000000 </v>
   <v>       0.00000000      -0.00000000       0.00000000 </v>
   <v>       0.00000000      -0.00000000      -0.00000000 </v>
   <v>      -0.00000000      -0.00000000      -0.00000000 </v>
   <v>      -0.00000000       0.00000000      -0.00000000 </v>
   <v>      -0.00000000      -0.00000000       0.00000000 </v>
   <v>       0.00000000       0.00000000       0.00000000 </v>
   <v>       0.00000000       0.00000000       0.00000000 </v>
   <v>       0.00000000       0.00000000      -0.00000000 </v>
   <v>      -0.00000000      -0.00000000      -0.00000000 </v>
   <v>      -0.00000000      -0.00000000       0.00000000 </v>
   <v>       0.00000000       0.00000000       0.00000000 </v>
   <v>      -0.00000000       0.00000000       0.00000000 </v>
   <v>       0.00000000       0.00000000      -0.00000000 </v>
   <v>      -0.00000000       0.00000000       0.00000000 </v>
   <v>      -0.00000000      -0.00000000      -0.00000000 </v>
   <v>      -0.00000000      -0.00000000      -0.00000000 </v>
   <v>       0.00000000       0.00000000      -0.00000000 </v>
   <v>      -0.00000000      -0.00000000       0.00000000 </v>
   <v>      -0.00000000       0.00000000       0.00000000 </v>
   <v>       0.00000000       0.00000000      -0.00000000 </v>
   <v>      -0.00000000      -0.00000000      -0.00000000 </v>
   <v>       0.00000000      -0.00000000       0.00000000 </v>
   <v>      -0.00000000      -0.00000000       0.00000000 </v>
   <v>       0.00000000       0.00000000       0.00000000 </v>
   <v>      -0.00000000       0.00000000      -0.00000000 </v>
   <v>      -0.00000000      -0.00000000       0.00000000 </v>
   <v>      -0.00000000       0.00000000      -0.00000000 </v>
   <v>       0.00000000       0.00000000       0.00000000 </v>
   <v>      -0.00000000       0.00000000       0.00000000 </v>
   <v>      -0.00000000      -0.00000000       0.00000000 </v>
   <v>      -0.00000000      -0.00000000      -0.00000000 </v>
   <v>      -0.00000000       0.00000000       0.00000000 </v>
   <v>       0.00000000      -0.00000000      -0.00000000 </v>
   <v>       0.00000000       0.00000000      -0.00000000 </v>
   <v>      -0.00000000       0.00000000      -0.00000000 </v>
   <v>       0.00000000       0.00000000      -0.00000000 </v>
   <v>      -0.00000000       0.00000000      -0.00000000 </v>
   <v>      -0.00000000       0.00000000       0.00000000 </v>
   <v>       0.00000000      -0.00000000       0.00000000 </v>
   <v>       0.00000000      -0.00000000      -0.00000000 </v>
   <v>      -0.00000000       0.00000000       0.00000000 </v>
   <v>       0.00000000      -0.00000000      -0.00000000 </v>
   <v>       0.00000000      -0.00000000       0.00000000 </v>
   <v>       0.00000000       0.00000000       0.00000000 </v>
   <v>      -0.00000000      -0.00000000       0.00000000 </v>
   <v>      -0.00000000      -0.00000000      -0.00000000 </v>
   <v>       0.00000000      -0.00000000       0.00000000 </v>
   <v>       0.00000000      -0.00000000       0.00000000 </v>
   <v>      -0.00000000      -0.00000000      -0.00000000 </v>
   <v>      -0.00000000      -0.00000000       0.00000000 </v>
   <v>       0.00000000      -0.00000000       0.00000000 </v>
   <v>      -0.00000000       0.00000000      -0.00000000 </v>
   <v>       0.00000000      -0.00000000      -0.00000000 </v>
   <v>       0.00000000      -0.00000000      -0.00000000 </v>
   <v>       0.00000000      -0.00000000      -0.00000000 </v>
   <v>       0.00000000      -0.00000000       0.00000000 </v>
   <v>       0.00000000       0.00000000       0.00000000 </v>
   <v>       0.00000000       0.00000000       0.00000000 </v>
   <v>       0.00000000       0.00000000       0.00000000 </v>
   <v>      -0.00000000       0.00000000      -0.00000000 </v>
   <v>      -0.00000000      -0.00000000      -0.00000000 </v>
   <v>       0.00000000      -0.00000000      -0.00000000 </v>
   <v>      -0.00000000      -0.00000000       0.00000000 </v>
   <v>      -0.00000000      -0.00000000      -0.00000000 </v>
   <v>      -0.00000000       0.00000000       0.00000000 </v>
   <v>       0.00000000      -0.00000000      -0.00000000 </v>
   <v>       0.00000000       0.00000000      -0.00000000 </v>
   <v>       0.00000000       0.00000000       0.00000000 </v>
   <v>       0.00000000       0.00000000      -0.00000000 </v>
   <v>       0.00000000      -0.00000000       0.00000000 </v>
   <v>      -0.00000000      -0.00000000       0.00000000 </v>
   <v>       0.00000000      -0.00000000      -0.00000000 </v>
   <v>       0.00000000       0.00000000      -0.00000000 </v>
   <v>      -0.00000000      -0.00000000       0.00000000 </v>
   <v>      -0.00000000      -0.00000000      -0.00000000 </v>
   <v>       0.00000000       0.00000000      -0.00000000 </v>
   <v>      -0.00000000       0.00000000       0.00000000 </v>
   <v>       0.00000000       0.00000000      -0.00000000 </v>
   <v>      -0.00000000      -0.00000000       0.00000000 </v>
   <v>      -0.00000000       0.00000000      -0.00000000 </v>
   <v>      -0.00000000      -0.00000000      -0.00000000 </v>
   <v>      -0.00000000      -0.00000000      -0.00000000 </v>
   <v>      -0.00000000       0.00000000      -0.00000000 </v>
   <v>      -0.00000000      -0.00000000       0.00000000 </v>
   <v>       0.00000000       0.00000000      -0.00000000 </v>
  </varray>
  <varray name="stress" >
   <v>    -122.23567105       0.00001127       0.00001097 </v>
   <v>       0.00001127    -122.23566068       0.00000074 </v>
   <v>       0.00001097       0.00000074    -122.23566548 </v>
  </varray>
  <energy>
   <i name="e_fr_energy">  -1048.30293656 </i>
   <i name="e_wo_entrp">  -1048.39226652 </i>
   <i name="e_0_energy">  -1048.33271321 </i>
  </energy>
  <time name="totalsc">   57.65   51.56</time>
 </calculation>
 <calculation>
  <scstep>
   <time name="dav">    3.31    3.25</time>
   <time name="total">    3.89    3.58</time>
   <energy>
    <i name="alphaZ">   7481.07833679 </i>
    <i name="ewald">-135314.66082284 </i>
    <i name="hartreedc"> -32279.48895990 </i>
    <i name="XCdc">   6586.16191377 </i>
    <i name="pawpsdc"> 154252.19114740 </i>
    <i name="pawaedc">-151786.89257824 </i>
    <i name="eentropy">      0.60153769 </i>
    <i name="bandstr"> -14908.60192419 </i>
    <i name="atom"> 164377.91643804 </i>
    <i name="e_fr_energy">  -1591.69491149 </i>
    <i name="e_wo_entrp">  -1592.29644918 </i>
    <i name="e_0_energy">  -1591.89542406 </i>
   </energy>
  </scstep>
  <scstep>
   <time name="dav">    3.35    3.29</time>
   <time name="total">    3.97    3.62</time>
   <energy>
    <i name="e_fr_energy">  -1126.05673340 </i>
    <i name="e_wo_entrp">  -1126.05399933 </i>
    <i name="e_0_energy">  -1126.05582204 </i>
   </energy>
  </scstep>
  <scstep>
   <time name="dav">    3.42    3.37</time>
   <time name="total">    4.04    3.70</time>
   <energy>
    <i name="e_fr_energy">  -1057.00451624 </i>
    <i name="e_wo_entrp">  -1056.96539624 </i>
    <i name="e_0_energy">  -1056.99147624 </i>
   </energy>
  </scstep>
  <scstep>
   <time name="dav">    3.60    3.55</time>
   <time name="total">    4.23    3.88</time>
   <energy>
    <i name="e_fr_energy">  -1069.21311363 </i>
    <i name="e_wo_entrp">  -1069.14778127 </i>
    <i name="e_0_energy">  -1069.19133618 </i>
   </energy>
  </scstep>
  <scstep>
   <time name="dav">    3.59    3.53</time>
   <time name="total">    4.21    3.86</time>
   <energy>
    <i name="e_fr_energy">  -1075.49121867 </i>
    <i name="e_wo_entrp">  -1075.43534050 </i>
    <i name="e_0_energy">  -1075.47259261 </i>
   </energy>
  </scstep>
  <scstep>
   <time name="dav">    3.38    3.33</time>
   <time name="total">    4.02    3.66</time>
   <energy>
    <i name="e_fr_energy">  -1075.46004555 </i>
    <i name="e_wo_entrp">  -1075.39635745 </i>
    <i name="e_0_energy">  -1075.43881619 </i>
   </energy>
  </scstep>
  <scstep>
   <time name="dav">    3.75    3.70</time>
   <time name="total">    4.39    4.03</time>
   <energy>
    <i name="e_fr_energy">  -1075.45569769 </i>
    <i name="e_wo_entrp">  -1075.39125380 </i>
    <i name="e_0_energy">  -1075.43421639 </i>
   </energy>
  </scstep>
  <scstep>
   <time name="dav">    3.61    3.56</time>
   <time name="total">    4.26    3.89</time>
   <energy>
    <i name="e_fr_energy">  -1075.45578499 </i>
    <i name="e_wo_entrp">  -1075.39139322 </i>
    <i name="e_0_energy">  -1075.43432106 </i>
   </energy>
  </scstep>
  <scstep>
   <time name="dav">    3.36    3.30</time>
   <time name="total">    4.00    3.63</time>
   <energy>
    <i name="e_fr_energy">  -1075.45570340 </i>
    <i name="e_wo_entrp">  -1075.39119087 </i>
    <i name="e_0_energy">  -1075.43419922 </i>
   </energy>
  </scstep>
  <scstep>
   <time name="dav">    2.91    2.86</time>
   <time name="total">    3.56    3.19</time>
   <energy>
    <i name="e_fr_energy">  -1075.45574132 </i>
    <i name="e_wo_entrp">  -1075.39122255 </i>
    <i name="e_0_energy">  -1075.43423506 </i>
   </energy>
  </scstep>
  <scstep>
   <time name="dav">    2.02    1.98</time>
   <time name="total">    2.66    2.30</time>
   <energy>
    <i name="e_fr_energy">  -1075.45575504 </i>
    <i name="e_wo_entrp">  -1075.39123076 </i>
    <i name="e_0_energy">  -1075.43424694 </i>
   </energy>
  </scstep>
  <scstep>
   <time name="dav">    2.00    1.95</time>
   <time name="total">    2.65    2.28</time>
   <energy>
    <i name="e_fr_energy">  -1075.45576214 </i>
    <i name="e_wo_entrp">  -1075.39124067 </i>
    <i name="e_0_energy">  -1075.43425499 </i>
   </energy>
  </scstep>
  <scstep>
   <time name="dav">    1.99    1.95</time>
   <time name="total">    2.63    2.28</time>
   <energy>
    <i name="e_fr_energy">  -1075.45576498 </i>
    <i name="e_wo_entrp">  -1075.39124440 </i>
    <i name="e_0_energy">  -1075.43425812 </i>
   </energy>
  </scstep>
  <scstep>
   <time name="dav">    1.98    1.94</time>
   <time name="total">    2.12    1.96</time>
   <energy>
    <i name="alphaZ">   7481.07833679 </i>
    <i name="ewald">-135314.66082284 </i>
    <i name="hartreedc"> -26965.10847038 </i>
    <i name="XCdc">   6303.32279838 </i>
    <i name="pawpsdc"> 188524.85578493 </i>
    <i name="pawaedc">-185928.01038438 </i>
    <i name="eentropy">     -0.06452037 </i>
    <i name="bandstr"> -19554.78492528 </i>
    <i name="atom"> 164377.91643804 </i>
    <i name="e_fr_energy">  -1075.45576512 </i>
    <i name="e_wo_entrp">  -1075.39124475 </i>
    <i name="e_0_energy">  -1075.43425833 </i>
   </energy>
  </scstep>
  <structure>
   <crystal>
    <varray name="basis" >
     <v>      14.27656441      -0.00000059      -0.00000059 </v>
     <v>      -0.00000060      14.27656386      -0.00000004 </v>
     <v>      -0.00000058      -0.00000004      14.27656411 </v>
    </varray>
    <i name="volume">   2909.85334285 </i>
    <varray name="rec_basis" >
     <v>       0.07004486       0.00000000       0.00000000 </v>
     <v>       0.00000000       0.07004487       0.00000000 </v>
     <v>       0.00000000       0.00000000       0.07004486 </v>
    </varray>
   </crystal>
   <varray name="positions" >
    <v>       0.37500001       0.87499999       0.87499998 </v>
    <v>       0.49999999       0.25000001       0.75000000 </v>
    <v>       0.25000004       0.25000011       0.25000000 </v>
    <v>       0.62499993       0.37499999       0.12499998 </v>
    <v>       0.00000003       1.00000000       0.75000001 </v>
    <v>       0.25000002       1.00000000       0.25000002 </v>
    <v>       0.12500006       0.37500003       0.12500002 </v>
    <v>       0.62499997       0.87499997       0.37499997 </v>
    <v>       0.74999995       0.74999998       0.00000001 </v>
    <v>       0.50000002       0.99999998       0.99999998 </v>
    <v>       0.00000003       0.50000000       0.25000000 </v>
    <v>       0.12500006       0.62499998       0.12500000 </v>
    <v>       0.62499994       0.12500000       0.37499995 </v>
    <v>       0.37500006       0.12500002       0.37499999 </v>
    <v>       0.50000000       0.25000002       0.99999999 </v>
    <v>       0.50000000       0.74999996       0.99999998 </v>
    <v>       0.99999998       0.74999998       0.99999999 </v>
    <v>       0.50000002       0.50000000       0.50000001 </v>
    <v>       0.37500001       0.37500004       0.12500003 </v>
    <v>       0.62499995       0.12500006       0.87500002 </v>
    <v>       0.25000003       0.25000007       0.00000002 </v>
    <v>       0.12500008       0.87500000       0.62500001 </v>
    <v>       0.99999996       0.74999998       0.25000000 </v>
    <v>       0.74999996       0.99999999       0.49999994 </v>
    <v>       0.74999996       1.00000000       0.75000004 </v>
    <v>       0.87500000       0.12499998       0.37499997 </v>
    <v>       0.99999997       0.00000000       0.00000002 </v>
    <v>       0.25000006       0.99999998       0.99999995 </v>
    <v>       0.87499996       0.12500007       0.87500003 </v>
    <v>       0.62500000       0.37500007       0.62500003 </v>
    <v>       0.49999998       0.25000003       0.25000001 </v>
    <v>       0.74999998       0.25000004       0.50000001 </v>
    <v>       0.62499998       0.62499993       0.62499999 </v>
    <v>       0.12500001       0.62500004       0.62500004 </v>
    <v>       0.99999994       0.00000001       0.25000000 </v>
    <v>       0.25000006       1.00000000       0.50000008 </v>
    <v>       0.87499996       0.62500002       0.37500000 </v>
    <v>       0.25000007       0.74999994       0.24999999 </v>
    <v>       0.37500007       0.37500002       0.87500003 </v>
    <v>       0.25000009       0.75000002       0.75000001 </v>
    <v>       0.74999994       0.50000001       0.50000004 </v>
    <v>       0.87500000       0.12500006       0.62500000 </v>
    <v>       0.87499994       0.37500001       0.87499996 </v>
    <v>       0.74999995       0.24999995       0.24999999 </v>
    <v>       0.25000007       0.99999999       0.74999995 </v>
    <v>       0.12500001       0.87499997       0.37500001 </v>
    <v>       0.25000006       0.75000002       0.50000003 </v>
    <v>       0.12500005       0.12499996       0.62500000 </v>
    <v>       0.00000003       0.25000000       0.25000000 </v>
    <v>       0.00000002       0.50000000       0.99999999 </v>
    <v>       0.99999999       0.74999998       0.49999998 </v>
    <v>       0.37500003       0.62500001       0.87500002 </v>
    <v>       0.49999998       0.75000000       0.75000002 </v>
    <v>       0.62499993       0.37500005       0.37500003 </v>
    <v>       0.62499995       0.87500000       0.12500003 </v>
    <v>       0.12500001       0.12500002       0.37500001 </v>
    <v>       0.25000004       0.50000002       0.75000004 </v>
    <v>       0.25000008       0.49999999       0.00000004 </v>
    <v>       0.99999996       0.50000000       0.75000002 </v>
    <v>       0.37500006       0.87499995       0.12499998 </v>
    <v>       0.74999999       0.00000000       0.25000000 </v>
    <v>       0.87499999       0.37500000       0.12499996 </v>
    <v>       0.62499994       0.62500000       0.12500000 </v>
    <v>       0.37500004       0.62499998       0.37499997 </v>
    <v>       0.62499994       0.62499994       0.87499997 </v>
    <v>       0.74999996       0.49999999       0.74999998 </v>
    <v>       0.74999996       0.00000001       0.00000002 </v>
    <v>       0.62499992       0.87499996       0.62499998 </v>
    <v>       0.25000007       0.49999999       0.49999995 </v>
    <v>       0.00000002       0.00000002       0.49999998 </v>
    <v>       0.12500004       0.37500001       0.37499993 </v>
    <v>       0.87499998       0.37500003       0.37500003 </v>
    <v>       0.25000007       0.24999996       0.74999999 </v>
    <v>       0.25000003       0.25000000       0.49999999 </v>
    <v>       0.74999997       0.50000006       0.25000001 </v>
    <v>       0.37500002       0.62499997       0.12500000 </v>
    <v>       0.50000001       0.74999997       0.24999998 </v>
    <v>       0.87499999       0.62500001       0.12500002 </v>
    <v>       0.37500004       0.87499997       0.37500002 </v>
    <v>       0.50000005       1.00000000       0.24999999 </v>
    <v>       0.74999996       0.74999999       0.24999999 </v>
    <v>       0.50000003       0.50000002       0.75000002 </v>
    <v>       0.99999998       0.49999999       0.50000000 </v>
    <v>       0.87499997       0.12500001       0.12500001 </v>
    <v>       0.00000001       0.74999998       0.75000001 </v>
    <v>       0.87499999       0.62499995       0.87499998 </v>
    <v>       0.37500007       0.62500002       0.62500001 </v>
    <v>       0.74999997       0.24999998       0.99999997 </v>
    <v>       0.37500002       0.12499997       0.62500004 </v>
    <v>       0.99999998       0.25000003       0.75000000 </v>
    <v>       0.62499995       0.12500000       0.12499999 </v>
    <v>       0.49999994       0.99999997       0.75000001 </v>
    <v>       0.49999996       0.99999998       0.50000002 </v>
    <v>       0.87500000       0.87499996       0.62499998 </v>
    <v>       0.87499999       0.87499999       0.12500004 </v>
    <v>       0.87499993       0.37500005       0.62500005 </v>
    <v>       0.74999993       0.74999995       0.75000002 </v>
    <v>       0.37500005       0.37500003       0.37499993 </v>
    <v>       0.12500000       0.37500004       0.87500003 </v>
    <v>       0.87499997       0.87499997       0.37499997 </v>
    <v>       0.62499991       0.87499999       0.87500002 </v>
    <v>       0.87500001       0.87499998       0.87500002 </v>
    <v>       0.62499994       0.12500004       0.62500004 </v>
    <v>       0.49999996       0.50000004       0.00000000 </v>
    <v>       0.12499997       0.37500000       0.62500002 </v>
    <v>       0.74999994       0.50000003       0.99999997 </v>
    <v>       0.87499995       0.62499993       0.62500000 </v>
    <v>       0.49999998       0.25000004       0.50000000 </v>
    <v>       0.12500003       0.62500001       0.37499996 </v>
    <v>       0.49999999       0.74999999       0.50000003 </v>
    <v>       0.62500000       0.37500001       0.87499996 </v>
    <v>       0.25000007       0.74999996       0.99999997 </v>
    <v>       0.37500000       0.87500001       0.62500003 </v>
    <v>       0.12500001       0.87499996       0.12499999 </v>
    <v>       0.25000005       0.49999995       0.24999997 </v>
    <v>       0.74999996       0.25000007       0.75000002 </v>
    <v>       0.37500011       0.37500002       0.62500001 </v>
    <v>       0.12500006       0.87499996       0.87499998 </v>
    <v>       0.49999994       0.50000001       0.24999998 </v>
    <v>       0.00000002       0.25000001       0.50000000 </v>
    <v>       0.62499996       0.62499999       0.37500003 </v>
    <v>       0.37500005       0.12499997       0.87499997 </v>
    <v>       0.37500008       0.12500003       0.12500001 </v>
    <v>       0.74999996       0.74999996       0.49999998 </v>
    <v>       1.00000000       0.25000001       1.00000000 </v>
    <v>       0.12500000       0.12500003       0.12500000 </v>
    <v>       0.12500004       0.12500000       0.87499997 </v>
    <v>       0.12500004       0.62500000       0.87500000 </v>
   </varray>
  </structure>
  <varray name="forces" >
   <v>       0.00000000      -0.00000000      -0.00000000 </v>
   <v>      -0.00000000      -0.00000000       0.00000000 </v>
   <v>       0.00000000       0.00000000       0.00000000 </v>
   <v>      -0.00000000      -0.00000000      -0.00000000 </v>
   <v>      -0.00000000       0.00000000      -0.00000000 </v>
   <v>       0.00000000      -0.00000000       0.00000000 </v>
   <v>       0.00000000       0.00000000       0.00000000 </v>
   <v>      -0.00000000       0.00000000       0.00000000 </v>
   <v>      -0.00000000      -0.00000000       0.00000000 </v>
   <v>      -0.00000000      -0.00000000       0.00000000 </v>
   <v>      -0.00000000      -0.00000000      -0.00000000 </v>
   <v>      -0.00000000      -0.00000000       0.00000000 </v>
   <v>      -0.00000000       0.00000000       0.00000000 </v>
   <v>       0.00000000       0.00000000      -0.00000000 </v>
   <v>      -0.00000000      -0.00000000       0.00000000 </v>
   <v>       0.00000000       0.00000000      -0.00000000 </v>
   <v>      -0.00000000       0.00000000      -0.00000000 </v>
   <v>      -0.00000000       0.00000000       0.00000000 </v>
   <v>      -0.00000000      -0.00000000      -0.00000000 </v>
   <v>       0.00000000      -0.00000000       0.00000000 </v>
   <v>      -0.00000000       0.00000000       0.00000000 </v>
   <v>      -0.00000000       0.00000000       0.00000000 </v>
   <v>       0.00000000       0.00000000      -0.00000000 </v>
   <v>      -0.00000000       0.00000000       0.00000000 </v>
   <v>      -0.00000000      -0.00000000       0.00000000 </v>
   <v>      -0.00000000      -0.00000000       0.00000000 </v>
   <v>       0.00000000      -0.00000000      -0.00000000 </v>
   <v>       0.00000000       0.00000000      -0.00000000 </v>
   <v>       0.00000000       0.00000000       0.00000000 </v>
   <v>      -0.00000000      -0.00000000       0.00000000 </v>
   <v>       0.00000000      -0.00000000       0.00000000 </v>
   <v>       0.00000000       0.00000000       0.00000000 </v>
   <v>      -0.00000000      -0.00000000      -0.00000000 </v>
   <v>       0.00000000      -0.00000000      -0.00000000 </v>
   <v>       0.00000000      -0.00000000       0.00000000 </v>
   <v>      -0.00000000      -0.00000000      -0.00000000 </v>
   <v>       0.00000000      -0.00000000       0.00000000 </v>
   <v>      -0.00000000       0.00000000       0.00000000 </v>
   <v>       0.00000000       0.00000000       0.00000000 </v>
   <v>       0.00000000      -0.00000000      -0.00000000 </v>
   <v>       0.00000000      -0.00000000      -0.00000000 </v>
   <v>      -0.00000000      -0.00000000       0.00000000 </v>
   <v>      -0.00000000      -0.00000000       0.00000000 </v>
   <v>      -0.00000000       0.00000000       0.00000000 </v>
   <v>      -0.00000000      -0.00000000      -0.00000000 </v>
   <v>       0.00000000      -0.00000000      -0.00000000 </v>
   <v>       0.00000000       0.00000000      -0.00000000 </v>
   <v>      -0.00000000      -0.00000000       0.00000000 </v>
   <v>       0.00000000       0.00000000      -0.00000000 </v>
   <v>       0.00000000       0.00000000      -0.00000000 </v>
   <v>       0.00000000       0.00000000      -0.00000000 </v>
   <v>       0.00000000       0.00000000      -0.00000000 </v>
   <v>       0.00000000      -0.00000000      -0.00000000 </v>
   <v>      -0.00000000       0.00000000       0.00000000 </v>
   <v>       0.00000000       0.00000000       0.00000000 </v>
   <v>      -0.00000000      -0.00000000      -0.00000000 </v>
   <v>       0.00000000       0.00000000       0.00000000 </v>
   <v>       0.00000000      -0.00000000       0.00000000 </v>
   <v>       0.00000000       0.00000000      -0.00000000 </v>
   <v>      -0.00000000       0.00000000      -0.00000000 </v>
   <v>       0.00000000      -0.00000000      -0.00000000 </v>
   <v>      -0.00000000      -0.00000000       0.00000000 </v>
   <v>      -0.00000000       0.00000000      -0.00000000 </v>
   <v>      -0.00000000      -0.00000000      -0.00000000 </v>
   <v>      -0.00000000      -0.00000000      -0.00000000 </v>
   <v>      -0.00000000       0.00000000      -0.00000000 </v>
   <v>      -0.00000000       0.00000000       0.00000000 </v>
   <v>      -0.00000000       0.00000000      -0.00000000 </v>
   <v>       0.00000000       0.00000000      -0.00000000 </v>
   <v>      -0.00000000      -0.00000000       0.00000000 </v>
   <v>      -0.00000000      -0.00000000      -0.00000000 </v>
   <v>      -0.00000000      -0.00000000      -0.00000000 </v>
   <v>       0.00000000      -0.00000000       0.00000000 </v>
   <v>      -0.00000000      -0.00000000      -0.00000000 </v>
   <v>      -0.00000000       0.00000000      -0.00000000 </v>
   <v>       0.00000000       0.00000000      -0.00000000 </v>
   <v>      -0.00000000       0.00000000       0.00000000 </v>
   <v>       0.00000000       0.00000000      -0.00000000 </v>
   <v>      -0.00000000       0.00000000       0.00000000 </v>
   <v>       0.00000000       0.00000000       0.00000000 </v>
   <v>       0.00000000       0.00000000      -0.00000000 </v>
   <v>       0.00000000      -0.00000000       0.00000000 </v>
   <v>      -0.00000000      -0.00000000       0.00000000 </v>
   <v>      -0.00000000       0.00000000      -0.00000000 </v>
   <v>      -0.00000000      -0.00000000       0.00000000 </v>
   <v>      -0.00000000      -0.00000000      -0.00000000 </v>
   <v>      -0.00000000       0.00000000      -0.00000000 </v>
   <v>       0.00000000       0.00000000       0.00000000 </v>
   <v>       0.00000000      -0.00000000      -0.00000000 </v>
   <v>      -0.00000000      -0.00000000       0.00000000 </v>
   <v>       0.00000000      -0.00000000       0.00000000 </v>
   <v>       0.00000000      -0.00000000       0.00000000 </v>
   <v>       0.00000000      -0.00000000      -0.00000000 </v>
   <v>      -0.00000000       0.00000000      -0.00000000 </v>
   <v>       0.00000000      -0.00000000       0.00000000 </v>
   <v>      -0.00000000       0.00000000       0.00000000 </v>
   <v>      -0.00000000      -0.00000000      -0.00000000 </v>
   <v>       0.00000000      -0.00000000      -0.00000000 </v>
   <v>       0.00000000       0.00000000       0.00000000 </v>
   <v>      -0.00000000      -0.00000000      -0.00000000 </v>
   <v>      -0.00000000      -0.00000000       0.00000000 </v>
   <v>      -0.00000000       0.00000000       0.00000000 </v>
   <v>       0.00000000      -0.00000000      -0.00000000 </v>
   <v>       0.00000000      -0.00000000      -0.00000000 </v>
   <v>       0.00000000      -0.00000000      -0.00000000 </v>
   <v>       0.00000000      -0.00000000       0.00000000 </v>
   <v>      -0.00000000       0.00000000       0.00000000 </v>
   <v>       0.00000000       0.00000000      -0.00000000 </v>
   <v>      -0.00000000       0.00000000      -0.00000000 </v>
   <v>      -0.00000000      -0.00000000       0.00000000 </v>
   <v>       0.00000000       0.00000000       0.00000000 </v>
   <v>      -0.00000000       0.00000000      -0.00000000 </v>
   <v>      -0.00000000      -0.00000000      -0.00000000 </v>
   <v>      -0.00000000       0.00000000      -0.00000000 </v>
   <v>       0.00000000      -0.00000000       0.00000000 </v>
   <v>       0.00000000       0.00000000       0.00000000 </v>
   <v>      -0.00000000       0.00000000      -0.00000000 </v>
   <v>       0.00000000      -0.00000000       0.00000000 </v>
   <v>       0.00000000      -0.00000000       0.00000000 </v>
   <v>       0.00000000       0.00000000      -0.00000000 </v>
   <v>      -0.00000000      -0.00000000       0.00000000 </v>
   <v>      -0.00000000      -0.00000000       0.00000000 </v>
   <v>      -0.00000000      -0.00000000       0.00000000 </v>
   <v>       0.00000000       0.00000000       0.00000000 </v>
   <v>      -0.00000000       0.00000000      -0.00000000 </v>
   <v>       0.00000000       0.00000000      -0.00000000 </v>
   <v>      -0.00000000       0.00000000      -0.00000000 </v>
   <v>      -0.00000000      -0.00000000       0.00000000 </v>
  </varray>
  <varray name="stress" >
   <v>      -3.79883607       0.00000032       0.00000031 </v>
   <v>       0.00000032      -3.79883577       0.00000002 </v>
   <v>       0.00000031       0.00000002      -3.79883591 </v>
  </varray>
  <energy>
   <i name="e_fr_energy">  -1075.45576512 </i>
   <i name="e_wo_entrp">  -1075.39124475 </i>
   <i name="e_0_energy">  -1075.43425833 </i>
  </energy>
  <time name="totalsc">   56.36   50.08</time>
 </calculation>
 <calculation>
  <scstep>
   <time name="dav">    3.39    3.34</time>
   <time name="total">    3.98    3.66</time>
   <energy>
    <i name="alphaZ">   7508.67029722 </i>
    <i name="ewald">-135480.81405450 </i>
    <i name="hartreedc"> -26998.21983744 </i>
    <i name="XCdc">   6310.69726535 </i>
    <i name="pawpsdc"> 188524.87292330 </i>
    <i name="pawaedc">-185928.02447228 </i>
    <i name="eentropy">     -0.08118319 </i>
    <i name="bandstr"> -19390.66666843 </i>
    <i name="atom"> 164377.91643804 </i>
    <i name="e_fr_energy">  -1075.64929192 </i>
    <i name="e_wo_entrp">  -1075.56810873 </i>
    <i name="e_0_energy">  -1075.62223086 </i>
   </energy>
  </scstep>
  <scstep>
   <time name="dav">    3.46    3.40</time>
   <time name="total">    4.08    3.73</time>
   <energy>
    <i name="e_fr_energy">  -1075.48828266 </i>
    <i name="e_wo_entrp">  -1075.41341548 </i>
    <i name="e_0_energy">  -1075.46332694 </i>
   </energy>
  </scstep>
  <scstep>
   <time name="dav">    3.34    3.29</time>
   <time name="total">    3.96    3.61</time>
   <energy>
    <i name="e_fr_energy">  -1075.45967650 </i>
    <i name="e_wo_entrp">  -1075.38759775 </i>
    <i name="e_0_energy">  -1075.43565025 </i>
   </energy>
  </scstep>
  <scstep>
   <time name="dav">    3.59    3.53</time>
   <time name="total">    4.21    3.86</time>
   <energy>
    <i name="e_fr_energy">  -1075.46494604 </i>
    <i name="e_wo_entrp">  -1075.39241947 </i>
    <i name="e_0_energy">  -1075.44077052 </i>
   </energy>
  </scstep>
  <scstep>
   <time name="dav">    3.58    3.53</time>
   <time name="total">    4.21    3.85</time>
   <energy>
    <i name="e_fr_energy">  -1075.46895742 </i>
    <i name="e_wo_entrp">  -1075.39667810 </i>
    <i name="e_0_energy">  -1075.44486431 </i>
   </energy>
  </scstep>
  <scstep>
   <time name="dav">    3.32    3.27</time>
   <time name="total">    3.95    3.60</time>
   <energy>
    <i name="e_fr_energy">  -1075.46919797 </i>
    <i name="e_wo_entrp">  -1075.39672695 </i>
    <i name="e_0_energy">  -1075.44504096 </i>
   </energy>
  </scstep>
  <scstep>
   <time name="dav">    3.47    3.42</time>
   <time name="total">    4.12    3.75</time>
   <energy>
    <i name="e_fr_energy">  -1075.46922077 </i>
    <i name="e_wo_entrp">  -1075.39674012 </i>
    <i name="e_0_energy">  -1075.44506055 </i>
   </energy>
  </scstep>
  <scstep>
   <time name="dav">    2.01    1.96</time>
   <time name="total">    2.65    2.29</time>
   <energy>
    <i name="e_fr_energy">  -1075.46922603 </i>
    <i name="e_wo_entrp">  -1075.39674058 </i>
    <i name="e_0_energy">  -1075.44506422 </i>
   </energy>
  </scstep>
  <scstep>
   <time name="dav">    1.97    1.93</time>
   <time name="total">    2.62    2.29</time>
   <energy>
    <i name="e_fr_energy">  -1075.46923242 </i>
    <i name="e_wo_entrp">  -1075.39673538 </i>
    <i name="e_0_energy">  -1075.44506674 </i>
   </energy>
  </scstep>
  <scstep>
   <time name="dav">    1.98    1.93</time>
   <time name="total">    2.11    1.95</time>
   <energy>
    <i name="alphaZ">   7508.67029722 </i>
    <i name="ewald">-135480.81405450 </i>
    <i name="hartreedc"> -26901.44321166 </i>
    <i name="XCdc">   6305.49980422 </i>
    <i name="pawpsdc"> 189388.35338793 </i>
    <i name="pawaedc">-186788.47505596 </i>
    <i name="eentropy">     -0.07249776 </i>
    <i name="bandstr"> -19485.10433945 </i>
    <i name="atom"> 164377.91643804 </i>
    <i name="e_fr_energy">  -1075.46923190 </i>
    <i name="e_wo_entrp">  -1075.39673415 </i>
    <i name="e_0_energy">  -1075.44506599 </i>
   </energy>
  </scstep>
  <structure>
   <crystal>
    <varray name="basis" >
     <v>      14.25905567      -0.00000059      -0.00000059 </v>
     <v>      -0.00000060      14.25905512      -0.00000004 </v>
     <v>      -0.00000057      -0.00000004      14.25905538 </v>
    </varray>
    <i name="volume">   2899.16056302 </i>
    <varray name="rec_basis" >
     <v>       0.07013087       0.00000000       0.00000000 </v>
     <v>       0.00000000       0.07013087       0.00000000 </v>
     <v>       0.00000000       0.00000000       0.07013087 </v>
    </varray>
   </crystal>
   <varray name="positions" >
    <v>       0.37500001       0.87499999       0.87499998 </v>
    <v>       0.49999999       0.25000001       0.75000000 </v>
    <v>       0.25000004       0.25000011       0.25000000 </v>
    <v>       0.62499993       0.37499999       0.12499998 </v>
    <v>       0.00000003       1.00000000       0.75000001 </v>
    <v>       0.25000002       1.00000000       0.25000002 </v>
    <v>       0.12500006       0.37500003       0.12500002 </v>
    <v>       0.62499997       0.87499997       0.37499997 </v>
    <v>       0.74999995       0.74999998       0.00000001 </v>
    <v>       0.50000002       0.99999998       0.99999998 </v>
    <v>       0.00000003       0.50000000       0.25000000 </v>
    <v>       0.12500006       0.62499998       0.12500000 </v>
    <v>       0.62499994       0.12500000       0.37499995 </v>
    <v>       0.37500006       0.12500002       0.37499999 </v>
    <v>       0.50000000       0.25000002       0.99999999 </v>
    <v>       0.50000000       0.74999996       0.99999998 </v>
    <v>       0.99999998       0.74999998       0.99999999 </v>
    <v>       0.50000002       0.50000000       0.50000001 </v>
    <v>       0.37500001       0.37500004       0.12500003 </v>
    <v>       0.62499995       0.12500006       0.87500002 </v>
    <v>       0.25000003       0.25000007       0.00000002 </v>
    <v>       0.12500008       0.87500000       0.62500001 </v>
    <v>       0.99999996       0.74999998       0.25000000 </v>
    <v>       0.74999996       0.99999999       0.49999994 </v>
    <v>       0.74999996       1.00000000       0.75000004 </v>
    <v>       0.87500000       0.12499998       0.37499997 </v>
    <v>       0.99999997       0.00000000       0.00000002 </v>
    <v>       0.25000006       0.99999998       0.99999995 </v>
    <v>       0.87499996       0.12500007       0.87500003 </v>
    <v>       0.62500000       0.37500007       0.62500003 </v>
    <v>       0.49999998       0.25000003       0.25000001 </v>
    <v>       0.74999998       0.25000004       0.50000001 </v>
    <v>       0.62499998       0.62499993       0.62499999 </v>
    <v>       0.12500001       0.62500004       0.62500004 </v>
    <v>       0.99999994       0.00000001       0.25000000 </v>
    <v>       0.25000006       1.00000000       0.50000008 </v>
    <v>       0.87499996       0.62500002       0.37500000 </v>
    <v>       0.25000007       0.74999994       0.24999999 </v>
    <v>       0.37500007       0.37500002       0.87500003 </v>
    <v>       0.25000009       0.75000002       0.75000001 </v>
    <v>       0.74999994       0.50000001       0.50000004 </v>
    <v>       0.87500000       0.12500006       0.62500000 </v>
    <v>       0.87499994       0.37500001       0.87499996 </v>
    <v>       0.74999995       0.24999995       0.24999999 </v>
    <v>       0.25000007       0.99999999       0.74999995 </v>
    <v>       0.12500001       0.87499997       0.37500001 </v>
    <v>       0.25000006       0.75000002       0.50000003 </v>
    <v>       0.12500005       0.12499996       0.62500000 </v>
    <v>       0.00000003       0.25000000       0.25000000 </v>
    <v>       0.00000002       0.50000000       0.99999999 </v>
    <v>       0.99999999       0.74999998       0.49999998 </v>
    <v>       0.37500003       0.62500001       0.87500002 </v>
    <v>       0.49999998       0.75000000       0.75000002 </v>
    <v>       0.62499993       0.37500005       0.37500003 </v>
    <v>       0.62499995       0.87500000       0.12500003 </v>
    <v>       0.12500001       0.12500002       0.37500001 </v>
    <v>       0.25000004       0.50000002       0.75000004 </v>
    <v>       0.25000008       0.49999999       0.00000004 </v>
    <v>       0.99999996       0.50000000       0.75000002 </v>
    <v>       0.37500006       0.87499995       0.12499998 </v>
    <v>       0.74999999       0.00000000       0.25000000 </v>
    <v>       0.87499999       0.37500000       0.12499996 </v>
    <v>       0.62499994       0.62500000       0.12500000 </v>
    <v>       0.37500004       0.62499998       0.37499997 </v>
    <v>       0.62499994       0.62499994       0.87499997 </v>
    <v>       0.74999996       0.49999999       0.74999998 </v>
    <v>       0.74999996       0.00000001       0.00000002 </v>
    <v>       0.62499992       0.87499996       0.62499998 </v>
    <v>       0.25000007       0.49999999       0.49999995 </v>
    <v>       0.00000002       0.00000002       0.49999998 </v>
    <v>       0.12500004       0.37500001       0.37499993 </v>
    <v>       0.87499998       0.37500003       0.37500003 </v>
    <v>       0.25000007       0.24999996       0.74999999 </v>
    <v>       0.25000003       0.25000000       0.49999999 </v>
    <v>       0.74999997       0.50000006       0.25000001 </v>
    <v>       0.37500002       0.62499997       0.12500000 </v>
    <v>       0.50000001       0.74999997       0.24999998 </v>
    <v>       0.87499999       0.62500001       0.12500002 </v>
    <v>       0.37500004       0.87499997       0.37500002 </v>
    <v>       0.50000005       1.00000000       0.24999999 </v>
    <v>       0.74999996       0.74999999       0.24999999 </v>
    <v>       0.50000003       0.50000002       0.75000002 </v>
    <v>       0.99999998       0.49999999       0.50000000 </v>
    <v>       0.87499997       0.12500001       0.12500001 </v>
    <v>       0.00000001       0.74999998       0.75000001 </v>
    <v>       0.87499999       0.62499995       0.87499998 </v>
    <v>       0.37500007       0.62500002       0.62500001 </v>
    <v>       0.74999997       0.24999998       0.99999997 </v>
    <v>       0.37500002       0.12499997       0.62500004 </v>
    <v>       0.99999998       0.25000003       0.75000000 </v>
    <v>       0.62499995       0.12500000       0.12499999 </v>
    <v>       0.49999994       0.99999997       0.75000001 </v>
    <v>       0.49999996       0.99999998       0.50000002 </v>
    <v>       0.87500000       0.87499996       0.62499998 </v>
    <v>       0.87499999       0.87499999       0.12500004 </v>
    <v>       0.87499993       0.37500005       0.62500005 </v>
    <v>       0.74999993       0.74999995       0.75000002 </v>
    <v>       0.37500005       0.37500003       0.37499993 </v>
    <v>       0.12500000       0.37500004       0.87500003 </v>
    <v>       0.87499997       0.87499997       0.37499997 </v>
    <v>       0.62499991       0.87499999       0.87500002 </v>
    <v>       0.87500001       0.87499998       0.87500002 </v>
    <v>       0.62499994       0.12500004       0.62500004 </v>
    <v>       0.49999996       0.50000004       0.00000000 </v>
    <v>       0.12499997       0.37500000       0.62500002 </v>
    <v>       0.74999994       0.50000003       0.99999997 </v>
    <v>       0.87499995       0.62499993       0.62500000 </v>
    <v>       0.49999998       0.25000004       0.50000000 </v>
    <v>       0.12500003       0.62500001       0.37499996 </v>
    <v>       0.49999999       0.74999999       0.50000003 </v>
    <v>       0.62500000       0.37500001       0.87499996 </v>
    <v>       0.25000007       0.74999996       0.99999997 </v>
    <v>       0.37500000       0.87500001       0.62500003 </v>
    <v>       0.12500001       0.87499996       0.12499999 </v>
    <v>       0.25000005       0.49999995       0.24999997 </v>
    <v>       0.74999996       0.25000007       0.75000002 </v>
    <v>       0.37500011       0.37500002       0.62500001 </v>
    <v>       0.12500006       0.87499996       0.87499998 </v>
    <v>       0.49999994       0.50000001       0.24999998 </v>
    <v>       0.00000002       0.25000001       0.50000000 </v>
    <v>       0.62499996       0.62499999       0.37500003 </v>
    <v>       0.37500005       0.12499997       0.87499997 </v>
    <v>       0.37500008       0.12500003       0.12500001 </v>
    <v>       0.74999996       0.74999996       0.49999998 </v>
    <v>       1.00000000       0.25000001       1.00000000 </v>
    <v>       0.12500000       0.12500003       0.12500000 </v>
    <v>       0.12500004       0.12500000       0.87499997 </v>
    <v>       0.12500004       0.62500000       0.87500000 </v>
   </varray>
  </structure>
  <varray name="forces" >
   <v>       0.00000000      -0.00000000       0.00000000 </v>
   <v>      -0.00000000      -0.00000000       0.00000000 </v>
   <v>       0.00000000       0.00000000      -0.00000000 </v>
   <v>       0.00000000       0.00000000      -0.00000000 </v>
   <v>       0.00000000      -0.00000000       0.00000000 </v>
   <v>      -0.00000000      -0.00000000       0.00000000 </v>
   <v>       0.00000000      -0.00000000      -0.00000000 </v>
   <v>      -0.00000000      -0.00000000       0.00000000 </v>
   <v>       0.00000000      -0.00000000       0.00000000 </v>
   <v>      -0.00000000       0.00000000      -0.00000000 </v>
   <v>      -0.00000000       0.00000000      -0.00000000 </v>
   <v>       0.00000000       0.00000000      -0.00000000 </v>
   <v>       0.00000000       0.00000000       0.00000000 </v>
   <v>       0.00000000       0.00000000       0.00000000 </v>
   <v>      -0.00000000       0.00000000       0.00000000 </v>
   <v>      -0.00000000       0.00000000      -0.00000000 </v>
   <v>      -0.00000000       0.00000000       0.00000000 </v>
   <v>      -0.00000000      -0.00000000       0.00000000 </v>
   <v>      -0.00000000       0.00000000      -0.00000000 </v>
   <v>      -0.00000000       0.00000000       0.00000000 </v>
   <v>      -0.00000000      -0.00000000      -0.00000000 </v>
   <v>       0.00000000      -0.00000000      -0.00000000 </v>
   <v>      -0.00000000       0.00000000      -0.00000000 </v>
   <v>      -0.00000000       0.00000000       0.00000000 </v>
   <v>       0.00000000       0.00000000       0.00000000 </v>
   <v>       0.00000000       0.00000000       0.00000000 </v>
   <v>      -0.00000000      -0.00000000      -0.00000000 </v>
   <v>      -0.00000000       0.00000000      -0.00000000 </v>
   <v>       0.00000000      -0.00000000      -0.00000000 </v>
   <v>      -0.00000000      -0.00000000       0.00000000 </v>
   <v>      -0.00000000      -0.00000000      -0.00000000 </v>
   <v>      -0.00000000      -0.00000000       0.00000000 </v>
   <v>      -0.00000000       0.00000000       0.00000000 </v>
   <v>      -0.00000000      -0.00000000       0.00000000 </v>
   <v>      -0.00000000      -0.00000000       0.00000000 </v>
   <v>       0.00000000       0.00000000      -0.00000000 </v>
   <v>       0.00000000      -0.00000000       0.00000000 </v>
   <v>       0.00000000       0.00000000      -0.00000000 </v>
   <v>      -0.00000000      -0.00000000       0.00000000 </v>
   <v>       0.00000000      -0.00000000       0.00000000 </v>
   <v>      -0.00000000       0.00000000      -0.00000000 </v>
   <v>       0.00000000       0.00000000       0.00000000 </v>
   <v>      -0.00000000      -0.00000000      -0.00000000 </v>
   <v>       0.00000000       0.00000000      -0.00000000 </v>
   <v>       0.00000000      -0.00000000       0.00000000 </v>
   <v>      -0.00000000      -0.00000000      -0.00000000 </v>
   <v>      -0.00000000      -0.00000000      -0.00000000 </v>
   <v>       0.00000000      -0.00000000      -0.00000000 </v>
   <v>       0.00000000      -0.00000000       0.00000000 </v>
   <v>       0.00000000       0.00000000       0.00000000 </v>
   <v>      -0.00000000      -0.00000000      -0.00000000 </v>
   <v>       0.00000000      -0.00000000      -0.00000000 </v>
   <v>       0.00000000       0.00000000      -0.00000000 </v>
   <v>      -0.00000000      -0.00000000       0.00000000 </v>
   <v>      -0.00000000       0.00000000      -0.00000000 </v>
   <v>      -0.00000000      -0.00000000      -0.00000000 </v>
   <v>       0.00000000       0.00000000       0.00000000 </v>
   <v>       0.00000000       0.00000000       0.00000000 </v>
   <v>      -0.00000000      -0.00000000       0.00000000 </v>
   <v>      -0.00000000      -0.00000000      -0.00000000 </v>
   <v>      -0.00000000       0.00000000      -0.00000000 </v>
   <v>       0.00000000       0.00000000      -0.00000000 </v>
   <v>       0.00000000       0.00000000      -0.00000000 </v>
   <v>      -0.00000000      -0.00000000       0.00000000 </v>
   <v>       0.00000000       0.00000000      -0.00000000 </v>
   <v>      -0.00000000       0.00000000       0.00000000 </v>
   <v>      -0.00000000       0.00000000      -0.00000000 </v>
   <v>       0.00000000       0.00000000      -0.00000000 </v>
   <v>       0.00000000       0.00000000      -0.00000000 </v>
   <v>       0.00000000      -0.00000000       0.00000000 </v>
   <v>       0.00000000      -0.00000000       0.00000000 </v>
   <v>      -0.00000000       0.00000000      -0.00000000 </v>
   <v>      -0.00000000      -0.00000000       0.00000000 </v>
   <v>       0.00000000      -0.00000000       0.00000000 </v>
   <v>       0.00000000      -0.00000000      -0.00000000 </v>
   <v>       0.00000000      -0.00000000      -0.00000000 </v>
   <v>      -0.00000000       0.00000000       0.00000000 </v>
   <v>      -0.00000000      -0.00000000       0.00000000 </v>
   <v>      -0.00000000       0.00000000       0.00000000 </v>
   <v>      -0.00000000       0.00000000      -0.00000000 </v>
   <v>       0.00000000       0.00000000       0.00000000 </v>
   <v>       0.00000000      -0.00000000       0.00000000 </v>
   <v>       0.00000000       0.00000000       0.00000000 </v>
   <v>       0.00000000       0.00000000      -0.00000000 </v>
   <v>      -0.00000000       0.00000000      -0.00000000 </v>
   <v>       0.00000000      -0.00000000       0.00000000 </v>
   <v>       0.00000000      -0.00000000       0.00000000 </v>
   <v>      -0.00000000      -0.00000000      -0.00000000 </v>
   <v>       0.00000000      -0.00000000      -0.00000000 </v>
   <v>       0.00000000       0.00000000      -0.00000000 </v>
   <v>      -0.00000000       0.00000000       0.00000000 </v>
   <v>       0.00000000       0.00000000       0.00000000 </v>
   <v>       0.00000000      -0.00000000      -0.00000000 </v>
   <v>      -0.00000000       0.00000000      -0.00000000 </v>
   <v>      -0.00000000       0.00000000       0.00000000 </v>
   <v>       0.00000000      -0.00000000       0.00000000 </v>
   <v>       0.00000000       0.00000000       0.00000000 </v>
   <v>      -0.00000000       0.00000000      -0.00000000 </v>
   <v>       0.00000000       0.00000000      -0.00000000 </v>
   <v>      -0.00000000       0.00000000      -0.00000000 </v>
   <v>      -0.00000000      -0.00000000      -0.00000000 </v>
   <v>       0.00000000       0.00000000       0.00000000 </v>
   <v>      -0.00000000       0.00000000      -0.00000000 </v>
   <v>      -0.00000000       0.00000000      -0.00000000 </v>
   <v>       0.00000000       0.00000000       0.00000000 </v>
   <v>      -0.00000000      -0.00000000       0.00000000 </v>
   <v>      -0.00000000       0.00000000      -0.00000000 </v>
   <v>       0.00000000       0.00000000      -0.00000000 </v>
   <v>      -0.00000000       0.00000000      -0.00000000 </v>
   <v>      -0.00000000      -0.00000000      -0.00000000 </v>
   <v>      -0.00000000       0.00000000      -0.00000000 </v>
   <v>       0.00000000      -0.00000000       0.00000000 </v>
   <v>       0.00000000      -0.00000000      -0.00000000 </v>
   <v>      -0.00000000      -0.00000000      -0.00000000 </v>
   <v>      -0.00000000       0.00000000      -0.00000000 </v>
   <v>      -0.00000000      -0.00000000       0.00000000 </v>
   <v>      -0.00000000       0.00000000       0.00000000 </v>
   <v>       0.00000000       0.00000000       0.00000000 </v>
   <v>       0.00000000      -0.00000000      -0.00000000 </v>
   <v>      -0.00000000      -0.00000000      -0.00000000 </v>
   <v>      -0.00000000      -0.00000000      -0.00000000 </v>
   <v>      -0.00000000       0.00000000      -0.00000000 </v>
   <v>      -0.00000000      -0.00000000       0.00000000 </v>
   <v>       0.00000000      -0.00000000       0.00000000 </v>
   <v>      -0.00000000       0.00000000      -0.00000000 </v>
   <v>      -0.00000000      -0.00000000      -0.00000000 </v>
   <v>      -0.00000000       0.00000000      -0.00000000 </v>
   <v>       0.00000000       0.00000000       0.00000000 </v>
  </varray>
  <varray name="stress" >
   <v>      -0.61666602       0.00000005       0.00000005 </v>
   <v>       0.00000005      -0.61666597       0.00000000 </v>
   <v>       0.00000005       0.00000000      -0.61666599 </v>
  </varray>
  <energy>
   <i name="e_fr_energy">  -1075.46923190 </i>
   <i name="e_wo_entrp">  -1075.39673415 </i>
   <i name="e_0_energy">  -1075.44506599 </i>
  </energy>
  <time name="totalsc">   41.65   36.80</time>
 </calculation>
 <calculation>
  <scstep>
   <time name="dav">    3.40    3.35</time>
   <time name="total">    3.99    3.67</time>
   <energy>
    <i name="alphaZ">   7513.99398960 </i>
    <i name="ewald">-135512.82539411 </i>
    <i name="hartreedc"> -26907.80482997 </i>
    <i name="XCdc">   6306.91963342 </i>
    <i name="pawpsdc"> 189388.22294889 </i>
    <i name="pawaedc">-186788.34224942 </i>
    <i name="eentropy">     -0.07580146 </i>
    <i name="bandstr"> -19453.48075637 </i>
    <i name="atom"> 164377.91643804 </i>
    <i name="e_fr_energy">  -1075.47602138 </i>
    <i name="e_wo_entrp">  -1075.40021992 </i>
    <i name="e_0_energy">  -1075.45075423 </i>
   </energy>
  </scstep>
  <scstep>
   <time name="dav">    3.45    3.39</time>
   <time name="total">    4.07    3.74</time>
   <energy>
    <i name="e_fr_energy">  -1075.46989392 </i>
    <i name="e_wo_entrp">  -1075.39542317 </i>
    <i name="e_0_energy">  -1075.44507033 </i>
   </energy>
  </scstep>
  <scstep>
   <time name="dav">    3.34    3.29</time>
   <time name="total">    3.97    3.62</time>
   <energy>
    <i name="e_fr_energy">  -1075.46880502 </i>
    <i name="e_wo_entrp">  -1075.39488892 </i>
    <i name="e_0_energy">  -1075.44416632 </i>
   </energy>
  </scstep>
  <scstep>
   <time name="dav">    3.55    3.49</time>
   <time name="total">    4.17    3.82</time>
   <energy>
    <i name="e_fr_energy">  -1075.46908543 </i>
    <i name="e_wo_entrp">  -1075.39508257 </i>
    <i name="e_0_energy">  -1075.44441781 </i>
   </energy>
  </scstep>
  <scstep>
   <time name="dav">    3.59    3.53</time>
   <time name="total">    4.22    3.86</time>
   <energy>
    <i name="e_fr_energy">  -1075.46934210 </i>
    <i name="e_wo_entrp">  -1075.39538630 </i>
    <i name="e_0_energy">  -1075.44469017 </i>
   </energy>
  </scstep>
  <scstep>
   <time name="dav">    3.12    3.07</time>
   <time name="total">    3.75    3.40</time>
   <energy>
    <i name="e_fr_energy">  -1075.46937421 </i>
    <i name="e_wo_entrp">  -1075.39538396 </i>
    <i name="e_0_energy">  -1075.44471079 </i>
   </energy>
  </scstep>
  <scstep>
   <time name="dav">    1.98    1.94</time>
   <time name="total">    2.62    2.27</time>
   <energy>
    <i name="e_fr_energy">  -1075.46938003 </i>
    <i name="e_wo_entrp">  -1075.39538718 </i>
    <i name="e_0_energy">  -1075.44471574 </i>
   </energy>
  </scstep>
  <scstep>
   <time name="dav">    1.95    1.91</time>
   <time name="total">    2.60    2.23</time>
   <energy>
    <i name="e_fr_energy">  -1075.46938177 </i>
    <i name="e_wo_entrp">  -1075.39538796 </i>
    <i name="e_0_energy">  -1075.44471716 </i>
   </energy>
  </scstep>
  <scstep>
   <time name="dav">    1.96    1.92</time>
   <time name="total">    2.60    2.24</time>
   <energy>
    <i name="e_fr_energy">  -1075.46938280 </i>
    <i name="e_wo_entrp">  -1075.39538635 </i>
    <i name="e_0_energy">  -1075.44471731 </i>
   </energy>
  </scstep>
  <scstep>
   <time name="dav">    1.95    1.91</time>
   <time name="total">    2.30    2.15</time>
   <energy>
    <i name="alphaZ">   7513.99398960 </i>
    <i name="ewald">-135512.82539411 </i>
    <i name="hartreedc"> -26889.19103513 </i>
    <i name="XCdc">   6305.91979910 </i>
    <i name="pawpsdc"> 189555.40027702 </i>
    <i name="pawaedc">-186954.94054717 </i>
    <i name="eentropy">     -0.07399668 </i>
    <i name="bandstr"> -19471.66891313 </i>
    <i name="atom"> 164377.91643804 </i>
    <i name="e_fr_energy">  -1075.46938247 </i>
    <i name="e_wo_entrp">  -1075.39538579 </i>
    <i name="e_0_energy">  -1075.44471691 </i>
   </energy>
  </scstep>
  <structure>
   <crystal>
    <varray name="basis" >
     <v>      14.25568735      -0.00000059      -0.00000059 </v>
     <v>      -0.00000060      14.25568680      -0.00000004 </v>
     <v>      -0.00000057      -0.00000004      14.25568705 </v>
    </varray>
    <i name="volume">   2897.10649710 </i>
    <varray name="rec_basis" >
     <v>       0.07014744       0.00000000       0.00000000 </v>
     <v>       0.00000000       0.07014744       0.00000000 </v>
     <v>       0.00000000       0.00000000       0.07014744 </v>
    </varray>
   </crystal>
   <varray name="positions" >
    <v>       0.37500001       0.87499999       0.87499998 </v>
    <v>       0.49999999       0.25000001       0.75000000 </v>
    <v>       0.25000004       0.25000011       0.25000000 </v>
    <v>       0.62499993       0.37499999       0.12499998 </v>
    <v>       0.00000003       1.00000000       0.75000001 </v>
    <v>       0.25000002       1.00000000       0.25000002 </v>
    <v>       0.12500006       0.37500003       0.12500002 </v>
    <v>       0.62499997       0.87499997       0.37499997 </v>
    <v>       0.74999995       0.74999998       0.00000001 </v>
    <v>       0.50000002       0.99999998       0.99999998 </v>
    <v>       0.00000003       0.50000000       0.25000000 </v>
    <v>       0.12500006       0.62499998       0.12500000 </v>
    <v>       0.62499994       0.12500000       0.37499995 </v>
    <v>       0.37500006       0.12500002       0.37499999 </v>
    <v>       0.50000000       0.25000002       0.99999999 </v>
    <v>       0.50000000       0.74999996       0.99999998 </v>
    <v>       0.99999998       0.74999998       0.99999999 </v>
    <v>       0.50000002       0.50000000       0.50000001 </v>
    <v>       0.37500001       0.37500004       0.12500003 </v>
    <v>       0.62499995       0.12500006       0.87500002 </v>
    <v>       0.25000003       0.25000007       0.00000002 </v>
    <v>       0.12500008       0.87500000       0.62500001 </v>
    <v>       0.99999996       0.74999998       0.25000000 </v>
    <v>       0.74999996       0.99999999       0.49999994 </v>
    <v>       0.74999996       1.00000000       0.75000004 </v>
    <v>       0.87500000       0.12499998       0.37499997 </v>
    <v>       0.99999997       0.00000000       0.00000002 </v>
    <v>       0.25000006       0.99999998       0.99999995 </v>
    <v>       0.87499996       0.12500007       0.87500003 </v>
    <v>       0.62500000       0.37500007       0.62500003 </v>
    <v>       0.49999998       0.25000003       0.25000001 </v>
    <v>       0.74999998       0.25000004       0.50000001 </v>
    <v>       0.62499998       0.62499993       0.62499999 </v>
    <v>       0.12500001       0.62500004       0.62500004 </v>
    <v>       0.99999994       0.00000001       0.25000000 </v>
    <v>       0.25000006       1.00000000       0.50000008 </v>
    <v>       0.87499996       0.62500002       0.37500000 </v>
    <v>       0.25000007       0.74999994       0.24999999 </v>
    <v>       0.37500007       0.37500002       0.87500003 </v>
    <v>       0.25000009       0.75000002       0.75000001 </v>
    <v>       0.74999994       0.50000001       0.50000004 </v>
    <v>       0.87500000       0.12500006       0.62500000 </v>
    <v>       0.87499994       0.37500001       0.87499996 </v>
    <v>       0.74999995       0.24999995       0.24999999 </v>
    <v>       0.25000007       0.99999999       0.74999995 </v>
    <v>       0.12500001       0.87499997       0.37500001 </v>
    <v>       0.25000006       0.75000002       0.50000003 </v>
    <v>       0.12500005       0.12499996       0.62500000 </v>
    <v>       0.00000003       0.25000000       0.25000000 </v>
    <v>       0.00000002       0.50000000       0.99999999 </v>
    <v>       0.99999999       0.74999998       0.49999998 </v>
    <v>       0.37500003       0.62500001       0.87500002 </v>
    <v>       0.49999998       0.75000000       0.75000002 </v>
    <v>       0.62499993       0.37500005       0.37500003 </v>
    <v>       0.62499995       0.87500000       0.12500003 </v>
    <v>       0.12500001       0.12500002       0.37500001 </v>
    <v>       0.25000004       0.50000002       0.75000004 </v>
    <v>       0.25000008       0.49999999       0.00000004 </v>
    <v>       0.99999996       0.50000000       0.75000002 </v>
    <v>       0.37500006       0.87499995       0.12499998 </v>
    <v>       0.74999999       0.00000000       0.25000000 </v>
    <v>       0.87499999       0.37500000       0.12499996 </v>
    <v>       0.62499994       0.62500000       0.12500000 </v>
    <v>       0.37500004       0.62499998       0.37499997 </v>
    <v>       0.62499994       0.62499994       0.87499997 </v>
    <v>       0.74999996       0.49999999       0.74999998 </v>
    <v>       0.74999996       0.00000001       0.00000002 </v>
    <v>       0.62499992       0.87499996       0.62499998 </v>
    <v>       0.25000007       0.49999999       0.49999995 </v>
    <v>       0.00000002       0.00000002       0.49999998 </v>
    <v>       0.12500004       0.37500001       0.37499993 </v>
    <v>       0.87499998       0.37500003       0.37500003 </v>
    <v>       0.25000007       0.24999996       0.74999999 </v>
    <v>       0.25000003       0.25000000       0.49999999 </v>
    <v>       0.74999997       0.50000006       0.25000001 </v>
    <v>       0.37500002       0.62499997       0.12500000 </v>
    <v>       0.50000001       0.74999997       0.24999998 </v>
    <v>       0.87499999       0.62500001       0.12500002 </v>
    <v>       0.37500004       0.87499997       0.37500002 </v>
    <v>       0.50000005       1.00000000       0.24999999 </v>
    <v>       0.74999996       0.74999999       0.24999999 </v>
    <v>       0.50000003       0.50000002       0.75000002 </v>
    <v>       0.99999998       0.49999999       0.50000000 </v>
    <v>       0.87499997       0.12500001       0.12500001 </v>
    <v>       0.00000001       0.74999998       0.75000001 </v>
    <v>       0.87499999       0.62499995       0.87499998 </v>
    <v>       0.37500007       0.62500002       0.62500001 </v>
    <v>       0.74999997       0.24999998       0.99999997 </v>
    <v>       0.37500002       0.12499997       0.62500004 </v>
    <v>       0.99999998       0.25000003       0.75000000 </v>
    <v>       0.62499995       0.12500000       0.12499999 </v>
    <v>       0.49999994       0.99999997       0.75000001 </v>
    <v>       0.49999996       0.99999998       0.50000002 </v>
    <v>       0.87500000       0.87499996       0.62499998 </v>
    <v>       0.87499999       0.87499999       0.12500004 </v>
    <v>       0.87499993       0.37500005       0.62500005 </v>
    <v>       0.74999993       0.74999995       0.75000002 </v>
    <v>       0.37500005       0.37500003       0.37499993 </v>
    <v>       0.12500000       0.37500004       0.87500003 </v>
    <v>       0.87499997       0.87499997       0.37499997 </v>
    <v>       0.62499991       0.87499999       0.87500002 </v>
    <v>       0.87500001       0.87499998       0.87500002 </v>
    <v>       0.62499994       0.12500004       0.62500004 </v>
    <v>       0.49999996       0.50000004       0.00000000 </v>
    <v>       0.12499997       0.37500000       0.62500002 </v>
    <v>       0.74999994       0.50000003       0.99999997 </v>
    <v>       0.87499995       0.62499993       0.62500000 </v>
    <v>       0.49999998       0.25000004       0.50000000 </v>
    <v>       0.12500003       0.62500001       0.37499996 </v>
    <v>       0.49999999       0.74999999       0.50000003 </v>
    <v>       0.62500000       0.37500001       0.87499996 </v>
    <v>       0.25000007       0.74999996       0.99999997 </v>
    <v>       0.37500000       0.87500001       0.62500003 </v>
    <v>       0.12500001       0.87499996       0.12499999 </v>
    <v>       0.25000005       0.49999995       0.24999997 </v>
    <v>       0.74999996       0.25000007       0.75000002 </v>
    <v>       0.37500011       0.37500002       0.62500001 </v>
    <v>       0.12500006       0.87499996       0.87499998 </v>
    <v>       0.49999994       0.50000001       0.24999998 </v>
    <v>       0.00000002       0.25000001       0.50000000 </v>
    <v>       0.62499996       0.62499999       0.37500003 </v>
    <v>       0.37500005       0.12499997       0.87499997 </v>
    <v>       0.37500008       0.12500003       0.12500001 </v>
    <v>       0.74999996       0.74999996       0.49999998 </v>
    <v>       1.00000000       0.25000001       1.00000000 </v>
    <v>       0.12500000       0.12500003       0.12500000 </v>
    <v>       0.12500004       0.12500000       0.87499997 </v>
    <v>       0.12500004       0.62500000       0.87500000 </v>
   </varray>
  </structure>
  <varray name="forces" >
   <v>       0.00000000       0.00000000      -0.00000000 </v>
   <v>      -0.00000000       0.00000000       0.00000000 </v>
   <v>      -0.00000000      -0.00000000      -0.00000000 </v>
   <v>       0.00000000       0.00000000       0.00000000 </v>
   <v>      -0.00000000      -0.00000000       0.00000000 </v>
   <v>      -0.00000000       0.00000000      -0.00000000 </v>
   <v>      -0.00000000      -0.00000000      -0.00000000 </v>
   <v>       0.00000000       0.00000000      -0.00000000 </v>
   <v>      -0.00000000       0.00000000       0.00000000 </v>
   <v>      -0.00000000      -0.00000000       0.00000000 </v>
   <v>       0.00000000       0.00000000      -0.00000000 </v>
   <v>       0.00000000      -0.00000000      -0.00000000 </v>
   <v>       0.00000000      -0.00000000      -0.00000000 </v>
   <v>      -0.00000000      -0.00000000      -0.00000000 </v>
   <v>      -0.00000000       0.00000000      -0.00000000 </v>
   <v>       0.00000000       0.00000000      -0.00000000 </v>
   <v>       0.00000000      -0.00000000       0.00000000 </v>
   <v>       0.00000000      -0.00000000       0.00000000 </v>
   <v>      -0.00000000      -0.00000000       0.00000000 </v>
   <v>      -0.00000000      -0.00000000       0.00000000 </v>
   <v>      -0.00000000      -0.00000000       0.00000000 </v>
   <v>      -0.00000000       0.00000000      -0.00000000 </v>
   <v>       0.00000000      -0.00000000      -0.00000000 </v>
   <v>      -0.00000000      -0.00000000      -0.00000000 </v>
   <v>      -0.00000000      -0.00000000       0.00000000 </v>
   <v>      -0.00000000       0.00000000       0.00000000 </v>
   <v>       0.00000000      -0.00000000      -0.00000000 </v>
   <v>       0.00000000       0.00000000      -0.00000000 </v>
   <v>      -0.00000000       0.00000000      -0.00000000 </v>
   <v>       0.00000000       0.00000000       0.00000000 </v>
   <v>      -0.00000000      -0.00000000      -0.00000000 </v>
   <v>      -0.00000000      -0.00000000      -0.00000000 </v>
   <v>      -0.00000000       0.00000000       0.00000000 </v>
   <v>       0.00000000       0.00000000      -0.00000000 </v>
   <v>       0.00000000       0.00000000      -0.00000000 </v>
   <v>      -0.00000000      -0.00000000       0.00000000 </v>
   <v>       0.00000000      -0.00000000      -0.00000000 </v>
   <v>      -0.00000000      -0.00000000       0.00000000 </v>
   <v>      -0.00000000      -0.00000000      -0.00000000 </v>
   <v>       0.00000000      -0.00000000       0.00000000 </v>
   <v>      -0.00000000       0.00000000       0.00000000 </v>
   <v>      -0.00000000       0.00000000       0.00000000 </v>
   <v>       0.00000000       0.00000000       0.00000000 </v>
   <v>      -0.00000000       0.00000000      -0.00000000 </v>
   <v>       0.00000000       0.00000000      -0.00000000 </v>
   <v>      -0.00000000       0.00000000      -0.00000000 </v>
   <v>      -0.00000000       0.00000000      -0.00000000 </v>
   <v>      -0.00000000      -0.00000000       0.00000000 </v>
   <v>      -0.00000000       0.00000000      -0.00000000 </v>
   <v>      -0.00000000      -0.00000000      -0.00000000 </v>
   <v>       0.00000000      -0.00000000      -0.00000000 </v>
   <v>       0.00000000      -0.00000000       0.00000000 </v>
   <v>      -0.00000000      -0.00000000      -0.00000000 </v>
   <v>       0.00000000       0.00000000      -0.00000000 </v>
   <v>      -0.00000000      -0.00000000       0.00000000 </v>
   <v>      -0.00000000       0.00000000       0.00000000 </v>
   <v>      -0.00000000      -0.00000000      -0.00000000 </v>
   <v>      -0.00000000       0.00000000       0.00000000 </v>
   <v>       0.00000000      -0.00000000       0.00000000 </v>
   <v>      -0.00000000      -0.00000000      -0.00000000 </v>
   <v>       0.00000000      -0.00000000       0.00000000 </v>
   <v>      -0.00000000       0.00000000       0.00000000 </v>
   <v>      -0.00000000      -0.00000000      -0.00000000 </v>
   <v>       0.00000000      -0.00000000      -0.00000000 </v>
   <v>       0.00000000       0.00000000      -0.00000000 </v>
   <v>       0.00000000       0.00000000       0.00000000 </v>
   <v>       0.00000000       0.00000000       0.00000000 </v>
   <v>      -0.00000000      -0.00000000       0.00000000 </v>
   <v>      -0.00000000       0.00000000       0.00000000 </v>
   <v>      -0.00000000       0.00000000       0.00000000 </v>
   <v>       0.00000000      -0.00000000      -0.00000000 </v>
   <v>      -0.00000000      -0.00000000       0.00000000 </v>
   <v>       0.00000000       0.00000000       0.00000000 </v>
   <v>      -0.00000000      -0.00000000      -0.00000000 </v>
   <v>      -0.00000000      -0.00000000       0.00000000 </v>
   <v>       0.00000000       0.00000000      -0.00000000 </v>
   <v>      -0.00000000       0.00000000       0.00000000 </v>
   <v>       0.00000000      -0.00000000      -0.00000000 </v>
   <v>      -0.00000000      -0.00000000       0.00000000 </v>
   <v>      -0.00000000      -0.00000000      -0.00000000 </v>
   <v>       0.00000000      -0.00000000       0.00000000 </v>
   <v>      -0.00000000       0.00000000      -0.00000000 </v>
   <v>       0.00000000       0.00000000      -0.00000000 </v>
   <v>       0.00000000       0.00000000      -0.00000000 </v>
   <v>      -0.00000000      -0.00000000      -0.00000000 </v>
   <v>      -0.00000000       0.00000000      -0.00000000 </v>
   <v>      -0.00000000       0.00000000       0.00000000 </v>
   <v>      -0.00000000      -0.00000000       0.00000000 </v>
   <v>       0.00000000      -0.00000000      -0.00000000 </v>
   <v>      -0.00000000       0.00000000      -0.00000000 </v>
   <v>      -0.00000000      -0.00000000      -0.00000000 </v>
   <v>       0.00000000       0.00000000       0.00000000 </v>
   <v>       0.00000000       0.00000000       0.00000000 </v>
   <v>      -0.00000000      -0.00000000      -0.00000000 </v>
   <v>       0.00000000      -0.00000000      -0.00000000 </v>
   <v>      -0.00000000       0.00000000       0.00000000 </v>
   <v>       0.00000000      -0.00000000       0.00000000 </v>
   <v>      -0.00000000      -0.00000000      -0.00000000 </v>
   <v>       0.00000000      -0.00000000       0.00000000 </v>
   <v>       0.00000000      -0.00000000      -0.00000000 </v>
   <v>      -0.00000000      -0.00000000       0.00000000 </v>
   <v>      -0.00000000      -0.00000000       0.00000000 </v>
   <v>      -0.00000000       0.00000000      -0.00000000 </v>
   <v>       0.00000000       0.00000000       0.00000000 </v>
   <v>       0.00000000       0.00000000      -0.00000000 </v>
   <v>      -0.00000000      -0.00000000      -0.00000000 </v>
   <v>       0.00000000       0.00000000      -0.00000000 </v>
   <v>      -0.00000000       0.00000000       0.00000000 </v>
   <v>       0.00000000       0.00000000       0.00000000 </v>
   <v>      -0.00000000       0.00000000      -0.00000000 </v>
   <v>       0.00000000       0.00000000      -0.00000000 </v>
   <v>       0.00000000       0.00000000      -0.00000000 </v>
   <v>       0.00000000       0.00000000       0.00000000 </v>
   <v>       0.00000000       0.00000000      -0.00000000 </v>
   <v>      -0.00000000      -0.00000000      -0.00000000 </v>
   <v>       0.00000000       0.00000000       0.00000000 </v>
   <v>      -0.00000000       0.00000000      -0.00000000 </v>
   <v>      -0.00000000       0.00000000      -0.00000000 </v>
   <v>       0.00000000      -0.00000000       0.00000000 </v>
   <v>      -0.00000000      -0.00000000       0.00000000 </v>
   <v>       0.00000000       0.00000000      -0.00000000 </v>
   <v>      -0.00000000      -0.00000000       0.00000000 </v>
   <v>      -0.00000000       0.00000000      -0.00000000 </v>
   <v>       0.00000000      -0.00000000      -0.00000000 </v>
   <v>       0.00000000       0.00000000       0.00000000 </v>
   <v>      -0.00000000       0.00000000      -0.00000000 </v>
   <v>       0.00000000      -0.00000000      -0.00000000 </v>
   <v>       0.00000000       0.00000000      -0.00000000 </v>
  </varray>
  <varray name="stress" >
   <v>      -0.00311320       0.00000000       0.00000000 </v>
   <v>       0.00000000      -0.00311320       0.00000000 </v>
   <v>       0.00000000       0.00000000      -0.00311320 </v>
  </varray>
  <energy>
   <i name="e_fr_energy">  -1075.46938247 </i>
   <i name="e_wo_entrp">  -1075.39538579 </i>
   <i name="e_0_energy">  -1075.44471691 </i>
  </energy>
  <time name="totalsc">   38.88   34.31</time>
  <eigenvalues>
   <array>
    <dimension dim="1">band</dimension>
    <dimension dim="2">kpoint</dimension>
    <dimension dim="3">spin</dimension>
    <field>eigene</field>
    <field>occ</field>
    <set>
     <set comment="spin 1">
      <set comment="kpoint 1">
       <r>  -39.3836    1.0000 </r>
       <r>  -39.3362    1.0000 </r>
       <r>  -39.3362    1.0000 </r>
       <r>  -39.3362    1.0000 </r>
       <r>  -39.3362    1.0000 </r>
       <r>  -39.3362    1.0000 </r>
       <r>  -39.3362    1.0000 </r>
       <r>  -39.3000    1.0000 </r>
       <r>  -39.3000    1.0000 </r>
       <r>  -39.3000    1.0000 </r>
       <r>  -39.3000    1.0000 </r>
       <r>  -39.3000    1.0000 </r>
       <r>  -39.2999    1.0000 </r>
       <r>  -39.2999    1.0000 </r>
       <r>  -39.2999    1.0000 </r>
       <r>  -39.2999    1.0000 </r>
       <r>  -39.2999    1.0000 </r>
       <r>  -39.2999    1.0000 </r>
       <r>  -39.2999    1.0000 </r>
       <r>  -39.2720    1.0000 </r>
       <r>  -39.2720    1.0000 </r>
       <r>  -39.2719    1.0000 </r>
       <r>  -39.2719    1.0000 </r>
       <r>  -39.2719    1.0000 </r>
       <r>  -39.2719    1.0000 </r>
       <r>  -39.2719    1.0000 </r>
       <r>  -39.2719    1.0000 </r>
       <r>  -39.2275    1.0000 </r>
       <r>  -39.2275    1.0000 </r>
       <r>  -39.2275    1.0000 </r>
       <r>  -39.2275    1.0000 </r>
       <r>  -39.2275    1.0000 </r>
       <r>  -39.2275    1.0000 </r>
       <r>  -39.2206    1.0000 </r>
       <r>  -39.2206    1.0000 </r>
       <r>  -39.2206    1.0000 </r>
       <r>  -39.2206    1.0000 </r>
       <r>  -39.2206    1.0000 </r>
       <r>  -39.2206    1.0000 </r>
       <r>  -39.2206    1.0000 </r>
       <r>  -39.2206    1.0000 </r>
       <r>  -39.2206    1.0000 </r>
       <r>  -39.2206    1.0000 </r>
       <r>  -39.2206    1.0000 </r>
       <r>  -39.2206    1.0000 </r>
       <r>  -39.2206    1.0000 </r>
       <r>  -39.2206    1.0000 </r>
       <r>  -39.2206    1.0000 </r>
       <r>  -39.2206    1.0000 </r>
       <r>  -39.2206    1.0000 </r>
       <r>  -39.2206    1.0000 </r>
       <r>  -39.2206    1.0000 </r>
       <r>  -39.2206    1.0000 </r>
       <r>  -39.2206    1.0000 </r>
       <r>  -39.2206    1.0000 </r>
       <r>  -39.2206    1.0000 </r>
       <r>  -39.2206    1.0000 </r>
       <r>  -39.2140    1.0000 </r>
       <r>  -39.2140    1.0000 </r>
       <r>  -39.2140    1.0000 </r>
       <r>  -39.2140    1.0000 </r>
       <r>  -39.2140    1.0000 </r>
       <r>  -39.2140    1.0000 </r>
       <r>  -39.2140    1.0000 </r>
       <r>  -39.2140    1.0000 </r>
       <r>  -39.2140    1.0000 </r>
       <r>  -39.2140    1.0000 </r>
       <r>  -39.2140    1.0000 </r>
       <r>  -39.2140    1.0000 </r>
       <r>  -39.2140    1.0000 </r>
       <r>  -39.2139    1.0000 </r>
       <r>  -39.2139    1.0000 </r>
       <r>  -39.2139    1.0000 </r>
       <r>  -39.2139    1.0000 </r>
       <r>  -39.2139    1.0000 </r>
       <r>  -39.2139    1.0000 </r>
       <r>  -39.2139    1.0000 </r>
       <r>  -39.2139    1.0000 </r>
       <r>  -39.2139    1.0000 </r>
       <r>  -39.2139    1.0000 </r>
       <r>  -39.2139    1.0000 </r>
       <r>  -39.2139    1.0000 </r>
       <r>  -39.2139    1.0000 </r>
       <r>  -39.2139    1.0000 </r>
       <r>  -39.2139    1.0000 </r>
       <r>  -39.2139    1.0000 </r>
       <r>  -39.2139    1.0000 </r>
       <r>  -39.2073    1.0000 </r>
       <r>  -39.2073    1.0000 </r>
       <r>  -39.2073    1.0000 </r>
       <r>  -39.2073    1.0000 </r>
       <r>  -39.2073    1.0000 </r>
       <r>  -39.2073    1.0000 </r>
       <r>  -39.2073    1.0000 </r>
       <r>  -39.2073    1.0000 </r>
       <r>  -39.2073    1.0000 </r>
       <r>  -39.2073    1.0000 </r>
       <r>  -39.2073    1.0000 </r>
       <r>  -39.2073    1.0000 </r>
       <r>  -39.2008    1.0000 </r>
       <r>  -39.2008    1.0000 </r>
       <r>  -39.1686    1.0000 </r>
       <r>  -39.1686    1.0000 </r>
       <r>  -39.1686    1.0000 </r>
       <r>  -39.1686    1.0000 </r>
       <r>  -39.1686    1.0000 </r>
       <r>  -39.1686    1.0000 </r>
       <r>  -39.1686    1.0000 </r>
       <r>  -39.1686    1.0000 </r>
       <r>  -39.1539    1.0000 </r>
       <r>  -39.1539    1.0000 </r>
       <r>  -39.1539    1.0000 </r>
       <r>  -39.1539    1.0000 </r>
       <r>  -39.1539    1.0000 </r>
       <r>  -39.1539    1.0000 </r>
       <r>  -39.1539    1.0000 </r>
       <r>  -39.1539    1.0000 </r>
       <r>  -39.1539    1.0000 </r>
       <r>  -39.1539    1.0000 </r>
       <r>  -39.1539    1.0000 </r>
       <r>  -39.1539    1.0000 </r>
       <r>  -39.1301    1.0000 </r>
       <r>  -39.1301    1.0000 </r>
       <r>  -39.1301    1.0000 </r>
       <r>  -39.1301    1.0000 </r>
       <r>  -39.1301    1.0000 </r>
       <r>  -39.1301    1.0000 </r>
       <r>  -39.0934    1.0000 </r>
       <r>  -17.9252    1.0000 </r>
       <r>  -17.9252    1.0000 </r>
       <r>  -17.9251    1.0000 </r>
       <r>  -17.9251    1.0000 </r>
       <r>  -17.9251    1.0000 </r>
       <r>  -17.9251    1.0000 </r>
       <r>  -17.7731    1.0000 </r>
       <r>  -17.7731    1.0000 </r>
       <r>  -17.7731    1.0000 </r>
       <r>  -17.7731    1.0000 </r>
       <r>  -17.7731    1.0000 </r>
       <r>  -17.7731    1.0000 </r>
       <r>  -17.7731    1.0000 </r>
       <r>  -17.7731    1.0000 </r>
       <r>  -17.7731    1.0000 </r>
       <r>  -17.7731    1.0000 </r>
       <r>  -17.7731    1.0000 </r>
       <r>  -17.7731    1.0000 </r>
       <r>  -17.7618    1.0000 </r>
       <r>  -17.7618    1.0000 </r>
       <r>  -17.7618    1.0000 </r>
       <r>  -17.7618    1.0000 </r>
       <r>  -17.7618    1.0000 </r>
       <r>  -17.7618    1.0000 </r>
       <r>  -17.7618    1.0000 </r>
       <r>  -17.7618    1.0000 </r>
       <r>  -17.7618    1.0000 </r>
       <r>  -17.7618    1.0000 </r>
       <r>  -17.7618    1.0000 </r>
       <r>  -17.7618    1.0000 </r>
       <r>  -17.7424    1.0000 </r>
       <r>  -17.7424    1.0000 </r>
       <r>  -17.7424    1.0000 </r>
       <r>  -17.7424    1.0000 </r>
       <r>  -17.7424    1.0000 </r>
       <r>  -17.7424    1.0000 </r>
       <r>  -17.7424    1.0000 </r>
       <r>  -17.7424    1.0000 </r>
       <r>  -17.7424    1.0000 </r>
       <r>  -17.7424    1.0000 </r>
       <r>  -17.7424    1.0000 </r>
       <r>  -17.7424    1.0000 </r>
       <r>  -17.7424    1.0000 </r>
       <r>  -17.7424    1.0000 </r>
       <r>  -17.7424    1.0000 </r>
       <r>  -17.7424    1.0000 </r>
       <r>  -17.7424    1.0000 </r>
       <r>  -17.7424    1.0000 </r>
       <r>  -17.7424    1.0000 </r>
       <r>  -17.7424    1.0000 </r>
       <r>  -17.7424    1.0000 </r>
       <r>  -17.7424    1.0000 </r>
       <r>  -17.7424    1.0000 </r>
       <r>  -17.7424    1.0000 </r>
       <r>  -17.7339    1.0000 </r>
       <r>  -17.7339    1.0000 </r>
       <r>  -17.7339    1.0000 </r>
       <r>  -17.7339    1.0000 </r>
       <r>  -17.7339    1.0000 </r>
       <r>  -17.7339    1.0000 </r>
       <r>  -17.7339    1.0000 </r>
       <r>  -17.7339    1.0000 </r>
       <r>  -17.7339    1.0000 </r>
       <r>  -17.7339    1.0000 </r>
       <r>  -17.7339    1.0000 </r>
       <r>  -17.7339    1.0000 </r>
       <r>  -17.7339    1.0000 </r>
       <r>  -17.7339    1.0000 </r>
       <r>  -17.7339    1.0000 </r>
       <r>  -17.7339    1.0000 </r>
       <r>  -17.7339    1.0000 </r>
       <r>  -17.7339    1.0000 </r>
       <r>  -17.7339    1.0000 </r>
       <r>  -17.7339    1.0000 </r>
       <r>  -17.7339    1.0000 </r>
       <r>  -17.7339    1.0000 </r>
       <r>  -17.7339    1.0000 </r>
       <r>  -17.7339    1.0000 </r>
       <r>  -17.6298    1.0000 </r>
       <r>  -17.6298    1.0000 </r>
       <r>  -17.6298    1.0000 </r>
       <r>  -17.6298    1.0000 </r>
       <r>  -17.6298    1.0000 </r>
       <r>  -17.6298    1.0000 </r>
       <r>  -17.6298    1.0000 </r>
       <r>  -17.6298    1.0000 </r>
       <r>  -17.6298    1.0000 </r>
       <r>  -17.6298    1.0000 </r>
       <r>  -17.6298    1.0000 </r>
       <r>  -17.6298    1.0000 </r>
       <r>  -17.6298    1.0000 </r>
       <r>  -17.6298    1.0000 </r>
       <r>  -17.6298    1.0000 </r>
       <r>  -17.6298    1.0000 </r>
       <r>  -17.5921    1.0000 </r>
       <r>  -17.5921    1.0000 </r>
       <r>  -17.5921    1.0000 </r>
       <r>  -17.5883    1.0000 </r>
       <r>  -17.5883    1.0000 </r>
       <r>  -17.5883    1.0000 </r>
       <r>  -17.5883    1.0000 </r>
       <r>  -17.5883    1.0000 </r>
       <r>  -17.5883    1.0000 </r>
       <r>  -17.5656    1.0000 </r>
       <r>  -17.5656    1.0000 </r>
       <r>  -17.5656    1.0000 </r>
       <r>  -17.5656    1.0000 </r>
       <r>  -17.5656    1.0000 </r>
       <r>  -17.5656    1.0000 </r>
       <r>  -17.5656    1.0000 </r>
       <r>  -17.5656    1.0000 </r>
       <r>  -17.4829    1.0000 </r>
       <r>  -17.4829    1.0000 </r>
       <r>  -17.4829    1.0000 </r>
       <r>  -17.4829    1.0000 </r>
       <r>  -17.4829    1.0000 </r>
       <r>  -17.4829    1.0000 </r>
       <r>  -17.4829    1.0000 </r>
       <r>  -17.4829    1.0000 </r>
       <r>  -17.4829    1.0000 </r>
       <r>  -17.4829    1.0000 </r>
       <r>  -17.4829    1.0000 </r>
       <r>  -17.4829    1.0000 </r>
       <r>  -17.4399    1.0000 </r>
       <r>  -17.4399    1.0000 </r>
       <r>  -17.4399    1.0000 </r>
       <r>  -17.4399    1.0000 </r>
       <r>  -17.4399    1.0000 </r>
       <r>  -17.4399    1.0000 </r>
       <r>  -17.4171    1.0000 </r>
       <r>  -17.4171    1.0000 </r>
       <r>  -17.4171    1.0000 </r>
       <r>  -17.4171    1.0000 </r>
       <r>  -17.4171    1.0000 </r>
       <r>  -17.4171    1.0000 </r>
       <r>  -17.4171    1.0000 </r>
       <r>  -17.4171    1.0000 </r>
       <r>  -17.4171    1.0000 </r>
       <r>  -17.4171    1.0000 </r>
       <r>  -17.4171    1.0000 </r>
       <r>  -17.4171    1.0000 </r>
       <r>  -17.4037    1.0000 </r>
       <r>  -17.4037    1.0000 </r>
       <r>  -17.4037    1.0000 </r>
       <r>  -17.4037    1.0000 </r>
       <r>  -17.4037    1.0000 </r>
       <r>  -17.4037    1.0000 </r>
       <r>  -17.4010    1.0000 </r>
       <r>  -17.4009    1.0000 </r>
       <r>  -17.4009    1.0000 </r>
       <r>  -17.4009    1.0000 </r>
       <r>  -17.4009    1.0000 </r>
       <r>  -17.4009    1.0000 </r>
       <r>  -17.4009    1.0000 </r>
       <r>  -17.4009    1.0000 </r>
       <r>  -17.4009    1.0000 </r>
       <r>  -17.4009    1.0000 </r>
       <r>  -17.4009    1.0000 </r>
       <r>  -17.4009    1.0000 </r>
       <r>  -17.3144    1.0000 </r>
       <r>  -17.3144    1.0000 </r>
       <r>  -17.3144    1.0000 </r>
       <r>  -17.3144    1.0000 </r>
       <r>  -17.3144    1.0000 </r>
       <r>  -17.3144    1.0000 </r>
       <r>  -17.3144    1.0000 </r>
       <r>  -17.3144    1.0000 </r>
       <r>  -17.3144    1.0000 </r>
       <r>  -17.3144    1.0000 </r>
       <r>  -17.3144    1.0000 </r>
       <r>  -17.3144    1.0000 </r>
       <r>  -17.3144    1.0000 </r>
       <r>  -17.3144    1.0000 </r>
       <r>  -17.3144    1.0000 </r>
       <r>  -17.3144    1.0000 </r>
       <r>  -17.3144    1.0000 </r>
       <r>  -17.3144    1.0000 </r>
       <r>  -17.3144    1.0000 </r>
       <r>  -17.3144    1.0000 </r>
       <r>  -17.3144    1.0000 </r>
       <r>  -17.3144    1.0000 </r>
       <r>  -17.3144    1.0000 </r>
       <r>  -17.3144    1.0000 </r>
       <r>  -17.3043    1.0000 </r>
       <r>  -17.3043    1.0000 </r>
       <r>  -17.3043    1.0000 </r>
       <r>  -17.3043    1.0000 </r>
       <r>  -17.3043    1.0000 </r>
       <r>  -17.3043    1.0000 </r>
       <r>  -17.3043    1.0000 </r>
       <r>  -17.3043    1.0000 </r>
       <r>  -17.3043    1.0000 </r>
       <r>  -17.3043    1.0000 </r>
       <r>  -17.3043    1.0000 </r>
       <r>  -17.3043    1.0000 </r>
       <r>  -17.2470    1.0000 </r>
       <r>  -17.2470    1.0000 </r>
       <r>  -17.2470    1.0000 </r>
       <r>  -17.2470    1.0000 </r>
       <r>  -17.2470    1.0000 </r>
       <r>  -17.2470    1.0000 </r>
       <r>  -17.2470    1.0000 </r>
       <r>  -17.2470    1.0000 </r>
       <r>  -17.2470    1.0000 </r>
       <r>  -17.2470    1.0000 </r>
       <r>  -17.2470    1.0000 </r>
       <r>  -17.2470    1.0000 </r>
       <r>  -17.2239    1.0000 </r>
       <r>  -17.2239    1.0000 </r>
       <r>  -17.2239    1.0000 </r>
       <r>  -17.2239    1.0000 </r>
       <r>  -17.2239    1.0000 </r>
       <r>  -17.2239    1.0000 </r>
       <r>  -17.2239    1.0000 </r>
       <r>  -17.2239    1.0000 </r>
       <r>  -17.2239    1.0000 </r>
       <r>  -17.2239    1.0000 </r>
       <r>  -17.2239    1.0000 </r>
       <r>  -17.2239    1.0000 </r>
       <r>  -17.2130    1.0000 </r>
       <r>  -17.2130    1.0000 </r>
       <r>  -17.2130    1.0000 </r>
       <r>  -17.2130    1.0000 </r>
       <r>  -17.2130    1.0000 </r>
       <r>  -17.2130    1.0000 </r>
       <r>  -17.2130    1.0000 </r>
       <r>  -17.2130    1.0000 </r>
       <r>  -17.2130    1.0000 </r>
       <r>  -17.2130    1.0000 </r>
       <r>  -17.2130    1.0000 </r>
       <r>  -17.2130    1.0000 </r>
       <r>  -17.2130    1.0000 </r>
       <r>  -17.2130    1.0000 </r>
       <r>  -17.2130    1.0000 </r>
       <r>  -17.2130    1.0000 </r>
       <r>  -17.2130    1.0000 </r>
       <r>  -17.2130    1.0000 </r>
       <r>  -17.2130    1.0000 </r>
       <r>  -17.2130    1.0000 </r>
       <r>  -17.2130    1.0000 </r>
       <r>  -17.2130    1.0000 </r>
       <r>  -17.2130    1.0000 </r>
       <r>  -17.2130    1.0000 </r>
       <r>  -17.2028    1.0000 </r>
       <r>  -17.2028    1.0000 </r>
       <r>  -17.2028    1.0000 </r>
       <r>  -17.2028    1.0000 </r>
       <r>  -17.2028    1.0000 </r>
       <r>  -17.2028    1.0000 </r>
       <r>  -17.0841    1.0000 </r>
       <r>  -17.0841    1.0000 </r>
       <r>  -17.0841    1.0000 </r>
       <r>  -17.0841    1.0000 </r>
       <r>  -17.0841    1.0000 </r>
       <r>  -17.0841    1.0000 </r>
       <r>  -17.0713    1.0000 </r>
       <r>  -17.0713    1.0000 </r>
       <r>  -17.0713    1.0000 </r>
       <r>  -17.0713    1.0000 </r>
       <r>  -17.0713    1.0000 </r>
       <r>  -17.0713    1.0000 </r>
       <r>  -17.0713    1.0000 </r>
       <r>  -17.0713    1.0000 </r>
       <r>  -17.0396    1.0000 </r>
       <r>  -17.0396    1.0000 </r>
       <r>  -17.0396    1.0000 </r>
       <r>  -17.0396    1.0000 </r>
       <r>  -17.0396    1.0000 </r>
       <r>  -17.0396    1.0000 </r>
       <r>  -17.0396    1.0000 </r>
       <r>  -17.0396    1.0000 </r>
       <r>  -17.0396    1.0000 </r>
       <r>  -17.0396    1.0000 </r>
       <r>  -17.0396    1.0000 </r>
       <r>  -17.0396    1.0000 </r>
       <r>  -17.0332    1.0000 </r>
       <r>  -17.0332    1.0000 </r>
       <r>  -17.0332    1.0000 </r>
       <r>  -17.0332    1.0000 </r>
       <r>  -17.0332    1.0000 </r>
       <r>  -17.0332    1.0000 </r>
       <r>  -17.0332    1.0000 </r>
       <r>  -17.0332    1.0000 </r>
       <r>  -17.0332    1.0000 </r>
       <r>  -17.0332    1.0000 </r>
       <r>  -17.0332    1.0000 </r>
       <r>  -17.0332    1.0000 </r>
       <r>  -17.0020    1.0000 </r>
       <r>  -17.0020    1.0000 </r>
       <r>  -17.0020    1.0000 </r>
       <r>  -17.0020    1.0000 </r>
       <r>  -17.0020    1.0000 </r>
       <r>  -17.0020    1.0000 </r>
       <r>  -17.0020    1.0000 </r>
       <r>  -17.0020    1.0000 </r>
       <r>  -17.0020    1.0000 </r>
       <r>  -17.0020    1.0000 </r>
       <r>  -17.0020    1.0000 </r>
       <r>  -17.0020    1.0000 </r>
       <r>  -17.0020    1.0000 </r>
       <r>  -17.0020    1.0000 </r>
       <r>  -17.0020    1.0000 </r>
       <r>  -17.0020    1.0000 </r>
       <r>  -16.9923    1.0000 </r>
       <r>  -16.9923    1.0000 </r>
       <r>  -16.9923    1.0000 </r>
       <r>  -16.9923    1.0000 </r>
       <r>  -16.9923    1.0000 </r>
       <r>  -16.9923    1.0000 </r>
       <r>  -16.9923    1.0000 </r>
       <r>  -16.9923    1.0000 </r>
       <r>  -16.9923    1.0000 </r>
       <r>  -16.9923    1.0000 </r>
       <r>  -16.9923    1.0000 </r>
       <r>  -16.9923    1.0000 </r>
       <r>  -16.9923    1.0000 </r>
       <r>  -16.9923    1.0000 </r>
       <r>  -16.9923    1.0000 </r>
       <r>  -16.9923    1.0000 </r>
       <r>  -16.9923    1.0000 </r>
       <r>  -16.9923    1.0000 </r>
       <r>  -16.9923    1.0000 </r>
       <r>  -16.9923    1.0000 </r>
       <r>  -16.9923    1.0000 </r>
       <r>  -16.9923    1.0000 </r>
       <r>  -16.9923    1.0000 </r>
       <r>  -16.9923    1.0000 </r>
       <r>  -16.9816    1.0000 </r>
       <r>  -16.9816    1.0000 </r>
       <r>  -16.9816    1.0000 </r>
       <r>  -16.9816    1.0000 </r>
       <r>  -16.9816    1.0000 </r>
       <r>  -16.9816    1.0000 </r>
       <r>  -16.9816    1.0000 </r>
       <r>  -16.9816    1.0000 </r>
       <r>  -16.9816    1.0000 </r>
       <r>  -16.9816    1.0000 </r>
       <r>  -16.9816    1.0000 </r>
       <r>  -16.9816    1.0000 </r>
       <r>  -16.9816    1.0000 </r>
       <r>  -16.9816    1.0000 </r>
       <r>  -16.9816    1.0000 </r>
       <r>  -16.9816    1.0000 </r>
       <r>  -16.9816    1.0000 </r>
       <r>  -16.9816    1.0000 </r>
       <r>  -16.9816    1.0000 </r>
       <r>  -16.9816    1.0000 </r>
       <r>  -16.9816    1.0000 </r>
       <r>  -16.9816    1.0000 </r>
       <r>  -16.9816    1.0000 </r>
       <r>  -16.9816    1.0000 </r>
       <r>  -16.9721    1.0000 </r>
       <r>  -16.9721    1.0000 </r>
       <r>  -16.9721    1.0000 </r>
       <r>  -16.9721    1.0000 </r>
       <r>  -16.9721    1.0000 </r>
       <r>  -16.9721    1.0000 </r>
       <r>  -16.9721    1.0000 </r>
       <r>  -16.9721    1.0000 </r>
       <r>  -16.9721    1.0000 </r>
       <r>  -16.9720    1.0000 </r>
       <r>  -16.9720    1.0000 </r>
       <r>  -16.9720    1.0000 </r>
       <r>  -16.8798    1.0000 </r>
       <r>  -16.8798    1.0000 </r>
       <r>  -16.8798    1.0000 </r>
       <r>  -16.8798    1.0000 </r>
       <r>  -16.8798    1.0000 </r>
       <r>  -16.8798    1.0000 </r>
       <r>  -16.8751    1.0000 </r>
       <r>  -16.8751    1.0000 </r>
       <r>  -16.8751    1.0000 </r>
       <r>  -16.8751    1.0000 </r>
       <r>  -16.8751    1.0000 </r>
       <r>  -16.8751    1.0000 </r>
       <r>  -16.8751    1.0000 </r>
       <r>  -16.8751    1.0000 </r>
       <r>  -16.8751    1.0000 </r>
       <r>  -16.8751    1.0000 </r>
       <r>  -16.8751    1.0000 </r>
       <r>  -16.8751    1.0000 </r>
       <r>  -16.8687    1.0000 </r>
       <r>  -16.8687    1.0000 </r>
       <r>  -16.8687    1.0000 </r>
       <r>    3.6636    1.0000 </r>
       <r>    4.6931    1.0000 </r>
       <r>    4.6931    1.0000 </r>
       <r>    4.6931    1.0000 </r>
       <r>    4.6931    1.0000 </r>
       <r>    4.6931    1.0000 </r>
       <r>    4.6931    1.0000 </r>
       <r>    5.4290    1.0000 </r>
       <r>    5.4290    1.0000 </r>
       <r>    5.4290    1.0000 </r>
       <r>    5.4290    1.0000 </r>
       <r>    5.4290    1.0000 </r>
       <r>    5.4290    1.0000 </r>
       <r>    5.4290    1.0000 </r>
       <r>    5.4290    1.0000 </r>
       <r>    5.4290    1.0000 </r>
       <r>    5.4290    1.0000 </r>
       <r>    5.4290    1.0000 </r>
       <r>    5.4291    1.0000 </r>
       <r>    6.1875    1.0000 </r>
       <r>    6.1875    1.0000 </r>
       <r>    6.1875    1.0000 </r>
       <r>    6.1875    1.0000 </r>
       <r>    6.1875    1.0000 </r>
       <r>    6.1875    1.0000 </r>
       <r>    6.2713    1.0000 </r>
       <r>    6.2713    1.0000 </r>
       <r>    6.2713    1.0000 </r>
       <r>    6.2713    1.0000 </r>
       <r>    6.2713    1.0000 </r>
       <r>    6.2713    1.0000 </r>
       <r>    6.2714    1.0000 </r>
       <r>    6.2714    1.0000 </r>
       <r>    6.3830    1.0000 </r>
       <r>    6.3830    1.0000 </r>
       <r>    6.6239    1.0000 </r>
       <r>    6.6239    1.0000 </r>
       <r>    6.6239    1.0000 </r>
       <r>    6.6239    1.0000 </r>
       <r>    6.6239    1.0000 </r>
       <r>    6.6239    1.0000 </r>
       <r>    6.6239    1.0000 </r>
       <r>    6.6239    1.0000 </r>
       <r>    6.6239    1.0000 </r>
       <r>    6.6239    1.0000 </r>
       <r>    6.6239    1.0000 </r>
       <r>    6.6239    1.0000 </r>
       <r>    6.6239    1.0000 </r>
       <r>    6.6239    1.0000 </r>
       <r>    6.6239    1.0000 </r>
       <r>    6.6239    1.0000 </r>
       <r>    6.6239    1.0000 </r>
       <r>    6.6239    1.0000 </r>
       <r>    6.6239    1.0000 </r>
       <r>    6.6239    1.0000 </r>
       <r>    6.6239    1.0000 </r>
       <r>    6.6239    1.0000 </r>
       <r>    6.6239    1.0000 </r>
       <r>    6.6239    1.0000 </r>
       <r>    6.8029    1.0000 </r>
       <r>    6.8029    1.0000 </r>
       <r>    6.8029    1.0000 </r>
       <r>    6.8029    1.0000 </r>
       <r>    6.8029    1.0000 </r>
       <r>    6.8029    1.0000 </r>
       <r>    6.9889    1.0000 </r>
       <r>    6.9889    1.0000 </r>
       <r>    6.9889    1.0000 </r>
       <r>    6.9889    1.0000 </r>
       <r>    6.9889    1.0000 </r>
       <r>    6.9889    1.0000 </r>
       <r>    7.0706    1.0000 </r>
       <r>    7.0706    1.0000 </r>
       <r>    7.0706    1.0000 </r>
       <r>    7.0706    1.0000 </r>
       <r>    7.0706    1.0000 </r>
       <r>    7.0706    1.0000 </r>
       <r>    7.1421    1.0000 </r>
       <r>    7.1421    1.0000 </r>
       <r>    7.1421    1.0000 </r>
       <r>    7.1421    1.0000 </r>
       <r>    7.1421    1.0000 </r>
       <r>    7.1421    1.0000 </r>
       <r>    7.1421    1.0000 </r>
       <r>    7.1421    1.0000 </r>
       <r>    7.1421    1.0000 </r>
       <r>    7.1421    1.0000 </r>
       <r>    7.1421    1.0000 </r>
       <r>    7.1421    1.0000 </r>
       <r>    7.1972    1.0000 </r>
       <r>    7.1972    1.0000 </r>
       <r>    7.1972    1.0000 </r>
       <r>    7.1972    1.0000 </r>
       <r>    7.1972    1.0000 </r>
       <r>    7.1972    1.0000 </r>
       <r>    7.1972    1.0000 </r>
       <r>    7.1972    1.0000 </r>
       <r>    7.1972    1.0000 </r>
       <r>    7.1972    1.0000 </r>
       <r>    7.1972    1.0000 </r>
       <r>    7.1972    1.0000 </r>
       <r>    7.2478    1.0000 </r>
       <r>    7.2478    1.0000 </r>
       <r>    7.2478    1.0000 </r>
       <r>    7.2478    1.0000 </r>
       <r>    7.2478    1.0000 </r>
       <r>    7.2478    1.0000 </r>
       <r>    7.2478    1.0000 </r>
       <r>    7.2478    1.0000 </r>
       <r>    7.2478    1.0000 </r>
       <r>    7.2478    1.0000 </r>
       <r>    7.2478    1.0000 </r>
       <r>    7.2478    1.0000 </r>
       <r>    7.2478    1.0000 </r>
       <r>    7.2478    1.0000 </r>
       <r>    7.2478    1.0000 </r>
       <r>    7.2478    1.0000 </r>
       <r>    7.2478    1.0000 </r>
       <r>    7.2478    1.0000 </r>
       <r>    7.2478    1.0000 </r>
       <r>    7.2478    1.0000 </r>
       <r>    7.2478    1.0000 </r>
       <r>    7.2478    1.0000 </r>
       <r>    7.2478    1.0000 </r>
       <r>    7.2478    1.0000 </r>
       <r>    7.9235    1.0000 </r>
       <r>    7.9235    1.0000 </r>
       <r>    7.9235    1.0000 </r>
       <r>    7.9235    1.0000 </r>
       <r>    7.9235    1.0000 </r>
       <r>    7.9235    1.0000 </r>
       <r>    7.9235    1.0000 </r>
       <r>    7.9235    1.0000 </r>
       <r>    7.9235    1.0000 </r>
       <r>    7.9235    1.0000 </r>
       <r>    7.9235    1.0000 </r>
       <r>    7.9235    1.0000 </r>
       <r>    8.0929    1.0000 </r>
       <r>    8.0929    1.0000 </r>
       <r>    8.0929    1.0000 </r>
       <r>    8.0929    1.0000 </r>
       <r>    8.0929    1.0000 </r>
       <r>    8.0929    1.0000 </r>
       <r>    8.0929    1.0000 </r>
       <r>    8.0929    1.0000 </r>
       <r>    8.0929    1.0000 </r>
       <r>    8.0929    1.0000 </r>
       <r>    8.0929    1.0000 </r>
       <r>    8.0929    1.0000 </r>
       <r>    8.0929    1.0000 </r>
       <r>    8.0929    1.0000 </r>
       <r>    8.0929    1.0000 </r>
       <r>    8.0929    1.0000 </r>
       <r>    8.2010    1.0000 </r>
       <r>    8.2010    1.0000 </r>
       <r>    8.2010    1.0000 </r>
       <r>    8.2010    1.0000 </r>
       <r>    8.2010    1.0000 </r>
       <r>    8.2010    1.0000 </r>
       <r>    8.2010    1.0000 </r>
       <r>    8.2010    1.0000 </r>
       <r>    8.2010    1.0000 </r>
       <r>    8.2010    1.0000 </r>
       <r>    8.2010    1.0000 </r>
       <r>    8.2010    1.0000 </r>
       <r>    8.3213    1.0000 </r>
       <r>    8.3213    1.0000 </r>
       <r>    8.3213    1.0000 </r>
       <r>    8.3213    1.0000 </r>
       <r>    8.3213    1.0000 </r>
       <r>    8.3213    1.0000 </r>
       <r>    8.3384    1.0000 </r>
       <r>    8.3384    1.0000 </r>
       <r>    8.3384    1.0000 </r>
       <r>    8.3384    1.0000 </r>
       <r>    8.3384    1.0000 </r>
       <r>    8.3384    1.0000 </r>
       <r>    8.3384    1.0000 </r>
       <r>    8.3384    1.0000 </r>
       <r>    8.3384    1.0000 </r>
       <r>    8.3384    1.0000 </r>
       <r>    8.3384    1.0000 </r>
       <r>    8.3384    1.0000 </r>
       <r>    8.3384    1.0000 </r>
       <r>    8.3384    1.0000 </r>
       <r>    8.3384    1.0000 </r>
       <r>    8.3384    1.0000 </r>
       <r>    8.3384    1.0000 </r>
       <r>    8.3384    1.0000 </r>
       <r>    8.3384    1.0000 </r>
       <r>    8.3384    1.0000 </r>
       <r>    8.3384    1.0000 </r>
       <r>    8.3384    1.0000 </r>
       <r>    8.3384    1.0000 </r>
       <r>    8.3384    1.0000 </r>
       <r>    8.4875    1.0003 </r>
       <r>    8.4875    1.0003 </r>
       <r>    8.4875    1.0003 </r>
       <r>    8.4875    1.0003 </r>
       <r>    8.4875    1.0003 </r>
       <r>    8.4875    1.0003 </r>
       <r>    8.4875    1.0003 </r>
       <r>    8.4875    1.0003 </r>
       <r>    8.5039    1.0005 </r>
       <r>    8.5039    1.0005 </r>
       <r>    8.5039    1.0005 </r>
       <r>    8.5039    1.0005 </r>
       <r>    8.5039    1.0005 </r>
       <r>    8.5039    1.0005 </r>
       <r>    8.7238    1.0238 </r>
       <r>    8.7238    1.0238 </r>
       <r>    8.7238    1.0238 </r>
       <r>    8.7238    1.0238 </r>
       <r>    8.7238    1.0238 </r>
       <r>    8.7238    1.0238 </r>
       <r>    8.7282    1.0248 </r>
       <r>    8.7282    1.0248 </r>
       <r>    8.7282    1.0248 </r>
       <r>    8.7282    1.0248 </r>
       <r>    8.7282    1.0248 </r>
       <r>    8.7282    1.0248 </r>
       <r>    8.7282    1.0248 </r>
       <r>    8.7282    1.0248 </r>
       <r>    8.7282    1.0248 </r>
       <r>    8.7282    1.0248 </r>
       <r>    8.7282    1.0248 </r>
       <r>    8.7282    1.0248 </r>
       <r>    8.7282    1.0249 </r>
       <r>    8.7282    1.0249 </r>
       <r>    8.7282    1.0249 </r>
       <r>    8.7282    1.0249 </r>
       <r>    9.0708    0.3733 </r>
       <r>    9.0708    0.3733 </r>
       <r>    9.0708    0.3733 </r>
       <r>    9.0709    0.3733 </r>
       <r>    9.0709    0.3733 </r>
       <r>    9.0709    0.3733 </r>
       <r>    9.0709    0.3733 </r>
       <r>    9.0709    0.3733 </r>
       <r>    9.0709    0.3733 </r>
       <r>    9.0709    0.3733 </r>
       <r>    9.0709    0.3733 </r>
       <r>    9.0709    0.3733 </r>
       <r>    9.0709    0.3733 </r>
       <r>    9.0709    0.3732 </r>
       <r>    9.0709    0.3732 </r>
       <r>    9.0709    0.3732 </r>
       <r>    9.0709    0.3732 </r>
       <r>    9.0709    0.3732 </r>
       <r>    9.0709    0.3732 </r>
       <r>    9.0709    0.3732 </r>
       <r>    9.0709    0.3732 </r>
       <r>    9.0709    0.3732 </r>
       <r>    9.0709    0.3732 </r>
       <r>    9.0709    0.3732 </r>
       <r>    9.0852    0.3160 </r>
       <r>    9.0852    0.3160 </r>
       <r>    9.0852    0.3160 </r>
       <r>    9.0852    0.3160 </r>
       <r>    9.0852    0.3160 </r>
       <r>    9.0852    0.3160 </r>
       <r>    9.0852    0.3160 </r>
       <r>    9.0852    0.3160 </r>
       <r>    9.0852    0.3160 </r>
       <r>    9.0852    0.3160 </r>
       <r>    9.0852    0.3160 </r>
       <r>    9.0852    0.3160 </r>
       <r>    9.0852    0.3160 </r>
       <r>    9.0852    0.3160 </r>
       <r>    9.0852    0.3160 </r>
       <r>    9.0852    0.3160 </r>
       <r>    9.0852    0.3160 </r>
       <r>    9.0852    0.3160 </r>
       <r>    9.0852    0.3159 </r>
       <r>    9.0852    0.3159 </r>
       <r>    9.0852    0.3159 </r>
       <r>    9.0852    0.3159 </r>
       <r>    9.0852    0.3159 </r>
       <r>    9.0852    0.3159 </r>
       <r>    9.1187    0.1957 </r>
       <r>    9.1187    0.1957 </r>
       <r>    9.1187    0.1957 </r>
       <r>    9.1187    0.1957 </r>
       <r>    9.1187    0.1957 </r>
       <r>    9.1187    0.1957 </r>
       <r>    9.1187    0.1957 </r>
       <r>    9.1187    0.1957 </r>
       <r>    9.1187    0.1957 </r>
       <r>    9.1187    0.1957 </r>
       <r>    9.1187    0.1957 </r>
       <r>    9.1187    0.1957 </r>
       <r>    9.1187    0.1957 </r>
       <r>    9.1187    0.1957 </r>
       <r>    9.1187    0.1957 </r>
       <r>    9.1187    0.1957 </r>
       <r>    9.1187    0.1956 </r>
       <r>    9.1187    0.1956 </r>
       <r>    9.1187    0.1956 </r>
       <r>    9.1187    0.1956 </r>
       <r>    9.1187    0.1956 </r>
       <r>    9.1187    0.1956 </r>
       <r>    9.1187    0.1956 </r>
       <r>    9.1187    0.1956 </r>
       <r>    9.1228    0.1823 </r>
       <r>    9.1228    0.1823 </r>
       <r>    9.1228    0.1823 </r>
       <r>    9.1228    0.1823 </r>
       <r>    9.1228    0.1823 </r>
       <r>    9.1228    0.1823 </r>
       <r>    9.1228    0.1823 </r>
       <r>    9.1228    0.1823 </r>
       <r>    9.1228    0.1823 </r>
       <r>    9.1228    0.1823 </r>
       <r>    9.1228    0.1823 </r>
       <r>    9.1228    0.1823 </r>
       <r>    9.4665   -0.0051 </r>
       <r>    9.4665   -0.0051 </r>
       <r>    9.4665   -0.0051 </r>
       <r>    9.4665   -0.0051 </r>
       <r>    9.4665   -0.0051 </r>
       <r>    9.4665   -0.0051 </r>
       <r>    9.4665   -0.0051 </r>
       <r>    9.4665   -0.0051 </r>
       <r>    9.4665   -0.0051 </r>
       <r>    9.4665   -0.0051 </r>
       <r>    9.4665   -0.0051 </r>
       <r>    9.4665   -0.0051 </r>
       <r>    9.7007   -0.0000 </r>
       <r>    9.7007   -0.0000 </r>
       <r>    9.7007   -0.0000 </r>
       <r>    9.7007   -0.0000 </r>
       <r>    9.7007   -0.0000 </r>
       <r>    9.7007   -0.0000 </r>
       <r>    9.7007   -0.0000 </r>
       <r>    9.7007   -0.0000 </r>
       <r>    9.7007   -0.0000 </r>
       <r>    9.7008   -0.0000 </r>
       <r>    9.7008   -0.0000 </r>
       <r>    9.7008   -0.0000 </r>
       <r>   10.0742   -0.0000 </r>
       <r>   10.0742   -0.0000 </r>
       <r>   10.0742   -0.0000 </r>
       <r>   10.0742   -0.0000 </r>
       <r>   10.0742   -0.0000 </r>
       <r>   10.0742   -0.0000 </r>
       <r>   10.0742   -0.0000 </r>
       <r>   10.0742   -0.0000 </r>
       <r>   10.0742   -0.0000 </r>
       <r>   10.0742   -0.0000 </r>
       <r>   10.0743   -0.0000 </r>
       <r>   10.0743   -0.0000 </r>
       <r>   10.1722   -0.0000 </r>
       <r>   10.1722   -0.0000 </r>
       <r>   10.1722   -0.0000 </r>
       <r>   10.4342   -0.0000 </r>
       <r>   10.4342   -0.0000 </r>
       <r>   10.4342   -0.0000 </r>
       <r>   10.4342   -0.0000 </r>
       <r>   10.4342   -0.0000 </r>
       <r>   10.4342   -0.0000 </r>
       <r>   10.4342   -0.0000 </r>
       <r>   10.4343   -0.0000 </r>
       <r>   10.4343   -0.0000 </r>
       <r>   10.4343   -0.0000 </r>
       <r>   10.4343   -0.0000 </r>
       <r>   10.4343   -0.0000 </r>
       <r>   10.5452   -0.0000 </r>
       <r>   10.5452   -0.0000 </r>
       <r>   10.5452   -0.0000 </r>
       <r>   10.5452   -0.0000 </r>
       <r>   10.5452   -0.0000 </r>
       <r>   10.5452   -0.0000 </r>
       <r>   10.5452   -0.0000 </r>
       <r>   10.5452   -0.0000 </r>
       <r>   10.5452   -0.0000 </r>
       <r>   10.5452   -0.0000 </r>
       <r>   10.5452   -0.0000 </r>
       <r>   10.5452   -0.0000 </r>
       <r>   10.6750   -0.0000 </r>
       <r>   10.6750   -0.0000 </r>
       <r>   10.6750   -0.0000 </r>
       <r>   10.6750   -0.0000 </r>
       <r>   10.6750   -0.0000 </r>
       <r>   10.6750   -0.0000 </r>
       <r>   10.7466   -0.0000 </r>
       <r>   10.7466   -0.0000 </r>
       <r>   10.7466   -0.0000 </r>
       <r>   10.7466   -0.0000 </r>
       <r>   10.7466   -0.0000 </r>
       <r>   10.7466   -0.0000 </r>
       <r>   11.0986   -0.0000 </r>
       <r>   11.0986   -0.0000 </r>
       <r>   11.0986   -0.0000 </r>
       <r>   11.0986   -0.0000 </r>
       <r>   11.0986   -0.0000 </r>
       <r>   11.0986   -0.0000 </r>
       <r>   11.0986   -0.0000 </r>
       <r>   11.0986   -0.0000 </r>
       <r>   11.0986   -0.0000 </r>
       <r>   11.0986   -0.0000 </r>
       <r>   11.0986   -0.0000 </r>
       <r>   11.0986   -0.0000 </r>
       <r>   11.1801   -0.0000 </r>
       <r>   11.1801   -0.0000 </r>
       <r>   11.1801   -0.0000 </r>
       <r>   11.1801   -0.0000 </r>
       <r>   11.1801   -0.0000 </r>
       <r>   11.1801   -0.0000 </r>
       <r>   11.7298   -0.0000 </r>
       <r>   11.7298   -0.0000 </r>
       <r>   11.7298   -0.0000 </r>
       <r>   11.7298   -0.0000 </r>
      </set>
      <set comment="kpoint 2">
       <r>  -39.3715    1.0000 </r>
       <r>  -39.3713    1.0000 </r>
       <r>  -39.3266    1.0000 </r>
       <r>  -39.3266    1.0000 </r>
       <r>  -39.3266    1.0000 </r>
       <r>  -39.3266    1.0000 </r>
       <r>  -39.3265    1.0000 </r>
       <r>  -39.3265    1.0000 </r>
       <r>  -39.3265    1.0000 </r>
       <r>  -39.3265    1.0000 </r>
       <r>  -39.2925    1.0000 </r>
       <r>  -39.2925    1.0000 </r>
       <r>  -39.2925    1.0000 </r>
       <r>  -39.2925    1.0000 </r>
       <r>  -39.2924    1.0000 </r>
       <r>  -39.2924    1.0000 </r>
       <r>  -39.2924    1.0000 </r>
       <r>  -39.2924    1.0000 </r>
       <r>  -39.2850    1.0000 </r>
       <r>  -39.2850    1.0000 </r>
       <r>  -39.2620    1.0000 </r>
       <r>  -39.2620    1.0000 </r>
       <r>  -39.2620    1.0000 </r>
       <r>  -39.2620    1.0000 </r>
       <r>  -39.2620    1.0000 </r>
       <r>  -39.2620    1.0000 </r>
       <r>  -39.2620    1.0000 </r>
       <r>  -39.2620    1.0000 </r>
       <r>  -39.2438    1.0000 </r>
       <r>  -39.2438    1.0000 </r>
       <r>  -39.2438    1.0000 </r>
       <r>  -39.2438    1.0000 </r>
       <r>  -39.2438    1.0000 </r>
       <r>  -39.2438    1.0000 </r>
       <r>  -39.2438    1.0000 </r>
       <r>  -39.2438    1.0000 </r>
       <r>  -39.2254    1.0000 </r>
       <r>  -39.2254    1.0000 </r>
       <r>  -39.2254    1.0000 </r>
       <r>  -39.2254    1.0000 </r>
       <r>  -39.2253    1.0000 </r>
       <r>  -39.2253    1.0000 </r>
       <r>  -39.2253    1.0000 </r>
       <r>  -39.2253    1.0000 </r>
       <r>  -39.2188    1.0000 </r>
       <r>  -39.2188    1.0000 </r>
       <r>  -39.2188    1.0000 </r>
       <r>  -39.2188    1.0000 </r>
       <r>  -39.2188    1.0000 </r>
       <r>  -39.2188    1.0000 </r>
       <r>  -39.2188    1.0000 </r>
       <r>  -39.2188    1.0000 </r>
       <r>  -39.2187    1.0000 </r>
       <r>  -39.2187    1.0000 </r>
       <r>  -39.2186    1.0000 </r>
       <r>  -39.2186    1.0000 </r>
       <r>  -39.2186    1.0000 </r>
       <r>  -39.2186    1.0000 </r>
       <r>  -39.2186    1.0000 </r>
       <r>  -39.2186    1.0000 </r>
       <r>  -39.2160    1.0000 </r>
       <r>  -39.2160    1.0000 </r>
       <r>  -39.2160    1.0000 </r>
       <r>  -39.2160    1.0000 </r>
       <r>  -39.2158    1.0000 </r>
       <r>  -39.2158    1.0000 </r>
       <r>  -39.2158    1.0000 </r>
       <r>  -39.2158    1.0000 </r>
       <r>  -39.2119    1.0000 </r>
       <r>  -39.2119    1.0000 </r>
       <r>  -39.2118    1.0000 </r>
       <r>  -39.2118    1.0000 </r>
       <r>  -39.2093    1.0000 </r>
       <r>  -39.2093    1.0000 </r>
       <r>  -39.2093    1.0000 </r>
       <r>  -39.2093    1.0000 </r>
       <r>  -39.2093    1.0000 </r>
       <r>  -39.2093    1.0000 </r>
       <r>  -39.2093    1.0000 </r>
       <r>  -39.2093    1.0000 </r>
       <r>  -39.2092    1.0000 </r>
       <r>  -39.2092    1.0000 </r>
       <r>  -39.2091    1.0000 </r>
       <r>  -39.2091    1.0000 </r>
       <r>  -39.2091    1.0000 </r>
       <r>  -39.2091    1.0000 </r>
       <r>  -39.2091    1.0000 </r>
       <r>  -39.2091    1.0000 </r>
       <r>  -39.2028    1.0000 </r>
       <r>  -39.2028    1.0000 </r>
       <r>  -39.2026    1.0000 </r>
       <r>  -39.2026    1.0000 </r>
       <r>  -39.1879    1.0000 </r>
       <r>  -39.1879    1.0000 </r>
       <r>  -39.1879    1.0000 </r>
       <r>  -39.1879    1.0000 </r>
       <r>  -39.1879    1.0000 </r>
       <r>  -39.1879    1.0000 </r>
       <r>  -39.1879    1.0000 </r>
       <r>  -39.1879    1.0000 </r>
       <r>  -39.1830    1.0000 </r>
       <r>  -39.1830    1.0000 </r>
       <r>  -39.1830    1.0000 </r>
       <r>  -39.1830    1.0000 </r>
       <r>  -39.1830    1.0000 </r>
       <r>  -39.1830    1.0000 </r>
       <r>  -39.1830    1.0000 </r>
       <r>  -39.1830    1.0000 </r>
       <r>  -39.1733    1.0000 </r>
       <r>  -39.1733    1.0000 </r>
       <r>  -39.1577    1.0000 </r>
       <r>  -39.1577    1.0000 </r>
       <r>  -39.1577    1.0000 </r>
       <r>  -39.1577    1.0000 </r>
       <r>  -39.1576    1.0000 </r>
       <r>  -39.1576    1.0000 </r>
       <r>  -39.1576    1.0000 </r>
       <r>  -39.1576    1.0000 </r>
       <r>  -39.1360    1.0000 </r>
       <r>  -39.1360    1.0000 </r>
       <r>  -39.1360    1.0000 </r>
       <r>  -39.1360    1.0000 </r>
       <r>  -39.1359    1.0000 </r>
       <r>  -39.1359    1.0000 </r>
       <r>  -39.1359    1.0000 </r>
       <r>  -39.1359    1.0000 </r>
       <r>  -39.1026    1.0000 </r>
       <r>  -39.1024    1.0000 </r>
       <r>  -17.8857    1.0000 </r>
       <r>  -17.8857    1.0000 </r>
       <r>  -17.8856    1.0000 </r>
       <r>  -17.8856    1.0000 </r>
       <r>  -17.8764    1.0000 </r>
       <r>  -17.8764    1.0000 </r>
       <r>  -17.8764    1.0000 </r>
       <r>  -17.8764    1.0000 </r>
       <r>  -17.8762    1.0000 </r>
       <r>  -17.8762    1.0000 </r>
       <r>  -17.8762    1.0000 </r>
       <r>  -17.8762    1.0000 </r>
       <r>  -17.7930    1.0000 </r>
       <r>  -17.7930    1.0000 </r>
       <r>  -17.7930    1.0000 </r>
       <r>  -17.7930    1.0000 </r>
       <r>  -17.7930    1.0000 </r>
       <r>  -17.7930    1.0000 </r>
       <r>  -17.7930    1.0000 </r>
       <r>  -17.7930    1.0000 </r>
       <r>  -17.7568    1.0000 </r>
       <r>  -17.7568    1.0000 </r>
       <r>  -17.7568    1.0000 </r>
       <r>  -17.7568    1.0000 </r>
       <r>  -17.7568    1.0000 </r>
       <r>  -17.7568    1.0000 </r>
       <r>  -17.7568    1.0000 </r>
       <r>  -17.7568    1.0000 </r>
       <r>  -17.7567    1.0000 </r>
       <r>  -17.7567    1.0000 </r>
       <r>  -17.7566    1.0000 </r>
       <r>  -17.7566    1.0000 </r>
       <r>  -17.7566    1.0000 </r>
       <r>  -17.7566    1.0000 </r>
       <r>  -17.7566    1.0000 </r>
       <r>  -17.7566    1.0000 </r>
       <r>  -17.7362    1.0000 </r>
       <r>  -17.7362    1.0000 </r>
       <r>  -17.7362    1.0000 </r>
       <r>  -17.7362    1.0000 </r>
       <r>  -17.7362    1.0000 </r>
       <r>  -17.7362    1.0000 </r>
       <r>  -17.7362    1.0000 </r>
       <r>  -17.7362    1.0000 </r>
       <r>  -17.7361    1.0000 </r>
       <r>  -17.7361    1.0000 </r>
       <r>  -17.7361    1.0000 </r>
       <r>  -17.7361    1.0000 </r>
       <r>  -17.7361    1.0000 </r>
       <r>  -17.7361    1.0000 </r>
       <r>  -17.7361    1.0000 </r>
       <r>  -17.7361    1.0000 </r>
       <r>  -17.7277    1.0000 </r>
       <r>  -17.7277    1.0000 </r>
       <r>  -17.7277    1.0000 </r>
       <r>  -17.7277    1.0000 </r>
       <r>  -17.7276    1.0000 </r>
       <r>  -17.7276    1.0000 </r>
       <r>  -17.7276    1.0000 </r>
       <r>  -17.7276    1.0000 </r>
       <r>  -17.7187    1.0000 </r>
       <r>  -17.7187    1.0000 </r>
       <r>  -17.7187    1.0000 </r>
       <r>  -17.7187    1.0000 </r>
       <r>  -17.7187    1.0000 </r>
       <r>  -17.7187    1.0000 </r>
       <r>  -17.7187    1.0000 </r>
       <r>  -17.7187    1.0000 </r>
       <r>  -17.6735    1.0000 </r>
       <r>  -17.6735    1.0000 </r>
       <r>  -17.6735    1.0000 </r>
       <r>  -17.6735    1.0000 </r>
       <r>  -17.6735    1.0000 </r>
       <r>  -17.6735    1.0000 </r>
       <r>  -17.6735    1.0000 </r>
       <r>  -17.6735    1.0000 </r>
       <r>  -17.6726    1.0000 </r>
       <r>  -17.6726    1.0000 </r>
       <r>  -17.6726    1.0000 </r>
       <r>  -17.6726    1.0000 </r>
       <r>  -17.6725    1.0000 </r>
       <r>  -17.6725    1.0000 </r>
       <r>  -17.6725    1.0000 </r>
       <r>  -17.6725    1.0000 </r>
       <r>  -17.6089    1.0000 </r>
       <r>  -17.6089    1.0000 </r>
       <r>  -17.6089    1.0000 </r>
       <r>  -17.6089    1.0000 </r>
       <r>  -17.6089    1.0000 </r>
       <r>  -17.6089    1.0000 </r>
       <r>  -17.6089    1.0000 </r>
       <r>  -17.6089    1.0000 </r>
       <r>  -17.6041    1.0000 </r>
       <r>  -17.6041    1.0000 </r>
       <r>  -17.6041    1.0000 </r>
       <r>  -17.6041    1.0000 </r>
       <r>  -17.5938    1.0000 </r>
       <r>  -17.5936    1.0000 </r>
       <r>  -17.5637    1.0000 </r>
       <r>  -17.5637    1.0000 </r>
       <r>  -17.5637    1.0000 </r>
       <r>  -17.5637    1.0000 </r>
       <r>  -17.5637    1.0000 </r>
       <r>  -17.5637    1.0000 </r>
       <r>  -17.5637    1.0000 </r>
       <r>  -17.5637    1.0000 </r>
       <r>  -17.5635    1.0000 </r>
       <r>  -17.5635    1.0000 </r>
       <r>  -17.5633    1.0000 </r>
       <r>  -17.5633    1.0000 </r>
       <r>  -17.5449    1.0000 </r>
       <r>  -17.5449    1.0000 </r>
       <r>  -17.4978    1.0000 </r>
       <r>  -17.4978    1.0000 </r>
       <r>  -17.4978    1.0000 </r>
       <r>  -17.4978    1.0000 </r>
       <r>  -17.4977    1.0000 </r>
       <r>  -17.4977    1.0000 </r>
       <r>  -17.4977    1.0000 </r>
       <r>  -17.4977    1.0000 </r>
       <r>  -17.4849    1.0000 </r>
       <r>  -17.4849    1.0000 </r>
       <r>  -17.4849    1.0000 </r>
       <r>  -17.4849    1.0000 </r>
       <r>  -17.4849    1.0000 </r>
       <r>  -17.4849    1.0000 </r>
       <r>  -17.4849    1.0000 </r>
       <r>  -17.4849    1.0000 </r>
       <r>  -17.4617    1.0000 </r>
       <r>  -17.4617    1.0000 </r>
       <r>  -17.4617    1.0000 </r>
       <r>  -17.4617    1.0000 </r>
       <r>  -17.4616    1.0000 </r>
       <r>  -17.4616    1.0000 </r>
       <r>  -17.4616    1.0000 </r>
       <r>  -17.4616    1.0000 </r>
       <r>  -17.4612    1.0000 </r>
       <r>  -17.4612    1.0000 </r>
       <r>  -17.4612    1.0000 </r>
       <r>  -17.4612    1.0000 </r>
       <r>  -17.4610    1.0000 </r>
       <r>  -17.4610    1.0000 </r>
       <r>  -17.4610    1.0000 </r>
       <r>  -17.4610    1.0000 </r>
       <r>  -17.3849    1.0000 </r>
       <r>  -17.3849    1.0000 </r>
       <r>  -17.3849    1.0000 </r>
       <r>  -17.3849    1.0000 </r>
       <r>  -17.3849    1.0000 </r>
       <r>  -17.3849    1.0000 </r>
       <r>  -17.3849    1.0000 </r>
       <r>  -17.3849    1.0000 </r>
       <r>  -17.3751    1.0000 </r>
       <r>  -17.3751    1.0000 </r>
       <r>  -17.3750    1.0000 </r>
       <r>  -17.3750    1.0000 </r>
       <r>  -17.3632    1.0000 </r>
       <r>  -17.3632    1.0000 </r>
       <r>  -17.3632    1.0000 </r>
       <r>  -17.3632    1.0000 </r>
       <r>  -17.3192    1.0000 </r>
       <r>  -17.3192    1.0000 </r>
       <r>  -17.3192    1.0000 </r>
       <r>  -17.3192    1.0000 </r>
       <r>  -17.3192    1.0000 </r>
       <r>  -17.3192    1.0000 </r>
       <r>  -17.3192    1.0000 </r>
       <r>  -17.3192    1.0000 </r>
       <r>  -17.3191    1.0000 </r>
       <r>  -17.3191    1.0000 </r>
       <r>  -17.3191    1.0000 </r>
       <r>  -17.3191    1.0000 </r>
       <r>  -17.3191    1.0000 </r>
       <r>  -17.3191    1.0000 </r>
       <r>  -17.3191    1.0000 </r>
       <r>  -17.3191    1.0000 </r>
       <r>  -17.3131    1.0000 </r>
       <r>  -17.3131    1.0000 </r>
       <r>  -17.3131    1.0000 </r>
       <r>  -17.3131    1.0000 </r>
       <r>  -17.3131    1.0000 </r>
       <r>  -17.3131    1.0000 </r>
       <r>  -17.3131    1.0000 </r>
       <r>  -17.3131    1.0000 </r>
       <r>  -17.2738    1.0000 </r>
       <r>  -17.2738    1.0000 </r>
       <r>  -17.2556    1.0000 </r>
       <r>  -17.2556    1.0000 </r>
       <r>  -17.2556    1.0000 </r>
       <r>  -17.2556    1.0000 </r>
       <r>  -17.2556    1.0000 </r>
       <r>  -17.2556    1.0000 </r>
       <r>  -17.2556    1.0000 </r>
       <r>  -17.2556    1.0000 </r>
       <r>  -17.2555    1.0000 </r>
       <r>  -17.2555    1.0000 </r>
       <r>  -17.2555    1.0000 </r>
       <r>  -17.2555    1.0000 </r>
       <r>  -17.2555    1.0000 </r>
       <r>  -17.2555    1.0000 </r>
       <r>  -17.2555    1.0000 </r>
       <r>  -17.2555    1.0000 </r>
       <r>  -17.2325    1.0000 </r>
       <r>  -17.2325    1.0000 </r>
       <r>  -17.2324    1.0000 </r>
       <r>  -17.2324    1.0000 </r>
       <r>  -17.2205    1.0000 </r>
       <r>  -17.2205    1.0000 </r>
       <r>  -17.2205    1.0000 </r>
       <r>  -17.2205    1.0000 </r>
       <r>  -17.2203    1.0000 </r>
       <r>  -17.2203    1.0000 </r>
       <r>  -17.2203    1.0000 </r>
       <r>  -17.2203    1.0000 </r>
       <r>  -17.2141    1.0000 </r>
       <r>  -17.2141    1.0000 </r>
       <r>  -17.2141    1.0000 </r>
       <r>  -17.2141    1.0000 </r>
       <r>  -17.2140    1.0000 </r>
       <r>  -17.2140    1.0000 </r>
       <r>  -17.2140    1.0000 </r>
       <r>  -17.2140    1.0000 </r>
       <r>  -17.2061    1.0000 </r>
       <r>  -17.2061    1.0000 </r>
       <r>  -17.2061    1.0000 </r>
       <r>  -17.2061    1.0000 </r>
       <r>  -17.2059    1.0000 </r>
       <r>  -17.2059    1.0000 </r>
       <r>  -17.2059    1.0000 </r>
       <r>  -17.2059    1.0000 </r>
       <r>  -17.2031    1.0000 </r>
       <r>  -17.2031    1.0000 </r>
       <r>  -17.2031    1.0000 </r>
       <r>  -17.2031    1.0000 </r>
       <r>  -17.1673    1.0000 </r>
       <r>  -17.1673    1.0000 </r>
       <r>  -17.1673    1.0000 </r>
       <r>  -17.1673    1.0000 </r>
       <r>  -17.1672    1.0000 </r>
       <r>  -17.1672    1.0000 </r>
       <r>  -17.1672    1.0000 </r>
       <r>  -17.1672    1.0000 </r>
       <r>  -17.1448    1.0000 </r>
       <r>  -17.1448    1.0000 </r>
       <r>  -17.1448    1.0000 </r>
       <r>  -17.1448    1.0000 </r>
       <r>  -17.1448    1.0000 </r>
       <r>  -17.1448    1.0000 </r>
       <r>  -17.1448    1.0000 </r>
       <r>  -17.1448    1.0000 </r>
       <r>  -17.1206    1.0000 </r>
       <r>  -17.1206    1.0000 </r>
       <r>  -17.1206    1.0000 </r>
       <r>  -17.1206    1.0000 </r>
       <r>  -17.1205    1.0000 </r>
       <r>  -17.1205    1.0000 </r>
       <r>  -17.1205    1.0000 </r>
       <r>  -17.1205    1.0000 </r>
       <r>  -17.1172    1.0000 </r>
       <r>  -17.1172    1.0000 </r>
       <r>  -17.1172    1.0000 </r>
       <r>  -17.1172    1.0000 </r>
       <r>  -17.1172    1.0000 </r>
       <r>  -17.1172    1.0000 </r>
       <r>  -17.1172    1.0000 </r>
       <r>  -17.1172    1.0000 </r>
       <r>  -17.1113    1.0000 </r>
       <r>  -17.1113    1.0000 </r>
       <r>  -17.1113    1.0000 </r>
       <r>  -17.1113    1.0000 </r>
       <r>  -17.1113    1.0000 </r>
       <r>  -17.1113    1.0000 </r>
       <r>  -17.1113    1.0000 </r>
       <r>  -17.1113    1.0000 </r>
       <r>  -17.0867    1.0000 </r>
       <r>  -17.0867    1.0000 </r>
       <r>  -17.0867    1.0000 </r>
       <r>  -17.0867    1.0000 </r>
       <r>  -17.0272    1.0000 </r>
       <r>  -17.0272    1.0000 </r>
       <r>  -17.0272    1.0000 </r>
       <r>  -17.0272    1.0000 </r>
       <r>  -17.0271    1.0000 </r>
       <r>  -17.0271    1.0000 </r>
       <r>  -17.0271    1.0000 </r>
       <r>  -17.0271    1.0000 </r>
       <r>  -17.0110    1.0000 </r>
       <r>  -17.0110    1.0000 </r>
       <r>  -17.0110    1.0000 </r>
       <r>  -17.0110    1.0000 </r>
       <r>  -17.0110    1.0000 </r>
       <r>  -17.0110    1.0000 </r>
       <r>  -17.0110    1.0000 </r>
       <r>  -17.0110    1.0000 </r>
       <r>  -17.0109    1.0000 </r>
       <r>  -17.0109    1.0000 </r>
       <r>  -17.0109    1.0000 </r>
       <r>  -17.0109    1.0000 </r>
       <r>  -17.0109    1.0000 </r>
       <r>  -17.0109    1.0000 </r>
       <r>  -17.0109    1.0000 </r>
       <r>  -17.0109    1.0000 </r>
       <r>  -17.0091    1.0000 </r>
       <r>  -17.0091    1.0000 </r>
       <r>  -17.0091    1.0000 </r>
       <r>  -17.0091    1.0000 </r>
       <r>  -17.0091    1.0000 </r>
       <r>  -17.0091    1.0000 </r>
       <r>  -17.0091    1.0000 </r>
       <r>  -17.0091    1.0000 </r>
       <r>  -16.9892    1.0000 </r>
       <r>  -16.9892    1.0000 </r>
       <r>  -16.9892    1.0000 </r>
       <r>  -16.9892    1.0000 </r>
       <r>  -16.9891    1.0000 </r>
       <r>  -16.9891    1.0000 </r>
       <r>  -16.9890    1.0000 </r>
       <r>  -16.9890    1.0000 </r>
       <r>  -16.9827    1.0000 </r>
       <r>  -16.9827    1.0000 </r>
       <r>  -16.9827    1.0000 </r>
       <r>  -16.9827    1.0000 </r>
       <r>  -16.9827    1.0000 </r>
       <r>  -16.9827    1.0000 </r>
       <r>  -16.9827    1.0000 </r>
       <r>  -16.9827    1.0000 </r>
       <r>  -16.9807    1.0000 </r>
       <r>  -16.9807    1.0000 </r>
       <r>  -16.9807    1.0000 </r>
       <r>  -16.9807    1.0000 </r>
       <r>  -16.9807    1.0000 </r>
       <r>  -16.9807    1.0000 </r>
       <r>  -16.9807    1.0000 </r>
       <r>  -16.9807    1.0000 </r>
       <r>  -16.9806    1.0000 </r>
       <r>  -16.9806    1.0000 </r>
       <r>  -16.9806    1.0000 </r>
       <r>  -16.9806    1.0000 </r>
       <r>  -16.9806    1.0000 </r>
       <r>  -16.9806    1.0000 </r>
       <r>  -16.9806    1.0000 </r>
       <r>  -16.9806    1.0000 </r>
       <r>  -16.9303    1.0000 </r>
       <r>  -16.9302    1.0000 </r>
       <r>  -16.9194    1.0000 </r>
       <r>  -16.9194    1.0000 </r>
       <r>  -16.9193    1.0000 </r>
       <r>  -16.9193    1.0000 </r>
       <r>  -16.9085    1.0000 </r>
       <r>  -16.9085    1.0000 </r>
       <r>  -16.9085    1.0000 </r>
       <r>  -16.9085    1.0000 </r>
       <r>  -16.9084    1.0000 </r>
       <r>  -16.9084    1.0000 </r>
       <r>  -16.9084    1.0000 </r>
       <r>  -16.9084    1.0000 </r>
       <r>  -16.9078    1.0000 </r>
       <r>  -16.9078    1.0000 </r>
       <r>  -16.9078    1.0000 </r>
       <r>  -16.9078    1.0000 </r>
       <r>  -16.9077    1.0000 </r>
       <r>  -16.9077    1.0000 </r>
       <r>  -16.9077    1.0000 </r>
       <r>  -16.9077    1.0000 </r>
       <r>  -16.9075    1.0000 </r>
       <r>  -16.9075    1.0000 </r>
       <r>  -16.9075    1.0000 </r>
       <r>  -16.9075    1.0000 </r>
       <r>  -16.9075    1.0000 </r>
       <r>  -16.9075    1.0000 </r>
       <r>  -16.9075    1.0000 </r>
       <r>  -16.9075    1.0000 </r>
       <r>  -16.9067    1.0000 </r>
       <r>  -16.9067    1.0000 </r>
       <r>  -16.9067    1.0000 </r>
       <r>  -16.9067    1.0000 </r>
       <r>  -16.9067    1.0000 </r>
       <r>  -16.9067    1.0000 </r>
       <r>  -16.9067    1.0000 </r>
       <r>  -16.9067    1.0000 </r>
       <r>  -16.8958    1.0000 </r>
       <r>  -16.8958    1.0000 </r>
       <r>  -16.8956    1.0000 </r>
       <r>  -16.8956    1.0000 </r>
       <r>    3.9348    1.0000 </r>
       <r>    3.9349    1.0000 </r>
       <r>    4.8991    1.0000 </r>
       <r>    4.8991    1.0000 </r>
       <r>    4.8991    1.0000 </r>
       <r>    4.8991    1.0000 </r>
       <r>    4.8992    1.0000 </r>
       <r>    4.8992    1.0000 </r>
       <r>    4.8992    1.0000 </r>
       <r>    4.8992    1.0000 </r>
       <r>    5.6677    1.0000 </r>
       <r>    5.6677    1.0000 </r>
       <r>    5.6677    1.0000 </r>
       <r>    5.6677    1.0000 </r>
       <r>    5.6678    1.0000 </r>
       <r>    5.6678    1.0000 </r>
       <r>    5.6678    1.0000 </r>
       <r>    5.6678    1.0000 </r>
       <r>    5.7587    1.0000 </r>
       <r>    5.7587    1.0000 </r>
       <r>    6.0659    1.0000 </r>
       <r>    6.0659    1.0000 </r>
       <r>    6.0659    1.0000 </r>
       <r>    6.0659    1.0000 </r>
       <r>    6.0659    1.0000 </r>
       <r>    6.0659    1.0000 </r>
       <r>    6.0660    1.0000 </r>
       <r>    6.0660    1.0000 </r>
       <r>    6.3168    1.0000 </r>
       <r>    6.3168    1.0000 </r>
       <r>    6.3168    1.0000 </r>
       <r>    6.3168    1.0000 </r>
       <r>    6.3169    1.0000 </r>
       <r>    6.3169    1.0000 </r>
       <r>    6.3169    1.0000 </r>
       <r>    6.3169    1.0000 </r>
       <r>    6.4631    1.0000 </r>
       <r>    6.4631    1.0000 </r>
       <r>    6.4633    1.0000 </r>
       <r>    6.4633    1.0000 </r>
       <r>    6.5357    1.0000 </r>
       <r>    6.5358    1.0000 </r>
       <r>    6.5936    1.0000 </r>
       <r>    6.5938    1.0000 </r>
       <r>    6.8185    1.0000 </r>
       <r>    6.8185    1.0000 </r>
       <r>    6.8185    1.0000 </r>
       <r>    6.8185    1.0000 </r>
       <r>    6.8186    1.0000 </r>
       <r>    6.8186    1.0000 </r>
       <r>    6.8186    1.0000 </r>
       <r>    6.8186    1.0000 </r>
       <r>    6.8473    1.0000 </r>
       <r>    6.8473    1.0000 </r>
       <r>    6.8473    1.0000 </r>
       <r>    6.8473    1.0000 </r>
       <r>    6.8473    1.0000 </r>
       <r>    6.8473    1.0000 </r>
       <r>    6.8473    1.0000 </r>
       <r>    6.8473    1.0000 </r>
       <r>    6.8474    1.0000 </r>
       <r>    6.8474    1.0000 </r>
       <r>    6.8474    1.0000 </r>
       <r>    6.8474    1.0000 </r>
       <r>    6.8474    1.0000 </r>
       <r>    6.8474    1.0000 </r>
       <r>    6.8474    1.0000 </r>
       <r>    6.8474    1.0000 </r>
       <r>    6.8755    1.0000 </r>
       <r>    6.8755    1.0000 </r>
       <r>    6.8755    1.0000 </r>
       <r>    6.8755    1.0000 </r>
       <r>    6.8755    1.0000 </r>
       <r>    6.8755    1.0000 </r>
       <r>    6.8755    1.0000 </r>
       <r>    6.8755    1.0000 </r>
       <r>    7.0181    1.0000 </r>
       <r>    7.0181    1.0000 </r>
       <r>    7.0181    1.0000 </r>
       <r>    7.0181    1.0000 </r>
       <r>    7.0181    1.0000 </r>
       <r>    7.0181    1.0000 </r>
       <r>    7.0181    1.0000 </r>
       <r>    7.0181    1.0000 </r>
       <r>    7.0684    1.0000 </r>
       <r>    7.0684    1.0000 </r>
       <r>    7.0684    1.0000 </r>
       <r>    7.0684    1.0000 </r>
       <r>    7.0685    1.0000 </r>
       <r>    7.0685    1.0000 </r>
       <r>    7.0685    1.0000 </r>
       <r>    7.0685    1.0000 </r>
       <r>    7.2575    1.0000 </r>
       <r>    7.2575    1.0000 </r>
       <r>    7.2575    1.0000 </r>
       <r>    7.2575    1.0000 </r>
       <r>    7.2575    1.0000 </r>
       <r>    7.2575    1.0000 </r>
       <r>    7.2575    1.0000 </r>
       <r>    7.2575    1.0000 </r>
       <r>    7.2576    1.0000 </r>
       <r>    7.2576    1.0000 </r>
       <r>    7.2576    1.0000 </r>
       <r>    7.2576    1.0000 </r>
       <r>    7.2576    1.0000 </r>
       <r>    7.2576    1.0000 </r>
       <r>    7.2576    1.0000 </r>
       <r>    7.2576    1.0000 </r>
       <r>    7.2935    1.0000 </r>
       <r>    7.2935    1.0000 </r>
       <r>    7.2935    1.0000 </r>
       <r>    7.2935    1.0000 </r>
       <r>    7.2937    1.0000 </r>
       <r>    7.2937    1.0000 </r>
       <r>    7.2937    1.0000 </r>
       <r>    7.2937    1.0000 </r>
       <r>    7.3131    1.0000 </r>
       <r>    7.3131    1.0000 </r>
       <r>    7.4150    1.0000 </r>
       <r>    7.4150    1.0000 </r>
       <r>    7.4150    1.0000 </r>
       <r>    7.4150    1.0000 </r>
       <r>    7.4151    1.0000 </r>
       <r>    7.4151    1.0000 </r>
       <r>    7.4152    1.0000 </r>
       <r>    7.4152    1.0000 </r>
       <r>    7.6922    1.0000 </r>
       <r>    7.6922    1.0000 </r>
       <r>    7.6922    1.0000 </r>
       <r>    7.6922    1.0000 </r>
       <r>    7.6922    1.0000 </r>
       <r>    7.6922    1.0000 </r>
       <r>    7.6922    1.0000 </r>
       <r>    7.6922    1.0000 </r>
       <r>    7.7283    1.0000 </r>
       <r>    7.7284    1.0000 </r>
       <r>    7.9722    1.0000 </r>
       <r>    7.9722    1.0000 </r>
       <r>    7.9722    1.0000 </r>
       <r>    7.9722    1.0000 </r>
       <r>    7.9723    1.0000 </r>
       <r>    7.9723    1.0000 </r>
       <r>    7.9723    1.0000 </r>
       <r>    7.9723    1.0000 </r>
       <r>    8.0745    1.0000 </r>
       <r>    8.0745    1.0000 </r>
       <r>    8.0746    1.0000 </r>
       <r>    8.0746    1.0000 </r>
       <r>    8.2239    1.0000 </r>
       <r>    8.2239    1.0000 </r>
       <r>    8.2239    1.0000 </r>
       <r>    8.2239    1.0000 </r>
       <r>    8.2239    1.0000 </r>
       <r>    8.2239    1.0000 </r>
       <r>    8.2239    1.0000 </r>
       <r>    8.2239    1.0000 </r>
       <r>    8.2445    1.0000 </r>
       <r>    8.2445    1.0000 </r>
       <r>    8.2445    1.0000 </r>
       <r>    8.2445    1.0000 </r>
       <r>    8.2731    1.0000 </r>
       <r>    8.2731    1.0000 </r>
       <r>    8.2732    1.0000 </r>
       <r>    8.2732    1.0000 </r>
       <r>    8.3040    1.0000 </r>
       <r>    8.3040    1.0000 </r>
       <r>    8.3040    1.0000 </r>
       <r>    8.3040    1.0000 </r>
       <r>    8.3040    1.0000 </r>
       <r>    8.3040    1.0000 </r>
       <r>    8.3040    1.0000 </r>
       <r>    8.3040    1.0000 </r>
       <r>    8.3041    1.0000 </r>
       <r>    8.3041    1.0000 </r>
       <r>    8.3041    1.0000 </r>
       <r>    8.3041    1.0000 </r>
       <r>    8.3042    1.0000 </r>
       <r>    8.3042    1.0000 </r>
       <r>    8.3042    1.0000 </r>
       <r>    8.3042    1.0000 </r>
       <r>    8.4894    1.0003 </r>
       <r>    8.4894    1.0003 </r>
       <r>    8.4894    1.0003 </r>
       <r>    8.4894    1.0003 </r>
       <r>    8.4894    1.0003 </r>
       <r>    8.4894    1.0003 </r>
       <r>    8.4894    1.0003 </r>
       <r>    8.4894    1.0003 </r>
       <r>    8.5138    1.0006 </r>
       <r>    8.5138    1.0006 </r>
       <r>    8.5138    1.0006 </r>
       <r>    8.5138    1.0006 </r>
       <r>    8.5139    1.0006 </r>
       <r>    8.5139    1.0006 </r>
       <r>    8.5139    1.0006 </r>
       <r>    8.5139    1.0006 </r>
       <r>    8.6076    1.0045 </r>
       <r>    8.6076    1.0045 </r>
       <r>    8.6076    1.0045 </r>
       <r>    8.6076    1.0045 </r>
       <r>    8.6077    1.0045 </r>
       <r>    8.6077    1.0045 </r>
       <r>    8.6077    1.0045 </r>
       <r>    8.6077    1.0045 </r>
       <r>    8.6077    1.0045 </r>
       <r>    8.6077    1.0045 </r>
       <r>    8.6077    1.0045 </r>
       <r>    8.6077    1.0045 </r>
       <r>    8.6077    1.0045 </r>
       <r>    8.6077    1.0045 </r>
       <r>    8.6077    1.0045 </r>
       <r>    8.6077    1.0045 </r>
       <r>    8.6084    1.0046 </r>
       <r>    8.6084    1.0046 </r>
       <r>    8.6084    1.0046 </r>
       <r>    8.6084    1.0046 </r>
       <r>    8.6084    1.0046 </r>
       <r>    8.6084    1.0046 </r>
       <r>    8.6084    1.0046 </r>
       <r>    8.6084    1.0046 </r>
       <r>    8.6658    1.0118 </r>
       <r>    8.6658    1.0118 </r>
       <r>    8.6658    1.0118 </r>
       <r>    8.6658    1.0118 </r>
       <r>    8.6659    1.0118 </r>
       <r>    8.6659    1.0118 </r>
       <r>    8.6659    1.0118 </r>
       <r>    8.6659    1.0118 </r>
       <r>    8.7294    1.0251 </r>
       <r>    8.7294    1.0251 </r>
       <r>    8.7294    1.0251 </r>
       <r>    8.7294    1.0251 </r>
       <r>    8.7294    1.0251 </r>
       <r>    8.7294    1.0251 </r>
       <r>    8.7294    1.0251 </r>
       <r>    8.7294    1.0251 </r>
       <r>    8.9249    0.9098 </r>
       <r>    8.9250    0.9098 </r>
       <r>    8.9250    0.9098 </r>
       <r>    8.9250    0.9098 </r>
       <r>    8.9250    0.9098 </r>
       <r>    8.9250    0.9098 </r>
       <r>    8.9250    0.9098 </r>
       <r>    8.9250    0.9098 </r>
       <r>    8.9287    0.9009 </r>
       <r>    8.9287    0.9009 </r>
       <r>    8.9287    0.9009 </r>
       <r>    8.9287    0.9009 </r>
       <r>    8.9287    0.9009 </r>
       <r>    8.9287    0.9009 </r>
       <r>    8.9287    0.9009 </r>
       <r>    8.9287    0.9009 </r>
       <r>    8.9962    0.6827 </r>
       <r>    8.9962    0.6827 </r>
       <r>    8.9962    0.6827 </r>
       <r>    8.9962    0.6827 </r>
       <r>    8.9963    0.6823 </r>
       <r>    8.9963    0.6823 </r>
       <r>    8.9963    0.6823 </r>
       <r>    8.9963    0.6822 </r>
       <r>    9.0068    0.6403 </r>
       <r>    9.0068    0.6403 </r>
       <r>    9.0068    0.6403 </r>
       <r>    9.0068    0.6403 </r>
       <r>    9.1582    0.0853 </r>
       <r>    9.1582    0.0853 </r>
       <r>    9.1582    0.0853 </r>
       <r>    9.1582    0.0853 </r>
       <r>    9.1583    0.0850 </r>
       <r>    9.1583    0.0850 </r>
       <r>    9.1583    0.0850 </r>
       <r>    9.1583    0.0850 </r>
       <r>    9.2833   -0.0354 </r>
       <r>    9.2833   -0.0354 </r>
       <r>    9.2834   -0.0354 </r>
       <r>    9.2834   -0.0354 </r>
       <r>    9.2834   -0.0354 </r>
       <r>    9.2834   -0.0354 </r>
       <r>    9.2834   -0.0354 </r>
       <r>    9.2834   -0.0354 </r>
       <r>    9.2834   -0.0354 </r>
       <r>    9.2834   -0.0354 </r>
       <r>    9.2834   -0.0354 </r>
       <r>    9.2834   -0.0354 </r>
       <r>    9.2834   -0.0354 </r>
       <r>    9.2834   -0.0354 </r>
       <r>    9.2834   -0.0354 </r>
       <r>    9.2834   -0.0354 </r>
       <r>    9.3266   -0.0306 </r>
       <r>    9.3266   -0.0306 </r>
       <r>    9.3266   -0.0306 </r>
       <r>    9.3266   -0.0306 </r>
       <r>    9.3266   -0.0306 </r>
       <r>    9.3266   -0.0306 </r>
       <r>    9.3266   -0.0306 </r>
       <r>    9.3266   -0.0306 </r>
       <r>    9.3267   -0.0306 </r>
       <r>    9.3267   -0.0306 </r>
       <r>    9.3268   -0.0306 </r>
       <r>    9.3268   -0.0306 </r>
       <r>    9.3268   -0.0306 </r>
       <r>    9.3268   -0.0306 </r>
       <r>    9.3268   -0.0306 </r>
       <r>    9.3268   -0.0306 </r>
       <r>    9.3538   -0.0246 </r>
       <r>    9.3538   -0.0246 </r>
       <r>    9.3538   -0.0246 </r>
       <r>    9.3538   -0.0246 </r>
       <r>    9.3538   -0.0246 </r>
       <r>    9.3538   -0.0246 </r>
       <r>    9.3539   -0.0246 </r>
       <r>    9.3539   -0.0246 </r>
       <r>    9.4625   -0.0055 </r>
       <r>    9.4625   -0.0055 </r>
       <r>    9.4625   -0.0055 </r>
       <r>    9.4625   -0.0055 </r>
       <r>    9.4625   -0.0055 </r>
       <r>    9.4625   -0.0055 </r>
       <r>    9.4625   -0.0055 </r>
       <r>    9.4625   -0.0055 </r>
       <r>    9.5813   -0.0004 </r>
       <r>    9.5813   -0.0004 </r>
       <r>    9.5813   -0.0004 </r>
       <r>    9.5813   -0.0004 </r>
       <r>    9.5813   -0.0004 </r>
       <r>    9.5813   -0.0004 </r>
       <r>    9.5813   -0.0004 </r>
       <r>    9.5813   -0.0004 </r>
       <r>    9.5995   -0.0003 </r>
       <r>    9.5995   -0.0003 </r>
       <r>    9.5995   -0.0003 </r>
       <r>    9.5995   -0.0003 </r>
       <r>    9.5996   -0.0003 </r>
       <r>    9.5996   -0.0003 </r>
       <r>    9.5996   -0.0003 </r>
       <r>    9.5996   -0.0003 </r>
       <r>    9.7740   -0.0000 </r>
       <r>    9.7740   -0.0000 </r>
       <r>    9.7740   -0.0000 </r>
       <r>    9.7740   -0.0000 </r>
       <r>    9.7740   -0.0000 </r>
       <r>    9.7740   -0.0000 </r>
       <r>    9.7740   -0.0000 </r>
       <r>    9.7740   -0.0000 </r>
       <r>    9.9047   -0.0000 </r>
       <r>    9.9047   -0.0000 </r>
       <r>    9.9047   -0.0000 </r>
       <r>    9.9047   -0.0000 </r>
       <r>    9.9048   -0.0000 </r>
       <r>    9.9048   -0.0000 </r>
       <r>    9.9048   -0.0000 </r>
       <r>    9.9048   -0.0000 </r>
       <r>    9.9152   -0.0000 </r>
       <r>    9.9152   -0.0000 </r>
       <r>   10.1157   -0.0000 </r>
       <r>   10.1157   -0.0000 </r>
       <r>   10.1157   -0.0000 </r>
       <r>   10.1157   -0.0000 </r>
       <r>   10.1157   -0.0000 </r>
       <r>   10.1157   -0.0000 </r>
       <r>   10.1157   -0.0000 </r>
       <r>   10.1157   -0.0000 </r>
       <r>   10.1271   -0.0000 </r>
       <r>   10.1271   -0.0000 </r>
       <r>   10.1272   -0.0000 </r>
       <r>   10.1272   -0.0000 </r>
       <r>   10.1708   -0.0000 </r>
       <r>   10.1708   -0.0000 </r>
       <r>   10.1708   -0.0000 </r>
       <r>   10.1708   -0.0000 </r>
       <r>   10.2994   -0.0000 </r>
       <r>   10.2995   -0.0000 </r>
       <r>   10.4085   -0.0000 </r>
       <r>   10.4085   -0.0000 </r>
       <r>   10.4086   -0.0000 </r>
       <r>   10.4086   -0.0000 </r>
       <r>   10.9567   -0.0000 </r>
       <r>   10.9567   -0.0000 </r>
       <r>   10.9567   -0.0000 </r>
       <r>   10.9567   -0.0000 </r>
       <r>   10.9568   -0.0000 </r>
       <r>   10.9568   -0.0000 </r>
       <r>   10.9568   -0.0000 </r>
       <r>   10.9568   -0.0000 </r>
       <r>   11.2026   -0.0000 </r>
       <r>   11.2026   -0.0000 </r>
       <r>   11.2026   -0.0000 </r>
       <r>   11.2026   -0.0000 </r>
       <r>   11.2026   -0.0000 </r>
       <r>   11.2026   -0.0000 </r>
       <r>   11.2026   -0.0000 </r>
       <r>   11.2026   -0.0000 </r>
       <r>   11.2650   -0.0000 </r>
       <r>   11.2650   -0.0000 </r>
       <r>   11.2650   -0.0000 </r>
       <r>   11.2650   -0.0000 </r>
       <r>   11.2797   -0.0000 </r>
       <r>   11.2797   -0.0000 </r>
       <r>   11.2848   -0.0000 </r>
       <r>   11.2848   -0.0000 </r>
       <r>   11.2848   -0.0000 </r>
       <r>   11.2848   -0.0000 </r>
       <r>   11.2848   -0.0000 </r>
       <r>   11.2848   -0.0000 </r>
       <r>   11.2848   -0.0000 </r>
       <r>   11.2848   -0.0000 </r>
       <r>   11.5346   -0.0000 </r>
       <r>   11.5346   -0.0000 </r>
       <r>   11.5346   -0.0000 </r>
       <r>   11.5346   -0.0000 </r>
       <r>   11.5347   -0.0000 </r>
       <r>   11.5347   -0.0000 </r>
      </set>
      <set comment="kpoint 3">
       <r>  -39.3598    1.0000 </r>
       <r>  -39.3597    1.0000 </r>
       <r>  -39.3597    1.0000 </r>
       <r>  -39.3596    1.0000 </r>
       <r>  -39.3176    1.0000 </r>
       <r>  -39.3176    1.0000 </r>
       <r>  -39.3175    1.0000 </r>
       <r>  -39.3175    1.0000 </r>
       <r>  -39.3175    1.0000 </r>
       <r>  -39.3175    1.0000 </r>
       <r>  -39.3174    1.0000 </r>
       <r>  -39.3174    1.0000 </r>
       <r>  -39.2788    1.0000 </r>
       <r>  -39.2788    1.0000 </r>
       <r>  -39.2787    1.0000 </r>
       <r>  -39.2787    1.0000 </r>
       <r>  -39.2787    1.0000 </r>
       <r>  -39.2786    1.0000 </r>
       <r>  -39.2786    1.0000 </r>
       <r>  -39.2786    1.0000 </r>
       <r>  -39.2570    1.0000 </r>
       <r>  -39.2570    1.0000 </r>
       <r>  -39.2570    1.0000 </r>
       <r>  -39.2570    1.0000 </r>
       <r>  -39.2570    1.0000 </r>
       <r>  -39.2570    1.0000 </r>
       <r>  -39.2570    1.0000 </r>
       <r>  -39.2570    1.0000 </r>
       <r>  -39.2569    1.0000 </r>
       <r>  -39.2569    1.0000 </r>
       <r>  -39.2569    1.0000 </r>
       <r>  -39.2569    1.0000 </r>
       <r>  -39.2569    1.0000 </r>
       <r>  -39.2569    1.0000 </r>
       <r>  -39.2569    1.0000 </r>
       <r>  -39.2569    1.0000 </r>
       <r>  -39.2391    1.0000 </r>
       <r>  -39.2391    1.0000 </r>
       <r>  -39.2391    1.0000 </r>
       <r>  -39.2391    1.0000 </r>
       <r>  -39.2264    1.0000 </r>
       <r>  -39.2264    1.0000 </r>
       <r>  -39.2264    1.0000 </r>
       <r>  -39.2264    1.0000 </r>
       <r>  -39.2264    1.0000 </r>
       <r>  -39.2264    1.0000 </r>
       <r>  -39.2264    1.0000 </r>
       <r>  -39.2264    1.0000 </r>
       <r>  -39.2236    1.0000 </r>
       <r>  -39.2236    1.0000 </r>
       <r>  -39.2236    1.0000 </r>
       <r>  -39.2236    1.0000 </r>
       <r>  -39.2235    1.0000 </r>
       <r>  -39.2235    1.0000 </r>
       <r>  -39.2234    1.0000 </r>
       <r>  -39.2234    1.0000 </r>
       <r>  -39.2140    1.0000 </r>
       <r>  -39.2139    1.0000 </r>
       <r>  -39.2139    1.0000 </r>
       <r>  -39.2139    1.0000 </r>
       <r>  -39.2139    1.0000 </r>
       <r>  -39.2139    1.0000 </r>
       <r>  -39.2139    1.0000 </r>
       <r>  -39.2139    1.0000 </r>
       <r>  -39.2138    1.0000 </r>
       <r>  -39.2138    1.0000 </r>
       <r>  -39.2138    1.0000 </r>
       <r>  -39.2138    1.0000 </r>
       <r>  -39.2137    1.0000 </r>
       <r>  -39.2137    1.0000 </r>
       <r>  -39.2137    1.0000 </r>
       <r>  -39.2137    1.0000 </r>
       <r>  -39.2047    1.0000 </r>
       <r>  -39.2047    1.0000 </r>
       <r>  -39.2046    1.0000 </r>
       <r>  -39.2046    1.0000 </r>
       <r>  -39.2045    1.0000 </r>
       <r>  -39.2045    1.0000 </r>
       <r>  -39.2045    1.0000 </r>
       <r>  -39.2045    1.0000 </r>
       <r>  -39.1964    1.0000 </r>
       <r>  -39.1964    1.0000 </r>
       <r>  -39.1964    1.0000 </r>
       <r>  -39.1964    1.0000 </r>
       <r>  -39.1961    1.0000 </r>
       <r>  -39.1961    1.0000 </r>
       <r>  -39.1961    1.0000 </r>
       <r>  -39.1961    1.0000 </r>
       <r>  -39.1960    1.0000 </r>
       <r>  -39.1960    1.0000 </r>
       <r>  -39.1960    1.0000 </r>
       <r>  -39.1960    1.0000 </r>
       <r>  -39.1841    1.0000 </r>
       <r>  -39.1841    1.0000 </r>
       <r>  -39.1841    1.0000 </r>
       <r>  -39.1841    1.0000 </r>
       <r>  -39.1840    1.0000 </r>
       <r>  -39.1840    1.0000 </r>
       <r>  -39.1840    1.0000 </r>
       <r>  -39.1840    1.0000 </r>
       <r>  -39.1840    1.0000 </r>
       <r>  -39.1840    1.0000 </r>
       <r>  -39.1840    1.0000 </r>
       <r>  -39.1840    1.0000 </r>
       <r>  -39.1839    1.0000 </r>
       <r>  -39.1839    1.0000 </r>
       <r>  -39.1839    1.0000 </r>
       <r>  -39.1839    1.0000 </r>
       <r>  -39.1756    1.0000 </r>
       <r>  -39.1756    1.0000 </r>
       <r>  -39.1756    1.0000 </r>
       <r>  -39.1756    1.0000 </r>
       <r>  -39.1755    1.0000 </r>
       <r>  -39.1755    1.0000 </r>
       <r>  -39.1755    1.0000 </r>
       <r>  -39.1755    1.0000 </r>
       <r>  -39.1415    1.0000 </r>
       <r>  -39.1415    1.0000 </r>
       <r>  -39.1414    1.0000 </r>
       <r>  -39.1414    1.0000 </r>
       <r>  -39.1413    1.0000 </r>
       <r>  -39.1413    1.0000 </r>
       <r>  -39.1413    1.0000 </r>
       <r>  -39.1413    1.0000 </r>
       <r>  -39.1111    1.0000 </r>
       <r>  -39.1110    1.0000 </r>
       <r>  -39.1110    1.0000 </r>
       <r>  -39.1109    1.0000 </r>
       <r>  -17.8780    1.0000 </r>
       <r>  -17.8780    1.0000 </r>
       <r>  -17.8780    1.0000 </r>
       <r>  -17.8780    1.0000 </r>
       <r>  -17.8440    1.0000 </r>
       <r>  -17.8440    1.0000 </r>
       <r>  -17.8440    1.0000 </r>
       <r>  -17.8440    1.0000 </r>
       <r>  -17.8440    1.0000 </r>
       <r>  -17.8440    1.0000 </r>
       <r>  -17.8440    1.0000 </r>
       <r>  -17.8440    1.0000 </r>
       <r>  -17.8439    1.0000 </r>
       <r>  -17.8439    1.0000 </r>
       <r>  -17.8439    1.0000 </r>
       <r>  -17.8439    1.0000 </r>
       <r>  -17.8438    1.0000 </r>
       <r>  -17.8438    1.0000 </r>
       <r>  -17.8438    1.0000 </r>
       <r>  -17.8438    1.0000 </r>
       <r>  -17.7798    1.0000 </r>
       <r>  -17.7798    1.0000 </r>
       <r>  -17.7798    1.0000 </r>
       <r>  -17.7798    1.0000 </r>
       <r>  -17.7677    1.0000 </r>
       <r>  -17.7677    1.0000 </r>
       <r>  -17.7677    1.0000 </r>
       <r>  -17.7677    1.0000 </r>
       <r>  -17.7677    1.0000 </r>
       <r>  -17.7677    1.0000 </r>
       <r>  -17.7677    1.0000 </r>
       <r>  -17.7677    1.0000 </r>
       <r>  -17.7676    1.0000 </r>
       <r>  -17.7676    1.0000 </r>
       <r>  -17.7676    1.0000 </r>
       <r>  -17.7676    1.0000 </r>
       <r>  -17.7676    1.0000 </r>
       <r>  -17.7676    1.0000 </r>
       <r>  -17.7676    1.0000 </r>
       <r>  -17.7676    1.0000 </r>
       <r>  -17.7316    1.0000 </r>
       <r>  -17.7316    1.0000 </r>
       <r>  -17.7316    1.0000 </r>
       <r>  -17.7316    1.0000 </r>
       <r>  -17.7316    1.0000 </r>
       <r>  -17.7316    1.0000 </r>
       <r>  -17.7316    1.0000 </r>
       <r>  -17.7316    1.0000 </r>
       <r>  -17.7315    1.0000 </r>
       <r>  -17.7315    1.0000 </r>
       <r>  -17.7314    1.0000 </r>
       <r>  -17.7314    1.0000 </r>
       <r>  -17.7314    1.0000 </r>
       <r>  -17.7314    1.0000 </r>
       <r>  -17.7314    1.0000 </r>
       <r>  -17.7314    1.0000 </r>
       <r>  -17.6750    1.0000 </r>
       <r>  -17.6750    1.0000 </r>
       <r>  -17.6749    1.0000 </r>
       <r>  -17.6749    1.0000 </r>
       <r>  -17.6749    1.0000 </r>
       <r>  -17.6749    1.0000 </r>
       <r>  -17.6748    1.0000 </r>
       <r>  -17.6748    1.0000 </r>
       <r>  -17.6529    1.0000 </r>
       <r>  -17.6529    1.0000 </r>
       <r>  -17.6529    1.0000 </r>
       <r>  -17.6529    1.0000 </r>
       <r>  -17.6529    1.0000 </r>
       <r>  -17.6528    1.0000 </r>
       <r>  -17.6528    1.0000 </r>
       <r>  -17.6528    1.0000 </r>
       <r>  -17.6512    1.0000 </r>
       <r>  -17.6512    1.0000 </r>
       <r>  -17.6512    1.0000 </r>
       <r>  -17.6512    1.0000 </r>
       <r>  -17.6511    1.0000 </r>
       <r>  -17.6511    1.0000 </r>
       <r>  -17.6511    1.0000 </r>
       <r>  -17.6511    1.0000 </r>
       <r>  -17.6421    1.0000 </r>
       <r>  -17.6421    1.0000 </r>
       <r>  -17.6421    1.0000 </r>
       <r>  -17.6421    1.0000 </r>
       <r>  -17.6254    1.0000 </r>
       <r>  -17.6254    1.0000 </r>
       <r>  -17.6254    1.0000 </r>
       <r>  -17.6254    1.0000 </r>
       <r>  -17.6253    1.0000 </r>
       <r>  -17.6253    1.0000 </r>
       <r>  -17.6253    1.0000 </r>
       <r>  -17.6253    1.0000 </r>
       <r>  -17.6253    1.0000 </r>
       <r>  -17.6253    1.0000 </r>
       <r>  -17.6253    1.0000 </r>
       <r>  -17.6253    1.0000 </r>
       <r>  -17.6252    1.0000 </r>
       <r>  -17.6252    1.0000 </r>
       <r>  -17.6252    1.0000 </r>
       <r>  -17.6252    1.0000 </r>
       <r>  -17.6167    1.0000 </r>
       <r>  -17.6167    1.0000 </r>
       <r>  -17.6166    1.0000 </r>
       <r>  -17.6166    1.0000 </r>
       <r>  -17.6166    1.0000 </r>
       <r>  -17.6166    1.0000 </r>
       <r>  -17.6166    1.0000 </r>
       <r>  -17.6166    1.0000 </r>
       <r>  -17.5367    1.0000 </r>
       <r>  -17.5366    1.0000 </r>
       <r>  -17.5365    1.0000 </r>
       <r>  -17.5364    1.0000 </r>
       <r>  -17.5267    1.0000 </r>
       <r>  -17.5267    1.0000 </r>
       <r>  -17.5267    1.0000 </r>
       <r>  -17.5267    1.0000 </r>
       <r>  -17.5267    1.0000 </r>
       <r>  -17.5267    1.0000 </r>
       <r>  -17.5267    1.0000 </r>
       <r>  -17.5267    1.0000 </r>
       <r>  -17.4926    1.0000 </r>
       <r>  -17.4926    1.0000 </r>
       <r>  -17.4926    1.0000 </r>
       <r>  -17.4926    1.0000 </r>
       <r>  -17.4483    1.0000 </r>
       <r>  -17.4483    1.0000 </r>
       <r>  -17.4483    1.0000 </r>
       <r>  -17.4483    1.0000 </r>
       <r>  -17.4483    1.0000 </r>
       <r>  -17.4483    1.0000 </r>
       <r>  -17.4483    1.0000 </r>
       <r>  -17.4483    1.0000 </r>
       <r>  -17.4070    1.0000 </r>
       <r>  -17.4070    1.0000 </r>
       <r>  -17.4070    1.0000 </r>
       <r>  -17.4070    1.0000 </r>
       <r>  -17.4069    1.0000 </r>
       <r>  -17.4069    1.0000 </r>
       <r>  -17.4069    1.0000 </r>
       <r>  -17.4069    1.0000 </r>
       <r>  -17.3888    1.0000 </r>
       <r>  -17.3888    1.0000 </r>
       <r>  -17.3888    1.0000 </r>
       <r>  -17.3888    1.0000 </r>
       <r>  -17.3888    1.0000 </r>
       <r>  -17.3888    1.0000 </r>
       <r>  -17.3888    1.0000 </r>
       <r>  -17.3888    1.0000 </r>
       <r>  -17.3888    1.0000 </r>
       <r>  -17.3888    1.0000 </r>
       <r>  -17.3888    1.0000 </r>
       <r>  -17.3888    1.0000 </r>
       <r>  -17.3887    1.0000 </r>
       <r>  -17.3887    1.0000 </r>
       <r>  -17.3887    1.0000 </r>
       <r>  -17.3887    1.0000 </r>
       <r>  -17.3778    1.0000 </r>
       <r>  -17.3778    1.0000 </r>
       <r>  -17.3778    1.0000 </r>
       <r>  -17.3778    1.0000 </r>
       <r>  -17.3778    1.0000 </r>
       <r>  -17.3778    1.0000 </r>
       <r>  -17.3777    1.0000 </r>
       <r>  -17.3777    1.0000 </r>
       <r>  -17.3499    1.0000 </r>
       <r>  -17.3499    1.0000 </r>
       <r>  -17.3498    1.0000 </r>
       <r>  -17.3498    1.0000 </r>
       <r>  -17.3498    1.0000 </r>
       <r>  -17.3498    1.0000 </r>
       <r>  -17.3497    1.0000 </r>
       <r>  -17.3497    1.0000 </r>
       <r>  -17.2965    1.0000 </r>
       <r>  -17.2965    1.0000 </r>
       <r>  -17.2965    1.0000 </r>
       <r>  -17.2965    1.0000 </r>
       <r>  -17.2964    1.0000 </r>
       <r>  -17.2964    1.0000 </r>
       <r>  -17.2964    1.0000 </r>
       <r>  -17.2964    1.0000 </r>
       <r>  -17.2872    1.0000 </r>
       <r>  -17.2872    1.0000 </r>
       <r>  -17.2872    1.0000 </r>
       <r>  -17.2872    1.0000 </r>
       <r>  -17.2872    1.0000 </r>
       <r>  -17.2872    1.0000 </r>
       <r>  -17.2871    1.0000 </r>
       <r>  -17.2871    1.0000 </r>
       <r>  -17.2618    1.0000 </r>
       <r>  -17.2618    1.0000 </r>
       <r>  -17.2618    1.0000 </r>
       <r>  -17.2618    1.0000 </r>
       <r>  -17.2568    1.0000 </r>
       <r>  -17.2568    1.0000 </r>
       <r>  -17.2568    1.0000 </r>
       <r>  -17.2568    1.0000 </r>
       <r>  -17.2567    1.0000 </r>
       <r>  -17.2567    1.0000 </r>
       <r>  -17.2567    1.0000 </r>
       <r>  -17.2567    1.0000 </r>
       <r>  -17.2507    1.0000 </r>
       <r>  -17.2507    1.0000 </r>
       <r>  -17.2507    1.0000 </r>
       <r>  -17.2507    1.0000 </r>
       <r>  -17.2507    1.0000 </r>
       <r>  -17.2507    1.0000 </r>
       <r>  -17.2507    1.0000 </r>
       <r>  -17.2507    1.0000 </r>
       <r>  -17.2406    1.0000 </r>
       <r>  -17.2406    1.0000 </r>
       <r>  -17.2406    1.0000 </r>
       <r>  -17.2406    1.0000 </r>
       <r>  -17.2406    1.0000 </r>
       <r>  -17.2406    1.0000 </r>
       <r>  -17.2406    1.0000 </r>
       <r>  -17.2406    1.0000 </r>
       <r>  -17.2405    1.0000 </r>
       <r>  -17.2405    1.0000 </r>
       <r>  -17.2405    1.0000 </r>
       <r>  -17.2405    1.0000 </r>
       <r>  -17.2405    1.0000 </r>
       <r>  -17.2404    1.0000 </r>
       <r>  -17.2404    1.0000 </r>
       <r>  -17.2404    1.0000 </r>
       <r>  -17.1976    1.0000 </r>
       <r>  -17.1976    1.0000 </r>
       <r>  -17.1976    1.0000 </r>
       <r>  -17.1976    1.0000 </r>
       <r>  -17.1976    1.0000 </r>
       <r>  -17.1976    1.0000 </r>
       <r>  -17.1976    1.0000 </r>
       <r>  -17.1976    1.0000 </r>
       <r>  -17.1554    1.0000 </r>
       <r>  -17.1554    1.0000 </r>
       <r>  -17.1554    1.0000 </r>
       <r>  -17.1554    1.0000 </r>
       <r>  -17.1268    1.0000 </r>
       <r>  -17.1268    1.0000 </r>
       <r>  -17.1268    1.0000 </r>
       <r>  -17.1268    1.0000 </r>
       <r>  -17.1268    1.0000 </r>
       <r>  -17.1268    1.0000 </r>
       <r>  -17.1268    1.0000 </r>
       <r>  -17.1268    1.0000 </r>
       <r>  -17.1267    1.0000 </r>
       <r>  -17.1267    1.0000 </r>
       <r>  -17.1267    1.0000 </r>
       <r>  -17.1267    1.0000 </r>
       <r>  -17.1267    1.0000 </r>
       <r>  -17.1267    1.0000 </r>
       <r>  -17.1267    1.0000 </r>
       <r>  -17.1267    1.0000 </r>
       <r>  -17.1253    1.0000 </r>
       <r>  -17.1253    1.0000 </r>
       <r>  -17.1253    1.0000 </r>
       <r>  -17.1253    1.0000 </r>
       <r>  -17.1253    1.0000 </r>
       <r>  -17.1253    1.0000 </r>
       <r>  -17.1252    1.0000 </r>
       <r>  -17.1252    1.0000 </r>
       <r>  -17.0939    1.0000 </r>
       <r>  -17.0939    1.0000 </r>
       <r>  -17.0939    1.0000 </r>
       <r>  -17.0939    1.0000 </r>
       <r>  -17.0938    1.0000 </r>
       <r>  -17.0938    1.0000 </r>
       <r>  -17.0938    1.0000 </r>
       <r>  -17.0938    1.0000 </r>
       <r>  -17.0625    1.0000 </r>
       <r>  -17.0625    1.0000 </r>
       <r>  -17.0625    1.0000 </r>
       <r>  -17.0625    1.0000 </r>
       <r>  -17.0625    1.0000 </r>
       <r>  -17.0625    1.0000 </r>
       <r>  -17.0625    1.0000 </r>
       <r>  -17.0625    1.0000 </r>
       <r>  -17.0625    1.0000 </r>
       <r>  -17.0625    1.0000 </r>
       <r>  -17.0625    1.0000 </r>
       <r>  -17.0625    1.0000 </r>
       <r>  -17.0624    1.0000 </r>
       <r>  -17.0624    1.0000 </r>
       <r>  -17.0624    1.0000 </r>
       <r>  -17.0624    1.0000 </r>
       <r>  -17.0581    1.0000 </r>
       <r>  -17.0581    1.0000 </r>
       <r>  -17.0580    1.0000 </r>
       <r>  -17.0580    1.0000 </r>
       <r>  -17.0580    1.0000 </r>
       <r>  -17.0580    1.0000 </r>
       <r>  -17.0580    1.0000 </r>
       <r>  -17.0580    1.0000 </r>
       <r>  -17.0355    1.0000 </r>
       <r>  -17.0355    1.0000 </r>
       <r>  -17.0354    1.0000 </r>
       <r>  -17.0354    1.0000 </r>
       <r>  -17.0239    1.0000 </r>
       <r>  -17.0239    1.0000 </r>
       <r>  -17.0239    1.0000 </r>
       <r>  -17.0239    1.0000 </r>
       <r>  -17.0239    1.0000 </r>
       <r>  -17.0239    1.0000 </r>
       <r>  -17.0239    1.0000 </r>
       <r>  -17.0239    1.0000 </r>
       <r>  -16.9965    1.0000 </r>
       <r>  -16.9965    1.0000 </r>
       <r>  -16.9965    1.0000 </r>
       <r>  -16.9965    1.0000 </r>
       <r>  -16.9964    1.0000 </r>
       <r>  -16.9964    1.0000 </r>
       <r>  -16.9964    1.0000 </r>
       <r>  -16.9964    1.0000 </r>
       <r>  -16.9952    1.0000 </r>
       <r>  -16.9952    1.0000 </r>
       <r>  -16.9952    1.0000 </r>
       <r>  -16.9952    1.0000 </r>
       <r>  -16.9952    1.0000 </r>
       <r>  -16.9952    1.0000 </r>
       <r>  -16.9952    1.0000 </r>
       <r>  -16.9952    1.0000 </r>
       <r>  -16.9900    1.0000 </r>
       <r>  -16.9900    1.0000 </r>
       <r>  -16.9900    1.0000 </r>
       <r>  -16.9900    1.0000 </r>
       <r>  -16.9809    1.0000 </r>
       <r>  -16.9809    1.0000 </r>
       <r>  -16.9809    1.0000 </r>
       <r>  -16.9809    1.0000 </r>
       <r>  -16.9808    1.0000 </r>
       <r>  -16.9808    1.0000 </r>
       <r>  -16.9808    1.0000 </r>
       <r>  -16.9808    1.0000 </r>
       <r>  -16.9341    1.0000 </r>
       <r>  -16.9341    1.0000 </r>
       <r>  -16.9341    1.0000 </r>
       <r>  -16.9341    1.0000 </r>
       <r>  -16.9340    1.0000 </r>
       <r>  -16.9340    1.0000 </r>
       <r>  -16.9340    1.0000 </r>
       <r>  -16.9340    1.0000 </r>
       <r>  -16.9340    1.0000 </r>
       <r>  -16.9340    1.0000 </r>
       <r>  -16.9340    1.0000 </r>
       <r>  -16.9340    1.0000 </r>
       <r>  -16.9339    1.0000 </r>
       <r>  -16.9339    1.0000 </r>
       <r>  -16.9339    1.0000 </r>
       <r>  -16.9339    1.0000 </r>
       <r>  -16.9277    1.0000 </r>
       <r>  -16.9277    1.0000 </r>
       <r>  -16.9277    1.0000 </r>
       <r>  -16.9277    1.0000 </r>
       <r>  -16.9277    1.0000 </r>
       <r>  -16.9277    1.0000 </r>
       <r>  -16.9277    1.0000 </r>
       <r>  -16.9277    1.0000 </r>
       <r>  -16.9276    1.0000 </r>
       <r>  -16.9276    1.0000 </r>
       <r>  -16.9276    1.0000 </r>
       <r>  -16.9276    1.0000 </r>
       <r>  -16.9276    1.0000 </r>
       <r>  -16.9276    1.0000 </r>
       <r>  -16.9276    1.0000 </r>
       <r>  -16.9276    1.0000 </r>
       <r>  -16.9203    1.0000 </r>
       <r>  -16.9203    1.0000 </r>
       <r>  -16.9202    1.0000 </r>
       <r>  -16.9201    1.0000 </r>
       <r>  -16.9099    1.0000 </r>
       <r>  -16.9099    1.0000 </r>
       <r>  -16.9099    1.0000 </r>
       <r>  -16.9099    1.0000 </r>
       <r>  -16.9099    1.0000 </r>
       <r>  -16.9099    1.0000 </r>
       <r>  -16.9098    1.0000 </r>
       <r>  -16.9098    1.0000 </r>
       <r>  -16.8782    1.0000 </r>
       <r>  -16.8782    1.0000 </r>
       <r>  -16.8782    1.0000 </r>
       <r>  -16.8782    1.0000 </r>
       <r>  -16.8713    1.0000 </r>
       <r>  -16.8713    1.0000 </r>
       <r>  -16.8713    1.0000 </r>
       <r>  -16.8713    1.0000 </r>
       <r>    4.1913    1.0000 </r>
       <r>    4.1914    1.0000 </r>
       <r>    4.1915    1.0000 </r>
       <r>    4.1915    1.0000 </r>
       <r>    5.1152    1.0000 </r>
       <r>    5.1153    1.0000 </r>
       <r>    5.1153    1.0000 </r>
       <r>    5.1153    1.0000 </r>
       <r>    5.1154    1.0000 </r>
       <r>    5.1154    1.0000 </r>
       <r>    5.1155    1.0000 </r>
       <r>    5.1155    1.0000 </r>
       <r>    5.8732    1.0000 </r>
       <r>    5.8732    1.0000 </r>
       <r>    5.8732    1.0000 </r>
       <r>    5.8732    1.0000 </r>
       <r>    5.8733    1.0000 </r>
       <r>    5.8733    1.0000 </r>
       <r>    5.8733    1.0000 </r>
       <r>    5.8733    1.0000 </r>
       <r>    6.1733    1.0000 </r>
       <r>    6.1733    1.0000 </r>
       <r>    6.1733    1.0000 </r>
       <r>    6.1733    1.0000 </r>
       <r>    6.3079    1.0000 </r>
       <r>    6.3079    1.0000 </r>
       <r>    6.3079    1.0000 </r>
       <r>    6.3079    1.0000 </r>
       <r>    6.3079    1.0000 </r>
       <r>    6.3079    1.0000 </r>
       <r>    6.3079    1.0000 </r>
       <r>    6.3079    1.0000 </r>
       <r>    6.3080    1.0000 </r>
       <r>    6.3080    1.0000 </r>
       <r>    6.3080    1.0000 </r>
       <r>    6.3080    1.0000 </r>
       <r>    6.3080    1.0000 </r>
       <r>    6.3080    1.0000 </r>
       <r>    6.3080    1.0000 </r>
       <r>    6.3080    1.0000 </r>
       <r>    6.5826    1.0000 </r>
       <r>    6.5826    1.0000 </r>
       <r>    6.5826    1.0000 </r>
       <r>    6.5826    1.0000 </r>
       <r>    6.5827    1.0000 </r>
       <r>    6.5827    1.0000 </r>
       <r>    6.5827    1.0000 </r>
       <r>    6.5827    1.0000 </r>
       <r>    6.5828    1.0000 </r>
       <r>    6.5828    1.0000 </r>
       <r>    6.5828    1.0000 </r>
       <r>    6.5828    1.0000 </r>
       <r>    6.5828    1.0000 </r>
       <r>    6.5828    1.0000 </r>
       <r>    6.5828    1.0000 </r>
       <r>    6.5828    1.0000 </r>
       <r>    6.6142    1.0000 </r>
       <r>    6.6142    1.0000 </r>
       <r>    6.6142    1.0000 </r>
       <r>    6.6142    1.0000 </r>
       <r>    6.6947    1.0000 </r>
       <r>    6.6948    1.0000 </r>
       <r>    6.6949    1.0000 </r>
       <r>    6.6949    1.0000 </r>
       <r>    6.7868    1.0000 </r>
       <r>    6.7868    1.0000 </r>
       <r>    6.7869    1.0000 </r>
       <r>    6.7870    1.0000 </r>
       <r>    6.9119    1.0000 </r>
       <r>    6.9119    1.0000 </r>
       <r>    6.9120    1.0000 </r>
       <r>    6.9120    1.0000 </r>
       <r>    6.9120    1.0000 </r>
       <r>    6.9120    1.0000 </r>
       <r>    6.9121    1.0000 </r>
       <r>    6.9121    1.0000 </r>
       <r>    7.2187    1.0000 </r>
       <r>    7.2187    1.0000 </r>
       <r>    7.2187    1.0000 </r>
       <r>    7.2187    1.0000 </r>
       <r>    7.2187    1.0000 </r>
       <r>    7.2187    1.0000 </r>
       <r>    7.2187    1.0000 </r>
       <r>    7.2187    1.0000 </r>
       <r>    7.2717    1.0000 </r>
       <r>    7.2717    1.0000 </r>
       <r>    7.2717    1.0000 </r>
       <r>    7.2717    1.0000 </r>
       <r>    7.2718    1.0000 </r>
       <r>    7.2718    1.0000 </r>
       <r>    7.2718    1.0000 </r>
       <r>    7.2718    1.0000 </r>
       <r>    7.2718    1.0000 </r>
       <r>    7.2718    1.0000 </r>
       <r>    7.2718    1.0000 </r>
       <r>    7.2718    1.0000 </r>
       <r>    7.2719    1.0000 </r>
       <r>    7.2719    1.0000 </r>
       <r>    7.2719    1.0000 </r>
       <r>    7.2719    1.0000 </r>
       <r>    7.2846    1.0000 </r>
       <r>    7.2846    1.0000 </r>
       <r>    7.2847    1.0000 </r>
       <r>    7.2847    1.0000 </r>
       <r>    7.2848    1.0000 </r>
       <r>    7.2848    1.0000 </r>
       <r>    7.2848    1.0000 </r>
       <r>    7.2848    1.0000 </r>
       <r>    7.3162    1.0000 </r>
       <r>    7.3162    1.0000 </r>
       <r>    7.3163    1.0000 </r>
       <r>    7.3163    1.0000 </r>
       <r>    7.3163    1.0000 </r>
       <r>    7.3163    1.0000 </r>
       <r>    7.3164    1.0000 </r>
       <r>    7.3164    1.0000 </r>
       <r>    7.3894    1.0000 </r>
       <r>    7.3894    1.0000 </r>
       <r>    7.3895    1.0000 </r>
       <r>    7.3895    1.0000 </r>
       <r>    7.3895    1.0000 </r>
       <r>    7.3895    1.0000 </r>
       <r>    7.3896    1.0000 </r>
       <r>    7.3896    1.0000 </r>
       <r>    7.4231    1.0000 </r>
       <r>    7.4231    1.0000 </r>
       <r>    7.4231    1.0000 </r>
       <r>    7.4231    1.0000 </r>
       <r>    7.4232    1.0000 </r>
       <r>    7.4232    1.0000 </r>
       <r>    7.4232    1.0000 </r>
       <r>    7.4232    1.0000 </r>
       <r>    7.8455    1.0000 </r>
       <r>    7.8455    1.0000 </r>
       <r>    7.8455    1.0000 </r>
       <r>    7.8455    1.0000 </r>
       <r>    7.8455    1.0000 </r>
       <r>    7.8455    1.0000 </r>
       <r>    7.8455    1.0000 </r>
       <r>    7.8455    1.0000 </r>
       <r>    7.8827    1.0000 </r>
       <r>    7.8827    1.0000 </r>
       <r>    7.8827    1.0000 </r>
       <r>    7.8827    1.0000 </r>
       <r>    7.8828    1.0000 </r>
       <r>    7.8828    1.0000 </r>
       <r>    7.8828    1.0000 </r>
       <r>    7.8828    1.0000 </r>
       <r>    8.3263    1.0000 </r>
       <r>    8.3263    1.0000 </r>
       <r>    8.3263    1.0000 </r>
       <r>    8.3263    1.0000 </r>
       <r>    8.3263    1.0000 </r>
       <r>    8.3263    1.0000 </r>
       <r>    8.3263    1.0000 </r>
       <r>    8.3263    1.0000 </r>
       <r>    8.4195    1.0001 </r>
       <r>    8.4195    1.0001 </r>
       <r>    8.4195    1.0001 </r>
       <r>    8.4195    1.0001 </r>
       <r>    8.4195    1.0001 </r>
       <r>    8.4195    1.0001 </r>
       <r>    8.4195    1.0001 </r>
       <r>    8.4195    1.0001 </r>
       <r>    8.4247    1.0001 </r>
       <r>    8.4247    1.0001 </r>
       <r>    8.4247    1.0001 </r>
       <r>    8.4247    1.0001 </r>
       <r>    8.4247    1.0001 </r>
       <r>    8.4247    1.0001 </r>
       <r>    8.4248    1.0001 </r>
       <r>    8.4248    1.0001 </r>
       <r>    8.4248    1.0001 </r>
       <r>    8.4248    1.0001 </r>
       <r>    8.4248    1.0001 </r>
       <r>    8.4248    1.0001 </r>
       <r>    8.4249    1.0001 </r>
       <r>    8.4249    1.0001 </r>
       <r>    8.4249    1.0001 </r>
       <r>    8.4249    1.0001 </r>
       <r>    8.4263    1.0001 </r>
       <r>    8.4263    1.0001 </r>
       <r>    8.4263    1.0001 </r>
       <r>    8.4263    1.0001 </r>
       <r>    8.4263    1.0001 </r>
       <r>    8.4263    1.0001 </r>
       <r>    8.4263    1.0001 </r>
       <r>    8.4263    1.0001 </r>
       <r>    8.4459    1.0001 </r>
       <r>    8.4459    1.0001 </r>
       <r>    8.4459    1.0001 </r>
       <r>    8.4459    1.0001 </r>
       <r>    8.4459    1.0001 </r>
       <r>    8.4459    1.0001 </r>
       <r>    8.4459    1.0001 </r>
       <r>    8.4459    1.0001 </r>
       <r>    8.4460    1.0001 </r>
       <r>    8.4460    1.0001 </r>
       <r>    8.4460    1.0001 </r>
       <r>    8.4460    1.0001 </r>
       <r>    8.4460    1.0001 </r>
       <r>    8.4460    1.0001 </r>
       <r>    8.4460    1.0001 </r>
       <r>    8.4460    1.0001 </r>
       <r>    8.4976    1.0004 </r>
       <r>    8.4976    1.0004 </r>
       <r>    8.4976    1.0004 </r>
       <r>    8.4976    1.0004 </r>
       <r>    8.4977    1.0004 </r>
       <r>    8.4977    1.0004 </r>
       <r>    8.4978    1.0004 </r>
       <r>    8.4978    1.0004 </r>
       <r>    8.5386    1.0011 </r>
       <r>    8.5386    1.0011 </r>
       <r>    8.5386    1.0011 </r>
       <r>    8.5386    1.0011 </r>
       <r>    8.7497    1.0296 </r>
       <r>    8.7497    1.0296 </r>
       <r>    8.7497    1.0296 </r>
       <r>    8.7497    1.0296 </r>
       <r>    8.7497    1.0296 </r>
       <r>    8.7497    1.0296 </r>
       <r>    8.7497    1.0296 </r>
       <r>    8.7497    1.0296 </r>
       <r>    8.7498    1.0297 </r>
       <r>    8.7498    1.0297 </r>
       <r>    8.7498    1.0297 </r>
       <r>    8.7498    1.0297 </r>
       <r>    8.7498    1.0297 </r>
       <r>    8.7498    1.0297 </r>
       <r>    8.7498    1.0297 </r>
       <r>    8.7498    1.0297 </r>
       <r>    8.8666    1.0058 </r>
       <r>    8.8666    1.0058 </r>
       <r>    8.8667    1.0057 </r>
       <r>    8.8667    1.0057 </r>
       <r>    8.8667    1.0056 </r>
       <r>    8.8667    1.0056 </r>
       <r>    8.8668    1.0056 </r>
       <r>    8.8668    1.0056 </r>
       <r>    8.8668    1.0056 </r>
       <r>    8.8668    1.0056 </r>
       <r>    8.8668    1.0056 </r>
       <r>    8.8668    1.0056 </r>
       <r>    8.8668    1.0056 </r>
       <r>    8.8668    1.0056 </r>
       <r>    8.8668    1.0056 </r>
       <r>    8.8668    1.0056 </r>
       <r>    8.8693    1.0031 </r>
       <r>    8.8693    1.0031 </r>
       <r>    8.8693    1.0031 </r>
       <r>    8.8693    1.0031 </r>
       <r>    9.1308    0.1577 </r>
       <r>    9.1308    0.1576 </r>
       <r>    9.1308    0.1576 </r>
       <r>    9.1308    0.1576 </r>
       <r>    9.1308    0.1576 </r>
       <r>    9.1308    0.1576 </r>
       <r>    9.1309    0.1576 </r>
       <r>    9.1309    0.1576 </r>
       <r>    9.1345    0.1468 </r>
       <r>    9.1345    0.1468 </r>
       <r>    9.1345    0.1468 </r>
       <r>    9.1345    0.1468 </r>
       <r>    9.1345    0.1468 </r>
       <r>    9.1345    0.1468 </r>
       <r>    9.1345    0.1468 </r>
       <r>    9.1345    0.1468 </r>
       <r>    9.1346    0.1467 </r>
       <r>    9.1346    0.1467 </r>
       <r>    9.1346    0.1466 </r>
       <r>    9.1346    0.1466 </r>
       <r>    9.1346    0.1466 </r>
       <r>    9.1346    0.1466 </r>
       <r>    9.1346    0.1466 </r>
       <r>    9.1346    0.1466 </r>
       <r>    9.2380   -0.0237 </r>
       <r>    9.2380   -0.0237 </r>
       <r>    9.2380   -0.0237 </r>
       <r>    9.2380   -0.0238 </r>
       <r>    9.2380   -0.0238 </r>
       <r>    9.2380   -0.0238 </r>
       <r>    9.2380   -0.0238 </r>
       <r>    9.2380   -0.0238 </r>
       <r>    9.2380   -0.0238 </r>
       <r>    9.2380   -0.0238 </r>
       <r>    9.2380   -0.0238 </r>
       <r>    9.2380   -0.0238 </r>
       <r>    9.2380   -0.0238 </r>
       <r>    9.2380   -0.0238 </r>
       <r>    9.2380   -0.0238 </r>
       <r>    9.2380   -0.0238 </r>
       <r>    9.3922   -0.0161 </r>
       <r>    9.3922   -0.0161 </r>
       <r>    9.3922   -0.0161 </r>
       <r>    9.3922   -0.0161 </r>
       <r>    9.3923   -0.0161 </r>
       <r>    9.3923   -0.0161 </r>
       <r>    9.3923   -0.0161 </r>
       <r>    9.3923   -0.0161 </r>
       <r>    9.4239   -0.0104 </r>
       <r>    9.4239   -0.0104 </r>
       <r>    9.4239   -0.0104 </r>
       <r>    9.4239   -0.0104 </r>
       <r>    9.4239   -0.0104 </r>
       <r>    9.4239   -0.0104 </r>
       <r>    9.4240   -0.0104 </r>
       <r>    9.4240   -0.0104 </r>
       <r>    9.4306   -0.0094 </r>
       <r>    9.4306   -0.0094 </r>
       <r>    9.4306   -0.0093 </r>
       <r>    9.4306   -0.0093 </r>
       <r>    9.4306   -0.0093 </r>
       <r>    9.4306   -0.0093 </r>
       <r>    9.4307   -0.0093 </r>
       <r>    9.4307   -0.0093 </r>
       <r>    9.5523   -0.0009 </r>
       <r>    9.5523   -0.0009 </r>
       <r>    9.5523   -0.0009 </r>
       <r>    9.5523   -0.0009 </r>
       <r>    9.5997   -0.0003 </r>
       <r>    9.5997   -0.0003 </r>
       <r>    9.5997   -0.0003 </r>
       <r>    9.5997   -0.0003 </r>
       <r>    9.5998   -0.0003 </r>
       <r>    9.5998   -0.0003 </r>
       <r>    9.5998   -0.0003 </r>
       <r>    9.5998   -0.0003 </r>
       <r>    9.6945   -0.0000 </r>
       <r>    9.6945   -0.0000 </r>
       <r>    9.6945   -0.0000 </r>
       <r>    9.6945   -0.0000 </r>
       <r>    9.6946   -0.0000 </r>
       <r>    9.6946   -0.0000 </r>
       <r>    9.6946   -0.0000 </r>
       <r>    9.6946   -0.0000 </r>
       <r>    9.8272   -0.0000 </r>
       <r>    9.8272   -0.0000 </r>
       <r>    9.8272   -0.0000 </r>
       <r>    9.8272   -0.0000 </r>
       <r>    9.8664   -0.0000 </r>
       <r>    9.8664   -0.0000 </r>
       <r>    9.8664   -0.0000 </r>
       <r>    9.8664   -0.0000 </r>
       <r>    9.8804   -0.0000 </r>
       <r>    9.8804   -0.0000 </r>
       <r>    9.8804   -0.0000 </r>
       <r>    9.8804   -0.0000 </r>
       <r>    9.8804   -0.0000 </r>
       <r>    9.8804   -0.0000 </r>
       <r>    9.8804   -0.0000 </r>
       <r>    9.8804   -0.0000 </r>
       <r>    9.8805   -0.0000 </r>
       <r>    9.8805   -0.0000 </r>
       <r>    9.8805   -0.0000 </r>
       <r>    9.8805   -0.0000 </r>
       <r>    9.8805   -0.0000 </r>
       <r>    9.8805   -0.0000 </r>
       <r>    9.8805   -0.0000 </r>
       <r>    9.8805   -0.0000 </r>
       <r>   10.0114   -0.0000 </r>
       <r>   10.0115   -0.0000 </r>
       <r>   10.0115   -0.0000 </r>
       <r>   10.0116   -0.0000 </r>
       <r>   10.3953   -0.0000 </r>
       <r>   10.3953   -0.0000 </r>
       <r>   10.3953   -0.0000 </r>
       <r>   10.3953   -0.0000 </r>
       <r>   10.3953   -0.0000 </r>
       <r>   10.3953   -0.0000 </r>
       <r>   10.3953   -0.0000 </r>
       <r>   10.3953   -0.0000 </r>
       <r>   10.5526   -0.0000 </r>
       <r>   10.5526   -0.0000 </r>
       <r>   10.5526   -0.0000 </r>
       <r>   10.5526   -0.0000 </r>
       <r>   10.5526   -0.0000 </r>
       <r>   10.5526   -0.0000 </r>
       <r>   10.5527   -0.0000 </r>
       <r>   10.5527   -0.0000 </r>
       <r>   10.6991   -0.0000 </r>
       <r>   10.6991   -0.0000 </r>
       <r>   10.6991   -0.0000 </r>
       <r>   10.6991   -0.0000 </r>
       <r>   11.0185   -0.0000 </r>
       <r>   11.0185   -0.0000 </r>
       <r>   11.0185   -0.0000 </r>
       <r>   11.0185   -0.0000 </r>
       <r>   11.0185   -0.0000 </r>
       <r>   11.0185   -0.0000 </r>
       <r>   11.0186   -0.0000 </r>
       <r>   11.0186   -0.0000 </r>
       <r>   11.1511   -0.0000 </r>
       <r>   11.1511   -0.0000 </r>
       <r>   11.1511   -0.0000 </r>
       <r>   11.1511   -0.0000 </r>
       <r>   11.1512   -0.0000 </r>
       <r>   11.1512   -0.0000 </r>
       <r>   11.1512   -0.0000 </r>
       <r>   11.1512   -0.0000 </r>
       <r>   11.2009   -0.0000 </r>
       <r>   11.2009   -0.0000 </r>
       <r>   11.2009   -0.0000 </r>
       <r>   11.2009   -0.0000 </r>
       <r>   11.2009   -0.0000 </r>
       <r>   11.2009   -0.0000 </r>
       <r>   11.2009   -0.0000 </r>
       <r>   11.2009   -0.0000 </r>
       <r>   11.7071   -0.0000 </r>
       <r>   11.7072   -0.0000 </r>
       <r>   11.7074   -0.0000 </r>
       <r>   11.7170   -0.0000 </r>
      </set>
      <set comment="kpoint 4">
       <r>  -39.3487    1.0000 </r>
       <r>  -39.3486    1.0000 </r>
       <r>  -39.3486    1.0000 </r>
       <r>  -39.3486    1.0000 </r>
       <r>  -39.3485    1.0000 </r>
       <r>  -39.3485    1.0000 </r>
       <r>  -39.3485    1.0000 </r>
       <r>  -39.3484    1.0000 </r>
       <r>  -39.2729    1.0000 </r>
       <r>  -39.2729    1.0000 </r>
       <r>  -39.2729    1.0000 </r>
       <r>  -39.2729    1.0000 </r>
       <r>  -39.2729    1.0000 </r>
       <r>  -39.2729    1.0000 </r>
       <r>  -39.2729    1.0000 </r>
       <r>  -39.2729    1.0000 </r>
       <r>  -39.2729    1.0000 </r>
       <r>  -39.2729    1.0000 </r>
       <r>  -39.2729    1.0000 </r>
       <r>  -39.2728    1.0000 </r>
       <r>  -39.2728    1.0000 </r>
       <r>  -39.2728    1.0000 </r>
       <r>  -39.2728    1.0000 </r>
       <r>  -39.2728    1.0000 </r>
       <r>  -39.2728    1.0000 </r>
       <r>  -39.2728    1.0000 </r>
       <r>  -39.2728    1.0000 </r>
       <r>  -39.2728    1.0000 </r>
       <r>  -39.2728    1.0000 </r>
       <r>  -39.2728    1.0000 </r>
       <r>  -39.2727    1.0000 </r>
       <r>  -39.2727    1.0000 </r>
       <r>  -39.2357    1.0000 </r>
       <r>  -39.2357    1.0000 </r>
       <r>  -39.2357    1.0000 </r>
       <r>  -39.2357    1.0000 </r>
       <r>  -39.2356    1.0000 </r>
       <r>  -39.2356    1.0000 </r>
       <r>  -39.2356    1.0000 </r>
       <r>  -39.2356    1.0000 </r>
       <r>  -39.2356    1.0000 </r>
       <r>  -39.2356    1.0000 </r>
       <r>  -39.2356    1.0000 </r>
       <r>  -39.2356    1.0000 </r>
       <r>  -39.2356    1.0000 </r>
       <r>  -39.2356    1.0000 </r>
       <r>  -39.2356    1.0000 </r>
       <r>  -39.2356    1.0000 </r>
       <r>  -39.2356    1.0000 </r>
       <r>  -39.2356    1.0000 </r>
       <r>  -39.2356    1.0000 </r>
       <r>  -39.2355    1.0000 </r>
       <r>  -39.2355    1.0000 </r>
       <r>  -39.2355    1.0000 </r>
       <r>  -39.2355    1.0000 </r>
       <r>  -39.2355    1.0000 </r>
       <r>  -39.2147    1.0000 </r>
       <r>  -39.2147    1.0000 </r>
       <r>  -39.2147    1.0000 </r>
       <r>  -39.2147    1.0000 </r>
       <r>  -39.2147    1.0000 </r>
       <r>  -39.2147    1.0000 </r>
       <r>  -39.2147    1.0000 </r>
       <r>  -39.2147    1.0000 </r>
       <r>  -39.1983    1.0000 </r>
       <r>  -39.1983    1.0000 </r>
       <r>  -39.1983    1.0000 </r>
       <r>  -39.1983    1.0000 </r>
       <r>  -39.1983    1.0000 </r>
       <r>  -39.1983    1.0000 </r>
       <r>  -39.1982    1.0000 </r>
       <r>  -39.1982    1.0000 </r>
       <r>  -39.1961    1.0000 </r>
       <r>  -39.1961    1.0000 </r>
       <r>  -39.1961    1.0000 </r>
       <r>  -39.1961    1.0000 </r>
       <r>  -39.1961    1.0000 </r>
       <r>  -39.1961    1.0000 </r>
       <r>  -39.1961    1.0000 </r>
       <r>  -39.1961    1.0000 </r>
       <r>  -39.1961    1.0000 </r>
       <r>  -39.1961    1.0000 </r>
       <r>  -39.1961    1.0000 </r>
       <r>  -39.1961    1.0000 </r>
       <r>  -39.1960    1.0000 </r>
       <r>  -39.1960    1.0000 </r>
       <r>  -39.1960    1.0000 </r>
       <r>  -39.1960    1.0000 </r>
       <r>  -39.1960    1.0000 </r>
       <r>  -39.1960    1.0000 </r>
       <r>  -39.1960    1.0000 </r>
       <r>  -39.1960    1.0000 </r>
       <r>  -39.1960    1.0000 </r>
       <r>  -39.1960    1.0000 </r>
       <r>  -39.1960    1.0000 </r>
       <r>  -39.1960    1.0000 </r>
       <r>  -39.1776    1.0000 </r>
       <r>  -39.1776    1.0000 </r>
       <r>  -39.1776    1.0000 </r>
       <r>  -39.1776    1.0000 </r>
       <r>  -39.1776    1.0000 </r>
       <r>  -39.1776    1.0000 </r>
       <r>  -39.1776    1.0000 </r>
       <r>  -39.1776    1.0000 </r>
       <r>  -39.1776    1.0000 </r>
       <r>  -39.1775    1.0000 </r>
       <r>  -39.1775    1.0000 </r>
       <r>  -39.1775    1.0000 </r>
       <r>  -39.1775    1.0000 </r>
       <r>  -39.1775    1.0000 </r>
       <r>  -39.1775    1.0000 </r>
       <r>  -39.1775    1.0000 </r>
       <r>  -39.1775    1.0000 </r>
       <r>  -39.1775    1.0000 </r>
       <r>  -39.1774    1.0000 </r>
       <r>  -39.1774    1.0000 </r>
       <r>  -39.1774    1.0000 </r>
       <r>  -39.1774    1.0000 </r>
       <r>  -39.1774    1.0000 </r>
       <r>  -39.1774    1.0000 </r>
       <r>  -39.1188    1.0000 </r>
       <r>  -39.1188    1.0000 </r>
       <r>  -39.1187    1.0000 </r>
       <r>  -39.1187    1.0000 </r>
       <r>  -39.1187    1.0000 </r>
       <r>  -39.1186    1.0000 </r>
       <r>  -39.1186    1.0000 </r>
       <r>  -39.1186    1.0000 </r>
       <r>  -17.8399    1.0000 </r>
       <r>  -17.8399    1.0000 </r>
       <r>  -17.8399    1.0000 </r>
       <r>  -17.8399    1.0000 </r>
       <r>  -17.8399    1.0000 </r>
       <r>  -17.8399    1.0000 </r>
       <r>  -17.8399    1.0000 </r>
       <r>  -17.8399    1.0000 </r>
       <r>  -17.8399    1.0000 </r>
       <r>  -17.8399    1.0000 </r>
       <r>  -17.8399    1.0000 </r>
       <r>  -17.8399    1.0000 </r>
       <r>  -17.8398    1.0000 </r>
       <r>  -17.8398    1.0000 </r>
       <r>  -17.8398    1.0000 </r>
       <r>  -17.8398    1.0000 </r>
       <r>  -17.8398    1.0000 </r>
       <r>  -17.8398    1.0000 </r>
       <r>  -17.8398    1.0000 </r>
       <r>  -17.8398    1.0000 </r>
       <r>  -17.8398    1.0000 </r>
       <r>  -17.8398    1.0000 </r>
       <r>  -17.8398    1.0000 </r>
       <r>  -17.8398    1.0000 </r>
       <r>  -17.7655    1.0000 </r>
       <r>  -17.7655    1.0000 </r>
       <r>  -17.7655    1.0000 </r>
       <r>  -17.7655    1.0000 </r>
       <r>  -17.7655    1.0000 </r>
       <r>  -17.7655    1.0000 </r>
       <r>  -17.7654    1.0000 </r>
       <r>  -17.7654    1.0000 </r>
       <r>  -17.7654    1.0000 </r>
       <r>  -17.7654    1.0000 </r>
       <r>  -17.7654    1.0000 </r>
       <r>  -17.7654    1.0000 </r>
       <r>  -17.7654    1.0000 </r>
       <r>  -17.7654    1.0000 </r>
       <r>  -17.7654    1.0000 </r>
       <r>  -17.7654    1.0000 </r>
       <r>  -17.7654    1.0000 </r>
       <r>  -17.7654    1.0000 </r>
       <r>  -17.7654    1.0000 </r>
       <r>  -17.7654    1.0000 </r>
       <r>  -17.7653    1.0000 </r>
       <r>  -17.7653    1.0000 </r>
       <r>  -17.7653    1.0000 </r>
       <r>  -17.7653    1.0000 </r>
       <r>  -17.6959    1.0000 </r>
       <r>  -17.6959    1.0000 </r>
       <r>  -17.6959    1.0000 </r>
       <r>  -17.6959    1.0000 </r>
       <r>  -17.6959    1.0000 </r>
       <r>  -17.6959    1.0000 </r>
       <r>  -17.6959    1.0000 </r>
       <r>  -17.6959    1.0000 </r>
       <r>  -17.6828    1.0000 </r>
       <r>  -17.6828    1.0000 </r>
       <r>  -17.6828    1.0000 </r>
       <r>  -17.6828    1.0000 </r>
       <r>  -17.6828    1.0000 </r>
       <r>  -17.6828    1.0000 </r>
       <r>  -17.6828    1.0000 </r>
       <r>  -17.6828    1.0000 </r>
       <r>  -17.6828    1.0000 </r>
       <r>  -17.6828    1.0000 </r>
       <r>  -17.6828    1.0000 </r>
       <r>  -17.6828    1.0000 </r>
       <r>  -17.6827    1.0000 </r>
       <r>  -17.6827    1.0000 </r>
       <r>  -17.6827    1.0000 </r>
       <r>  -17.6827    1.0000 </r>
       <r>  -17.6827    1.0000 </r>
       <r>  -17.6827    1.0000 </r>
       <r>  -17.6827    1.0000 </r>
       <r>  -17.6827    1.0000 </r>
       <r>  -17.6827    1.0000 </r>
       <r>  -17.6827    1.0000 </r>
       <r>  -17.6827    1.0000 </r>
       <r>  -17.6827    1.0000 </r>
       <r>  -17.6121    1.0000 </r>
       <r>  -17.6121    1.0000 </r>
       <r>  -17.6121    1.0000 </r>
       <r>  -17.6121    1.0000 </r>
       <r>  -17.6121    1.0000 </r>
       <r>  -17.6121    1.0000 </r>
       <r>  -17.6120    1.0000 </r>
       <r>  -17.6120    1.0000 </r>
       <r>  -17.6120    1.0000 </r>
       <r>  -17.6120    1.0000 </r>
       <r>  -17.6120    1.0000 </r>
       <r>  -17.6120    1.0000 </r>
       <r>  -17.6120    1.0000 </r>
       <r>  -17.6120    1.0000 </r>
       <r>  -17.6119    1.0000 </r>
       <r>  -17.6119    1.0000 </r>
       <r>  -17.5693    1.0000 </r>
       <r>  -17.5693    1.0000 </r>
       <r>  -17.5693    1.0000 </r>
       <r>  -17.5693    1.0000 </r>
       <r>  -17.5693    1.0000 </r>
       <r>  -17.5693    1.0000 </r>
       <r>  -17.5693    1.0000 </r>
       <r>  -17.5693    1.0000 </r>
       <r>  -17.5693    1.0000 </r>
       <r>  -17.5693    1.0000 </r>
       <r>  -17.5693    1.0000 </r>
       <r>  -17.5693    1.0000 </r>
       <r>  -17.5693    1.0000 </r>
       <r>  -17.5693    1.0000 </r>
       <r>  -17.5693    1.0000 </r>
       <r>  -17.5693    1.0000 </r>
       <r>  -17.4773    1.0000 </r>
       <r>  -17.4773    1.0000 </r>
       <r>  -17.4772    1.0000 </r>
       <r>  -17.4772    1.0000 </r>
       <r>  -17.4772    1.0000 </r>
       <r>  -17.4772    1.0000 </r>
       <r>  -17.4772    1.0000 </r>
       <r>  -17.4772    1.0000 </r>
       <r>  -17.4772    1.0000 </r>
       <r>  -17.4772    1.0000 </r>
       <r>  -17.4772    1.0000 </r>
       <r>  -17.4772    1.0000 </r>
       <r>  -17.4772    1.0000 </r>
       <r>  -17.4772    1.0000 </r>
       <r>  -17.4772    1.0000 </r>
       <r>  -17.4772    1.0000 </r>
       <r>  -17.4772    1.0000 </r>
       <r>  -17.4772    1.0000 </r>
       <r>  -17.4772    1.0000 </r>
       <r>  -17.4772    1.0000 </r>
       <r>  -17.4771    1.0000 </r>
       <r>  -17.4771    1.0000 </r>
       <r>  -17.4771    1.0000 </r>
       <r>  -17.4771    1.0000 </r>
       <r>  -17.4028    1.0000 </r>
       <r>  -17.4028    1.0000 </r>
       <r>  -17.4027    1.0000 </r>
       <r>  -17.4027    1.0000 </r>
       <r>  -17.4027    1.0000 </r>
       <r>  -17.4027    1.0000 </r>
       <r>  -17.4027    1.0000 </r>
       <r>  -17.4027    1.0000 </r>
       <r>  -17.3993    1.0000 </r>
       <r>  -17.3993    1.0000 </r>
       <r>  -17.3993    1.0000 </r>
       <r>  -17.3993    1.0000 </r>
       <r>  -17.3993    1.0000 </r>
       <r>  -17.3993    1.0000 </r>
       <r>  -17.3993    1.0000 </r>
       <r>  -17.3993    1.0000 </r>
       <r>  -17.3993    1.0000 </r>
       <r>  -17.3993    1.0000 </r>
       <r>  -17.3993    1.0000 </r>
       <r>  -17.3993    1.0000 </r>
       <r>  -17.3993    1.0000 </r>
       <r>  -17.3993    1.0000 </r>
       <r>  -17.3993    1.0000 </r>
       <r>  -17.3993    1.0000 </r>
       <r>  -17.3993    1.0000 </r>
       <r>  -17.3993    1.0000 </r>
       <r>  -17.3993    1.0000 </r>
       <r>  -17.3993    1.0000 </r>
       <r>  -17.3993    1.0000 </r>
       <r>  -17.3993    1.0000 </r>
       <r>  -17.3993    1.0000 </r>
       <r>  -17.3993    1.0000 </r>
       <r>  -17.3220    1.0000 </r>
       <r>  -17.3220    1.0000 </r>
       <r>  -17.3220    1.0000 </r>
       <r>  -17.3220    1.0000 </r>
       <r>  -17.3220    1.0000 </r>
       <r>  -17.3220    1.0000 </r>
       <r>  -17.3220    1.0000 </r>
       <r>  -17.3220    1.0000 </r>
       <r>  -17.3220    1.0000 </r>
       <r>  -17.3220    1.0000 </r>
       <r>  -17.3220    1.0000 </r>
       <r>  -17.3220    1.0000 </r>
       <r>  -17.3219    1.0000 </r>
       <r>  -17.3219    1.0000 </r>
       <r>  -17.3219    1.0000 </r>
       <r>  -17.3219    1.0000 </r>
       <r>  -17.3219    1.0000 </r>
       <r>  -17.3219    1.0000 </r>
       <r>  -17.3219    1.0000 </r>
       <r>  -17.3219    1.0000 </r>
       <r>  -17.3219    1.0000 </r>
       <r>  -17.3219    1.0000 </r>
       <r>  -17.3219    1.0000 </r>
       <r>  -17.3219    1.0000 </r>
       <r>  -17.1859    1.0000 </r>
       <r>  -17.1859    1.0000 </r>
       <r>  -17.1859    1.0000 </r>
       <r>  -17.1859    1.0000 </r>
       <r>  -17.1859    1.0000 </r>
       <r>  -17.1859    1.0000 </r>
       <r>  -17.1859    1.0000 </r>
       <r>  -17.1859    1.0000 </r>
       <r>  -17.1859    1.0000 </r>
       <r>  -17.1859    1.0000 </r>
       <r>  -17.1859    1.0000 </r>
       <r>  -17.1859    1.0000 </r>
       <r>  -17.1859    1.0000 </r>
       <r>  -17.1859    1.0000 </r>
       <r>  -17.1859    1.0000 </r>
       <r>  -17.1859    1.0000 </r>
       <r>  -17.1715    1.0000 </r>
       <r>  -17.1715    1.0000 </r>
       <r>  -17.1715    1.0000 </r>
       <r>  -17.1715    1.0000 </r>
       <r>  -17.1715    1.0000 </r>
       <r>  -17.1715    1.0000 </r>
       <r>  -17.1715    1.0000 </r>
       <r>  -17.1715    1.0000 </r>
       <r>  -17.1715    1.0000 </r>
       <r>  -17.1715    1.0000 </r>
       <r>  -17.1715    1.0000 </r>
       <r>  -17.1715    1.0000 </r>
       <r>  -17.1715    1.0000 </r>
       <r>  -17.1715    1.0000 </r>
       <r>  -17.1714    1.0000 </r>
       <r>  -17.1714    1.0000 </r>
       <r>  -17.1714    1.0000 </r>
       <r>  -17.1714    1.0000 </r>
       <r>  -17.1714    1.0000 </r>
       <r>  -17.1714    1.0000 </r>
       <r>  -17.1714    1.0000 </r>
       <r>  -17.1714    1.0000 </r>
       <r>  -17.1714    1.0000 </r>
       <r>  -17.1714    1.0000 </r>
       <r>  -17.1694    1.0000 </r>
       <r>  -17.1694    1.0000 </r>
       <r>  -17.1694    1.0000 </r>
       <r>  -17.1694    1.0000 </r>
       <r>  -17.1694    1.0000 </r>
       <r>  -17.1694    1.0000 </r>
       <r>  -17.1694    1.0000 </r>
       <r>  -17.1694    1.0000 </r>
       <r>  -17.1694    1.0000 </r>
       <r>  -17.1694    1.0000 </r>
       <r>  -17.1694    1.0000 </r>
       <r>  -17.1694    1.0000 </r>
       <r>  -17.1694    1.0000 </r>
       <r>  -17.1693    1.0000 </r>
       <r>  -17.1693    1.0000 </r>
       <r>  -17.1693    1.0000 </r>
       <r>  -17.1693    1.0000 </r>
       <r>  -17.1693    1.0000 </r>
       <r>  -17.1693    1.0000 </r>
       <r>  -17.1693    1.0000 </r>
       <r>  -17.1693    1.0000 </r>
       <r>  -17.1693    1.0000 </r>
       <r>  -17.1693    1.0000 </r>
       <r>  -17.1693    1.0000 </r>
       <r>  -17.1245    1.0000 </r>
       <r>  -17.1244    1.0000 </r>
       <r>  -17.1244    1.0000 </r>
       <r>  -17.1244    1.0000 </r>
       <r>  -17.1244    1.0000 </r>
       <r>  -17.1244    1.0000 </r>
       <r>  -17.1244    1.0000 </r>
       <r>  -17.1244    1.0000 </r>
       <r>  -17.1035    1.0000 </r>
       <r>  -17.1035    1.0000 </r>
       <r>  -17.1035    1.0000 </r>
       <r>  -17.1035    1.0000 </r>
       <r>  -17.1035    1.0000 </r>
       <r>  -17.1035    1.0000 </r>
       <r>  -17.1035    1.0000 </r>
       <r>  -17.1035    1.0000 </r>
       <r>  -17.1035    1.0000 </r>
       <r>  -17.1035    1.0000 </r>
       <r>  -17.1035    1.0000 </r>
       <r>  -17.1035    1.0000 </r>
       <r>  -17.1035    1.0000 </r>
       <r>  -17.1035    1.0000 </r>
       <r>  -17.1035    1.0000 </r>
       <r>  -17.1035    1.0000 </r>
       <r>  -17.1035    1.0000 </r>
       <r>  -17.1034    1.0000 </r>
       <r>  -17.1034    1.0000 </r>
       <r>  -17.1034    1.0000 </r>
       <r>  -17.1034    1.0000 </r>
       <r>  -17.1034    1.0000 </r>
       <r>  -17.1034    1.0000 </r>
       <r>  -17.1034    1.0000 </r>
       <r>  -17.0488    1.0000 </r>
       <r>  -17.0488    1.0000 </r>
       <r>  -17.0488    1.0000 </r>
       <r>  -17.0488    1.0000 </r>
       <r>  -17.0488    1.0000 </r>
       <r>  -17.0488    1.0000 </r>
       <r>  -17.0488    1.0000 </r>
       <r>  -17.0488    1.0000 </r>
       <r>  -16.9826    1.0000 </r>
       <r>  -16.9826    1.0000 </r>
       <r>  -16.9826    1.0000 </r>
       <r>  -16.9826    1.0000 </r>
       <r>  -16.9826    1.0000 </r>
       <r>  -16.9826    1.0000 </r>
       <r>  -16.9826    1.0000 </r>
       <r>  -16.9826    1.0000 </r>
       <r>  -16.9826    1.0000 </r>
       <r>  -16.9826    1.0000 </r>
       <r>  -16.9826    1.0000 </r>
       <r>  -16.9826    1.0000 </r>
       <r>  -16.9826    1.0000 </r>
       <r>  -16.9826    1.0000 </r>
       <r>  -16.9826    1.0000 </r>
       <r>  -16.9825    1.0000 </r>
       <r>  -16.9825    1.0000 </r>
       <r>  -16.9825    1.0000 </r>
       <r>  -16.9825    1.0000 </r>
       <r>  -16.9825    1.0000 </r>
       <r>  -16.9825    1.0000 </r>
       <r>  -16.9825    1.0000 </r>
       <r>  -16.9825    1.0000 </r>
       <r>  -16.9825    1.0000 </r>
       <r>  -16.9667    1.0000 </r>
       <r>  -16.9667    1.0000 </r>
       <r>  -16.9667    1.0000 </r>
       <r>  -16.9667    1.0000 </r>
       <r>  -16.9667    1.0000 </r>
       <r>  -16.9666    1.0000 </r>
       <r>  -16.9666    1.0000 </r>
       <r>  -16.9666    1.0000 </r>
       <r>  -16.9666    1.0000 </r>
       <r>  -16.9666    1.0000 </r>
       <r>  -16.9666    1.0000 </r>
       <r>  -16.9666    1.0000 </r>
       <r>  -16.9666    1.0000 </r>
       <r>  -16.9666    1.0000 </r>
       <r>  -16.9666    1.0000 </r>
       <r>  -16.9666    1.0000 </r>
       <r>  -16.9666    1.0000 </r>
       <r>  -16.9666    1.0000 </r>
       <r>  -16.9666    1.0000 </r>
       <r>  -16.9666    1.0000 </r>
       <r>  -16.9666    1.0000 </r>
       <r>  -16.9666    1.0000 </r>
       <r>  -16.9666    1.0000 </r>
       <r>  -16.9666    1.0000 </r>
       <r>  -16.9160    1.0000 </r>
       <r>  -16.9160    1.0000 </r>
       <r>  -16.9160    1.0000 </r>
       <r>  -16.9160    1.0000 </r>
       <r>  -16.9160    1.0000 </r>
       <r>  -16.9160    1.0000 </r>
       <r>  -16.9160    1.0000 </r>
       <r>  -16.9160    1.0000 </r>
       <r>  -16.9160    1.0000 </r>
       <r>  -16.9160    1.0000 </r>
       <r>  -16.9160    1.0000 </r>
       <r>  -16.9160    1.0000 </r>
       <r>  -16.9160    1.0000 </r>
       <r>  -16.9160    1.0000 </r>
       <r>  -16.9160    1.0000 </r>
       <r>  -16.9160    1.0000 </r>
       <r>  -16.9159    1.0000 </r>
       <r>  -16.9159    1.0000 </r>
       <r>  -16.9159    1.0000 </r>
       <r>  -16.9159    1.0000 </r>
       <r>  -16.9159    1.0000 </r>
       <r>  -16.9159    1.0000 </r>
       <r>  -16.9159    1.0000 </r>
       <r>  -16.9159    1.0000 </r>
       <r>  -16.8998    1.0000 </r>
       <r>  -16.8998    1.0000 </r>
       <r>  -16.8998    1.0000 </r>
       <r>  -16.8998    1.0000 </r>
       <r>  -16.8997    1.0000 </r>
       <r>  -16.8997    1.0000 </r>
       <r>  -16.8997    1.0000 </r>
       <r>  -16.8997    1.0000 </r>
       <r>  -16.8997    1.0000 </r>
       <r>  -16.8997    1.0000 </r>
       <r>  -16.8996    1.0000 </r>
       <r>  -16.8996    1.0000 </r>
       <r>  -16.8996    1.0000 </r>
       <r>  -16.8996    1.0000 </r>
       <r>  -16.8996    1.0000 </r>
       <r>  -16.8996    1.0000 </r>
       <r>    4.4396    1.0000 </r>
       <r>    4.4396    1.0000 </r>
       <r>    4.4396    1.0000 </r>
       <r>    4.4397    1.0000 </r>
       <r>    4.4397    1.0000 </r>
       <r>    4.4398    1.0000 </r>
       <r>    4.4398    1.0000 </r>
       <r>    4.4398    1.0000 </r>
       <r>    6.0257    1.0000 </r>
       <r>    6.0257    1.0000 </r>
       <r>    6.0258    1.0000 </r>
       <r>    6.0258    1.0000 </r>
       <r>    6.0258    1.0000 </r>
       <r>    6.0258    1.0000 </r>
       <r>    6.0258    1.0000 </r>
       <r>    6.0258    1.0000 </r>
       <r>    6.0258    1.0000 </r>
       <r>    6.0258    1.0000 </r>
       <r>    6.0258    1.0000 </r>
       <r>    6.0258    1.0000 </r>
       <r>    6.0259    1.0000 </r>
       <r>    6.0259    1.0000 </r>
       <r>    6.0259    1.0000 </r>
       <r>    6.0259    1.0000 </r>
       <r>    6.0259    1.0000 </r>
       <r>    6.0259    1.0000 </r>
       <r>    6.0259    1.0000 </r>
       <r>    6.0259    1.0000 </r>
       <r>    6.0259    1.0000 </r>
       <r>    6.0259    1.0000 </r>
       <r>    6.0260    1.0000 </r>
       <r>    6.0260    1.0000 </r>
       <r>    6.4552    1.0000 </r>
       <r>    6.4552    1.0000 </r>
       <r>    6.4552    1.0000 </r>
       <r>    6.4552    1.0000 </r>
       <r>    6.4552    1.0000 </r>
       <r>    6.4552    1.0000 </r>
       <r>    6.4552    1.0000 </r>
       <r>    6.4552    1.0000 </r>
       <r>    6.4552    1.0000 </r>
       <r>    6.4552    1.0000 </r>
       <r>    6.4552    1.0000 </r>
       <r>    6.4552    1.0000 </r>
       <r>    6.4552    1.0000 </r>
       <r>    6.4552    1.0000 </r>
       <r>    6.4553    1.0000 </r>
       <r>    6.4553    1.0000 </r>
       <r>    6.4553    1.0000 </r>
       <r>    6.4553    1.0000 </r>
       <r>    6.4553    1.0000 </r>
       <r>    6.4553    1.0000 </r>
       <r>    6.4553    1.0000 </r>
       <r>    6.4553    1.0000 </r>
       <r>    6.4553    1.0000 </r>
       <r>    6.4553    1.0000 </r>
       <r>    6.8621    1.0000 </r>
       <r>    6.8621    1.0000 </r>
       <r>    6.8621    1.0000 </r>
       <r>    6.8621    1.0000 </r>
       <r>    6.8622    1.0000 </r>
       <r>    6.8622    1.0000 </r>
       <r>    6.8622    1.0000 </r>
       <r>    6.8622    1.0000 </r>
       <r>    6.8622    1.0000 </r>
       <r>    6.8622    1.0000 </r>
       <r>    6.8622    1.0000 </r>
       <r>    6.8622    1.0000 </r>
       <r>    6.8622    1.0000 </r>
       <r>    6.8622    1.0000 </r>
       <r>    6.8622    1.0000 </r>
       <r>    6.8622    1.0000 </r>
       <r>    6.8622    1.0000 </r>
       <r>    6.8622    1.0000 </r>
       <r>    6.8623    1.0000 </r>
       <r>    6.8623    1.0000 </r>
       <r>    6.8623    1.0000 </r>
       <r>    6.8623    1.0000 </r>
       <r>    6.8623    1.0000 </r>
       <r>    6.8623    1.0000 </r>
       <r>    6.9144    1.0000 </r>
       <r>    6.9144    1.0000 </r>
       <r>    6.9145    1.0000 </r>
       <r>    6.9145    1.0000 </r>
       <r>    6.9145    1.0000 </r>
       <r>    6.9145    1.0000 </r>
       <r>    6.9145    1.0000 </r>
       <r>    6.9145    1.0000 </r>
       <r>    6.9146    1.0000 </r>
       <r>    6.9146    1.0000 </r>
       <r>    6.9146    1.0000 </r>
       <r>    6.9146    1.0000 </r>
       <r>    6.9147    1.0000 </r>
       <r>    6.9147    1.0000 </r>
       <r>    6.9147    1.0000 </r>
       <r>    6.9147    1.0000 </r>
       <r>    7.4948    1.0000 </r>
       <r>    7.4948    1.0000 </r>
       <r>    7.4948    1.0000 </r>
       <r>    7.4948    1.0000 </r>
       <r>    7.4949    1.0000 </r>
       <r>    7.4949    1.0000 </r>
       <r>    7.4949    1.0000 </r>
       <r>    7.4949    1.0000 </r>
       <r>    7.4949    1.0000 </r>
       <r>    7.4949    1.0000 </r>
       <r>    7.4949    1.0000 </r>
       <r>    7.4949    1.0000 </r>
       <r>    7.4949    1.0000 </r>
       <r>    7.4949    1.0000 </r>
       <r>    7.4949    1.0000 </r>
       <r>    7.4949    1.0000 </r>
       <r>    7.4949    1.0000 </r>
       <r>    7.4949    1.0000 </r>
       <r>    7.4950    1.0000 </r>
       <r>    7.4950    1.0000 </r>
       <r>    7.4950    1.0000 </r>
       <r>    7.4950    1.0000 </r>
       <r>    7.4950    1.0000 </r>
       <r>    7.4950    1.0000 </r>
       <r>    7.6874    1.0000 </r>
       <r>    7.6874    1.0000 </r>
       <r>    7.6874    1.0000 </r>
       <r>    7.6874    1.0000 </r>
       <r>    7.6874    1.0000 </r>
       <r>    7.6874    1.0000 </r>
       <r>    7.6874    1.0000 </r>
       <r>    7.6874    1.0000 </r>
       <r>    7.8498    1.0000 </r>
       <r>    7.8498    1.0000 </r>
       <r>    7.8498    1.0000 </r>
       <r>    7.8498    1.0000 </r>
       <r>    7.8498    1.0000 </r>
       <r>    7.8498    1.0000 </r>
       <r>    7.8498    1.0000 </r>
       <r>    7.8498    1.0000 </r>
       <r>    7.8498    1.0000 </r>
       <r>    7.8498    1.0000 </r>
       <r>    7.8498    1.0000 </r>
       <r>    7.8498    1.0000 </r>
       <r>    7.8499    1.0000 </r>
       <r>    7.8499    1.0000 </r>
       <r>    7.8499    1.0000 </r>
       <r>    7.8499    1.0000 </r>
       <r>    7.8499    1.0000 </r>
       <r>    7.8499    1.0000 </r>
       <r>    7.8499    1.0000 </r>
       <r>    7.8499    1.0000 </r>
       <r>    7.8499    1.0000 </r>
       <r>    7.8499    1.0000 </r>
       <r>    7.8500    1.0000 </r>
       <r>    7.8500    1.0000 </r>
       <r>    8.1620    1.0000 </r>
       <r>    8.1620    1.0000 </r>
       <r>    8.1620    1.0000 </r>
       <r>    8.1620    1.0000 </r>
       <r>    8.1620    1.0000 </r>
       <r>    8.1620    1.0000 </r>
       <r>    8.1620    1.0000 </r>
       <r>    8.1620    1.0000 </r>
       <r>    8.2805    1.0000 </r>
       <r>    8.2805    1.0000 </r>
       <r>    8.2805    1.0000 </r>
       <r>    8.2805    1.0000 </r>
       <r>    8.2805    1.0000 </r>
       <r>    8.2805    1.0000 </r>
       <r>    8.2805    1.0000 </r>
       <r>    8.2805    1.0000 </r>
       <r>    8.2805    1.0000 </r>
       <r>    8.2805    1.0000 </r>
       <r>    8.2805    1.0000 </r>
       <r>    8.2805    1.0000 </r>
       <r>    8.2805    1.0000 </r>
       <r>    8.2805    1.0000 </r>
       <r>    8.2805    1.0000 </r>
       <r>    8.2805    1.0000 </r>
       <r>    8.4639    1.0002 </r>
       <r>    8.4639    1.0002 </r>
       <r>    8.4639    1.0002 </r>
       <r>    8.4639    1.0002 </r>
       <r>    8.4639    1.0002 </r>
       <r>    8.4639    1.0002 </r>
       <r>    8.4639    1.0002 </r>
       <r>    8.4639    1.0002 </r>
       <r>    8.4639    1.0002 </r>
       <r>    8.4640    1.0002 </r>
       <r>    8.4640    1.0002 </r>
       <r>    8.4640    1.0002 </r>
       <r>    8.4640    1.0002 </r>
       <r>    8.4640    1.0002 </r>
       <r>    8.4640    1.0002 </r>
       <r>    8.4640    1.0002 </r>
       <r>    8.4640    1.0002 </r>
       <r>    8.4640    1.0002 </r>
       <r>    8.4640    1.0002 </r>
       <r>    8.4640    1.0002 </r>
       <r>    8.4640    1.0002 </r>
       <r>    8.4640    1.0002 </r>
       <r>    8.4640    1.0002 </r>
       <r>    8.4640    1.0002 </r>
       <r>    8.6634    1.0114 </r>
       <r>    8.6634    1.0114 </r>
       <r>    8.6634    1.0114 </r>
       <r>    8.6634    1.0114 </r>
       <r>    8.6634    1.0114 </r>
       <r>    8.6634    1.0114 </r>
       <r>    8.6634    1.0114 </r>
       <r>    8.6634    1.0114 </r>
       <r>    8.6634    1.0114 </r>
       <r>    8.6634    1.0114 </r>
       <r>    8.6634    1.0114 </r>
       <r>    8.6634    1.0114 </r>
       <r>    8.6634    1.0114 </r>
       <r>    8.6634    1.0114 </r>
       <r>    8.6634    1.0114 </r>
       <r>    8.6634    1.0114 </r>
       <r>    8.6634    1.0114 </r>
       <r>    8.6634    1.0114 </r>
       <r>    8.6635    1.0114 </r>
       <r>    8.6635    1.0114 </r>
       <r>    8.6635    1.0114 </r>
       <r>    8.6635    1.0114 </r>
       <r>    8.6635    1.0114 </r>
       <r>    8.6635    1.0114 </r>
       <r>    8.7373    1.0269 </r>
       <r>    8.7373    1.0269 </r>
       <r>    8.7373    1.0269 </r>
       <r>    8.7373    1.0269 </r>
       <r>    8.7373    1.0269 </r>
       <r>    8.7373    1.0269 </r>
       <r>    8.7373    1.0269 </r>
       <r>    8.7373    1.0269 </r>
       <r>    8.7373    1.0269 </r>
       <r>    8.7373    1.0269 </r>
       <r>    8.7374    1.0269 </r>
       <r>    8.7374    1.0269 </r>
       <r>    8.7374    1.0269 </r>
       <r>    8.7374    1.0269 </r>
       <r>    8.7374    1.0269 </r>
       <r>    8.7374    1.0269 </r>
       <r>    9.0469    0.4730 </r>
       <r>    9.0469    0.4730 </r>
       <r>    9.0469    0.4730 </r>
       <r>    9.0469    0.4730 </r>
       <r>    9.0469    0.4729 </r>
       <r>    9.0469    0.4729 </r>
       <r>    9.0469    0.4729 </r>
       <r>    9.0469    0.4729 </r>
       <r>    9.0469    0.4729 </r>
       <r>    9.0469    0.4729 </r>
       <r>    9.0469    0.4728 </r>
       <r>    9.0470    0.4728 </r>
       <r>    9.0470    0.4728 </r>
       <r>    9.0470    0.4727 </r>
       <r>    9.0470    0.4727 </r>
       <r>    9.0470    0.4727 </r>
       <r>    9.0470    0.4727 </r>
       <r>    9.0470    0.4727 </r>
       <r>    9.0470    0.4726 </r>
       <r>    9.0470    0.4726 </r>
       <r>    9.0470    0.4726 </r>
       <r>    9.0470    0.4726 </r>
       <r>    9.0470    0.4726 </r>
       <r>    9.0470    0.4725 </r>
       <r>    9.4363   -0.0085 </r>
       <r>    9.4363   -0.0085 </r>
       <r>    9.4364   -0.0085 </r>
       <r>    9.4364   -0.0085 </r>
       <r>    9.4364   -0.0085 </r>
       <r>    9.4364   -0.0085 </r>
       <r>    9.4364   -0.0085 </r>
       <r>    9.4364   -0.0085 </r>
       <r>    9.4364   -0.0085 </r>
       <r>    9.4364   -0.0085 </r>
       <r>    9.4364   -0.0085 </r>
       <r>    9.4364   -0.0085 </r>
       <r>    9.4364   -0.0085 </r>
       <r>    9.4364   -0.0085 </r>
       <r>    9.4364   -0.0085 </r>
       <r>    9.4364   -0.0085 </r>
       <r>    9.4364   -0.0085 </r>
       <r>    9.4364   -0.0085 </r>
       <r>    9.4364   -0.0085 </r>
       <r>    9.4364   -0.0085 </r>
       <r>    9.4364   -0.0085 </r>
       <r>    9.4364   -0.0085 </r>
       <r>    9.4364   -0.0085 </r>
       <r>    9.4364   -0.0085 </r>
       <r>    9.4403   -0.0080 </r>
       <r>    9.4403   -0.0080 </r>
       <r>    9.4403   -0.0080 </r>
       <r>    9.4403   -0.0080 </r>
       <r>    9.4403   -0.0080 </r>
       <r>    9.4403   -0.0080 </r>
       <r>    9.4403   -0.0080 </r>
       <r>    9.4403   -0.0080 </r>
       <r>    9.4403   -0.0080 </r>
       <r>    9.4403   -0.0080 </r>
       <r>    9.4403   -0.0080 </r>
       <r>    9.4403   -0.0080 </r>
       <r>    9.4404   -0.0080 </r>
       <r>    9.4404   -0.0080 </r>
       <r>    9.4404   -0.0080 </r>
       <r>    9.4404   -0.0080 </r>
       <r>    9.4404   -0.0080 </r>
       <r>    9.4404   -0.0080 </r>
       <r>    9.4404   -0.0080 </r>
       <r>    9.4404   -0.0080 </r>
       <r>    9.4404   -0.0080 </r>
       <r>    9.4404   -0.0080 </r>
       <r>    9.4404   -0.0080 </r>
       <r>    9.4404   -0.0080 </r>
       <r>    9.5382   -0.0012 </r>
       <r>    9.5382   -0.0012 </r>
       <r>    9.5382   -0.0012 </r>
       <r>    9.5382   -0.0012 </r>
       <r>    9.5382   -0.0012 </r>
       <r>    9.5382   -0.0012 </r>
       <r>    9.5382   -0.0012 </r>
       <r>    9.5382   -0.0012 </r>
       <r>    9.5382   -0.0012 </r>
       <r>    9.5382   -0.0012 </r>
       <r>    9.5382   -0.0012 </r>
       <r>    9.5382   -0.0012 </r>
       <r>    9.5382   -0.0012 </r>
       <r>    9.5382   -0.0012 </r>
       <r>    9.5383   -0.0012 </r>
       <r>    9.5383   -0.0012 </r>
       <r>    9.5383   -0.0012 </r>
       <r>    9.5383   -0.0012 </r>
       <r>    9.5383   -0.0012 </r>
       <r>    9.5383   -0.0012 </r>
       <r>    9.5383   -0.0012 </r>
       <r>    9.5383   -0.0012 </r>
       <r>    9.5383   -0.0012 </r>
       <r>    9.5383   -0.0012 </r>
       <r>    9.7106   -0.0000 </r>
       <r>    9.7106   -0.0000 </r>
       <r>    9.7106   -0.0000 </r>
       <r>    9.7106   -0.0000 </r>
       <r>    9.7106   -0.0000 </r>
       <r>    9.7106   -0.0000 </r>
       <r>    9.7106   -0.0000 </r>
       <r>    9.7107   -0.0000 </r>
       <r>    9.7107   -0.0000 </r>
       <r>    9.7107   -0.0000 </r>
       <r>    9.7107   -0.0000 </r>
       <r>    9.7107   -0.0000 </r>
       <r>    9.7107   -0.0000 </r>
       <r>    9.7107   -0.0000 </r>
       <r>    9.7107   -0.0000 </r>
       <r>    9.7107   -0.0000 </r>
       <r>    9.8997   -0.0000 </r>
       <r>    9.8997   -0.0000 </r>
       <r>    9.8997   -0.0000 </r>
       <r>    9.8997   -0.0000 </r>
       <r>    9.8997   -0.0000 </r>
       <r>    9.8997   -0.0000 </r>
       <r>    9.8997   -0.0000 </r>
       <r>    9.8997   -0.0000 </r>
       <r>    9.8997   -0.0000 </r>
       <r>    9.8997   -0.0000 </r>
       <r>    9.8997   -0.0000 </r>
       <r>    9.8997   -0.0000 </r>
       <r>    9.8997   -0.0000 </r>
       <r>    9.8997   -0.0000 </r>
       <r>    9.8997   -0.0000 </r>
       <r>    9.8997   -0.0000 </r>
       <r>    9.8997   -0.0000 </r>
       <r>    9.8997   -0.0000 </r>
       <r>    9.8997   -0.0000 </r>
       <r>    9.8997   -0.0000 </r>
       <r>    9.8997   -0.0000 </r>
       <r>    9.8997   -0.0000 </r>
       <r>    9.8997   -0.0000 </r>
       <r>    9.8997   -0.0000 </r>
       <r>   11.1119   -0.0000 </r>
       <r>   11.1119   -0.0000 </r>
       <r>   11.1119   -0.0000 </r>
       <r>   11.1119   -0.0000 </r>
       <r>   11.1120   -0.0000 </r>
       <r>   11.1120   -0.0000 </r>
       <r>   11.1120   -0.0000 </r>
       <r>   11.1120   -0.0000 </r>
       <r>   11.3456   -0.0000 </r>
       <r>   11.3456   -0.0000 </r>
       <r>   11.3456   -0.0000 </r>
       <r>   11.3456   -0.0000 </r>
       <r>   11.3456   -0.0000 </r>
       <r>   11.3456   -0.0000 </r>
       <r>   11.3456   -0.0000 </r>
       <r>   11.3456   -0.0000 </r>
       <r>   11.3456   -0.0000 </r>
       <r>   11.3457   -0.0000 </r>
       <r>   11.3457   -0.0000 </r>
       <r>   11.3457   -0.0000 </r>
       <r>   11.3457   -0.0000 </r>
       <r>   11.3457   -0.0000 </r>
       <r>   11.3457   -0.0000 </r>
       <r>   11.3457   -0.0000 </r>
       <r>   11.3457   -0.0000 </r>
       <r>   11.3457   -0.0000 </r>
       <r>   11.3457   -0.0000 </r>
       <r>   11.3457   -0.0000 </r>
       <r>   11.3457   -0.0000 </r>
       <r>   11.3457   -0.0000 </r>
       <r>   11.3457   -0.0000 </r>
       <r>   11.3457   -0.0000 </r>
       <r>   11.4828   -0.0000 </r>
       <r>   11.4828   -0.0000 </r>
       <r>   11.4828   -0.0000 </r>
       <r>   11.4828   -0.0000 </r>
      </set>
     </set>
    </set>
   </array>
  </eigenvalues>
  <separator name="orbital magnetization" >
   <v name="MAGDIPOLOUT">      0.00000000      0.00000000      0.00000000</v>
  </separator>
  <dos>
   <i name="efermi">      9.04052503 </i>
   <total>
    <array>
     <dimension dim="1">gridpoints</dimension>
     <dimension dim="2">spin</dimension>
     <field>energy</field>
     <field>total</field>
     <field>integrated</field>
     <set>
      <set comment="spin 1">
       <r>   -41.9392     0.0000     0.0000 </r>
       <r>   -41.7518     0.0000     0.0000 </r>
       <r>   -41.5644     0.0000     0.0000 </r>
       <r>   -41.3770     0.0000     0.0000 </r>
       <r>   -41.1896     0.0000     0.0000 </r>
       <r>   -41.0022    -0.0000    -0.0000 </r>
       <r>   -40.8148    -0.0000    -0.0000 </r>
       <r>   -40.6273    -0.0000    -0.0000 </r>
       <r>   -40.4399    -0.0000    -0.0000 </r>
       <r>   -40.2525    -0.0000    -0.0000 </r>
       <r>   -40.0651    -0.0003    -0.0001 </r>
       <r>   -39.8777    -0.0832    -0.0156 </r>
       <r>   -39.6903    -4.6294    -0.8833 </r>
       <r>   -39.5028   -29.2946    -6.3735 </r>
       <r>   -39.3154   268.6786    43.9811 </r>
       <r>   -39.1280   883.3867   209.5418 </r>
       <r>   -38.9406   285.6387   263.0750 </r>
       <r>   -38.7532   -33.1227   256.8673 </r>
       <r>   -38.5658    -4.5638   256.0120 </r>
       <r>   -38.3783    -0.0639   256.0000 </r>
       <r>   -38.1909    -0.0002   256.0000 </r>
       <r>   -38.0035    -0.0000   256.0000 </r>
       <r>   -37.8161    -0.0000   256.0000 </r>
       <r>   -37.6287     0.0000   256.0000 </r>
       <r>   -37.4413     0.0000   256.0000 </r>
       <r>   -37.2539     0.0000   256.0000 </r>
       <r>   -37.0664     0.0000   256.0000 </r>
       <r>   -36.8790     0.0000   256.0000 </r>
       <r>   -36.6916     0.0000   256.0000 </r>
       <r>   -36.5042     0.0000   256.0000 </r>
       <r>   -36.3168     0.0000   256.0000 </r>
       <r>   -36.1294     0.0000   256.0000 </r>
       <r>   -35.9419     0.0000   256.0000 </r>
       <r>   -35.7545     0.0000   256.0000 </r>
       <r>   -35.5671     0.0000   256.0000 </r>
       <r>   -35.3797     0.0000   256.0000 </r>
       <r>   -35.1923     0.0000   256.0000 </r>
       <r>   -35.0049     0.0000   256.0000 </r>
       <r>   -34.8174     0.0000   256.0000 </r>
       <r>   -34.6300     0.0000   256.0000 </r>
       <r>   -34.4426     0.0000   256.0000 </r>
       <r>   -34.2552     0.0000   256.0000 </r>
       <r>   -34.0678     0.0000   256.0000 </r>
       <r>   -33.8804     0.0000   256.0000 </r>
       <r>   -33.6929     0.0000   256.0000 </r>
       <r>   -33.5055     0.0000   256.0000 </r>
       <r>   -33.3181     0.0000   256.0000 </r>
       <r>   -33.1307     0.0000   256.0000 </r>
       <r>   -32.9433     0.0000   256.0000 </r>
       <r>   -32.7559     0.0000   256.0000 </r>
       <r>   -32.5685     0.0000   256.0000 </r>
       <r>   -32.3810     0.0000   256.0000 </r>
       <r>   -32.1936     0.0000   256.0000 </r>
       <r>   -32.0062     0.0000   256.0000 </r>
       <r>   -31.8188     0.0000   256.0000 </r>
       <r>   -31.6314     0.0000   256.0000 </r>
       <r>   -31.4440     0.0000   256.0000 </r>
       <r>   -31.2565     0.0000   256.0000 </r>
       <r>   -31.0691     0.0000   256.0000 </r>
       <r>   -30.8817     0.0000   256.0000 </r>
       <r>   -30.6943     0.0000   256.0000 </r>
       <r>   -30.5069     0.0000   256.0000 </r>
       <r>   -30.3195     0.0000   256.0000 </r>
       <r>   -30.1320     0.0000   256.0000 </r>
       <r>   -29.9446     0.0000   256.0000 </r>
       <r>   -29.7572     0.0000   256.0000 </r>
       <r>   -29.5698     0.0000   256.0000 </r>
       <r>   -29.3824     0.0000   256.0000 </r>
       <r>   -29.1950     0.0000   256.0000 </r>
       <r>   -29.0076     0.0000   256.0000 </r>
       <r>   -28.8201     0.0000   256.0000 </r>
       <r>   -28.6327     0.0000   256.0000 </r>
       <r>   -28.4453     0.0000   256.0000 </r>
       <r>   -28.2579     0.0000   256.0000 </r>
       <r>   -28.0705     0.0000   256.0000 </r>
       <r>   -27.8831     0.0000   256.0000 </r>
       <r>   -27.6956     0.0000   256.0000 </r>
       <r>   -27.5082     0.0000   256.0000 </r>
       <r>   -27.3208     0.0000   256.0000 </r>
       <r>   -27.1334     0.0000   256.0000 </r>
       <r>   -26.9460     0.0000   256.0000 </r>
       <r>   -26.7586     0.0000   256.0000 </r>
       <r>   -26.5711     0.0000   256.0000 </r>
       <r>   -26.3837     0.0000   256.0000 </r>
       <r>   -26.1963     0.0000   256.0000 </r>
       <r>   -26.0089     0.0000   256.0000 </r>
       <r>   -25.8215     0.0000   256.0000 </r>
       <r>   -25.6341     0.0000   256.0000 </r>
       <r>   -25.4467     0.0000   256.0000 </r>
       <r>   -25.2592     0.0000   256.0000 </r>
       <r>   -25.0718     0.0000   256.0000 </r>
       <r>   -24.8844     0.0000   256.0000 </r>
       <r>   -24.6970     0.0000   256.0000 </r>
       <r>   -24.5096     0.0000   256.0000 </r>
       <r>   -24.3222     0.0000   256.0000 </r>
       <r>   -24.1347     0.0000   256.0000 </r>
       <r>   -23.9473     0.0000   256.0000 </r>
       <r>   -23.7599     0.0000   256.0000 </r>
       <r>   -23.5725     0.0000   256.0000 </r>
       <r>   -23.3851     0.0000   256.0000 </r>
       <r>   -23.1977     0.0000   256.0000 </r>
       <r>   -23.0102     0.0000   256.0000 </r>
       <r>   -22.8228     0.0000   256.0000 </r>
       <r>   -22.6354     0.0000   256.0000 </r>
       <r>   -22.4480     0.0000   256.0000 </r>
       <r>   -22.2606     0.0000   256.0000 </r>
       <r>   -22.0732     0.0000   256.0000 </r>
       <r>   -21.8857     0.0000   256.0000 </r>
       <r>   -21.6983     0.0000   256.0000 </r>
       <r>   -21.5109     0.0000   256.0000 </r>
       <r>   -21.3235     0.0000   256.0000 </r>
       <r>   -21.1361     0.0000   256.0000 </r>
       <r>   -20.9487     0.0000   256.0000 </r>
       <r>   -20.7613     0.0000   256.0000 </r>
       <r>   -20.5738     0.0000   256.0000 </r>
       <r>   -20.3864     0.0000   256.0000 </r>
       <r>   -20.1990     0.0000   256.0000 </r>
       <r>   -20.0116     0.0000   256.0000 </r>
       <r>   -19.8242     0.0000   256.0000 </r>
       <r>   -19.6368    -0.0000   256.0000 </r>
       <r>   -19.4493    -0.0000   256.0000 </r>
       <r>   -19.2619    -0.0000   256.0000 </r>
       <r>   -19.0745    -0.0000   256.0000 </r>
       <r>   -18.8871    -0.0000   256.0000 </r>
       <r>   -18.6997    -0.0000   256.0000 </r>
       <r>   -18.5123    -0.0048   255.9991 </r>
       <r>   -18.3248    -0.5620   255.8938 </r>
       <r>   -18.1374   -10.3256   253.9586 </r>
       <r>   -17.9500    15.2561   256.8178 </r>
       <r>   -17.7626   384.2182   328.8264 </r>
       <r>   -17.5752   666.1064   453.6653 </r>
       <r>   -17.3878   568.0254   560.1223 </r>
       <r>   -17.2004   740.5738   698.9176 </r>
       <r>   -17.0129   936.2149   874.3791 </r>
       <r>   -16.8255   737.5941  1012.6159 </r>
       <r>   -16.6381    86.0425  1028.7417 </r>
       <r>   -16.4507   -23.7312  1024.2941 </r>
       <r>   -16.2633    -1.5557  1024.0025 </r>
       <r>   -16.0759    -0.0133  1024.0000 </r>
       <r>   -15.8884    -0.0000  1024.0000 </r>
       <r>   -15.7010    -0.0000  1024.0000 </r>
       <r>   -15.5136    -0.0000  1024.0000 </r>
       <r>   -15.3262     0.0000  1024.0000 </r>
       <r>   -15.1388     0.0000  1024.0000 </r>
       <r>   -14.9514     0.0000  1024.0000 </r>
       <r>   -14.7639     0.0000  1024.0000 </r>
       <r>   -14.5765     0.0000  1024.0000 </r>
       <r>   -14.3891     0.0000  1024.0000 </r>
       <r>   -14.2017     0.0000  1024.0000 </r>
       <r>   -14.0143     0.0000  1024.0000 </r>
       <r>   -13.8269     0.0000  1024.0000 </r>
       <r>   -13.6395     0.0000  1024.0000 </r>
       <r>   -13.4520     0.0000  1024.0000 </r>
       <r>   -13.2646     0.0000  1024.0000 </r>
       <r>   -13.0772     0.0000  1024.0000 </r>
       <r>   -12.8898     0.0000  1024.0000 </r>
       <r>   -12.7024     0.0000  1024.0000 </r>
       <r>   -12.5150     0.0000  1024.0000 </r>
       <r>   -12.3275     0.0000  1024.0000 </r>
       <r>   -12.1401     0.0000  1024.0000 </r>
       <r>   -11.9527     0.0000  1024.0000 </r>
       <r>   -11.7653     0.0000  1024.0000 </r>
       <r>   -11.5779     0.0000  1024.0000 </r>
       <r>   -11.3905     0.0000  1024.0000 </r>
       <r>   -11.2030     0.0000  1024.0000 </r>
       <r>   -11.0156     0.0000  1024.0000 </r>
       <r>   -10.8282     0.0000  1024.0000 </r>
       <r>   -10.6408     0.0000  1024.0000 </r>
       <r>   -10.4534     0.0000  1024.0000 </r>
       <r>   -10.2660     0.0000  1024.0000 </r>
       <r>   -10.0785     0.0000  1024.0000 </r>
       <r>    -9.8911     0.0000  1024.0000 </r>
       <r>    -9.7037     0.0000  1024.0000 </r>
       <r>    -9.5163     0.0000  1024.0000 </r>
       <r>    -9.3289     0.0000  1024.0000 </r>
       <r>    -9.1415     0.0000  1024.0000 </r>
       <r>    -8.9541     0.0000  1024.0000 </r>
       <r>    -8.7666     0.0000  1024.0000 </r>
       <r>    -8.5792     0.0000  1024.0000 </r>
       <r>    -8.3918     0.0000  1024.0000 </r>
       <r>    -8.2044     0.0000  1024.0000 </r>
       <r>    -8.0170     0.0000  1024.0000 </r>
       <r>    -7.8296     0.0000  1024.0000 </r>
       <r>    -7.6421     0.0000  1024.0000 </r>
       <r>    -7.4547     0.0000  1024.0000 </r>
       <r>    -7.2673     0.0000  1024.0000 </r>
       <r>    -7.0799     0.0000  1024.0000 </r>
       <r>    -6.8925     0.0000  1024.0000 </r>
       <r>    -6.7051     0.0000  1024.0000 </r>
       <r>    -6.5176     0.0000  1024.0000 </r>
       <r>    -6.3302     0.0000  1024.0000 </r>
       <r>    -6.1428     0.0000  1024.0000 </r>
       <r>    -5.9554     0.0000  1024.0000 </r>
       <r>    -5.7680     0.0000  1024.0000 </r>
       <r>    -5.5806     0.0000  1024.0000 </r>
       <r>    -5.3932     0.0000  1024.0000 </r>
       <r>    -5.2057     0.0000  1024.0000 </r>
       <r>    -5.0183     0.0000  1024.0000 </r>
       <r>    -4.8309     0.0000  1024.0000 </r>
       <r>    -4.6435     0.0000  1024.0000 </r>
       <r>    -4.4561     0.0000  1024.0000 </r>
       <r>    -4.2687     0.0000  1024.0000 </r>
       <r>    -4.0812     0.0000  1024.0000 </r>
       <r>    -3.8938     0.0000  1024.0000 </r>
       <r>    -3.7064     0.0000  1024.0000 </r>
       <r>    -3.5190     0.0000  1024.0000 </r>
       <r>    -3.3316     0.0000  1024.0000 </r>
       <r>    -3.1442     0.0000  1024.0000 </r>
       <r>    -2.9567     0.0000  1024.0000 </r>
       <r>    -2.7693     0.0000  1024.0000 </r>
       <r>    -2.5819     0.0000  1024.0000 </r>
       <r>    -2.3945     0.0000  1024.0000 </r>
       <r>    -2.2071     0.0000  1024.0000 </r>
       <r>    -2.0197     0.0000  1024.0000 </r>
       <r>    -1.8323     0.0000  1024.0000 </r>
       <r>    -1.6448     0.0000  1024.0000 </r>
       <r>    -1.4574     0.0000  1024.0000 </r>
       <r>    -1.2700     0.0000  1024.0000 </r>
       <r>    -1.0826     0.0000  1024.0000 </r>
       <r>    -0.8952     0.0000  1024.0000 </r>
       <r>    -0.7078     0.0000  1024.0000 </r>
       <r>    -0.5203     0.0000  1024.0000 </r>
       <r>    -0.3329     0.0000  1024.0000 </r>
       <r>    -0.1455     0.0000  1024.0000 </r>
       <r>     0.0419     0.0000  1024.0000 </r>
       <r>     0.2293     0.0000  1024.0000 </r>
       <r>     0.4167     0.0000  1024.0000 </r>
       <r>     0.6042     0.0000  1024.0000 </r>
       <r>     0.7916     0.0000  1024.0000 </r>
       <r>     0.9790     0.0000  1024.0000 </r>
       <r>     1.1664     0.0000  1024.0000 </r>
       <r>     1.3538     0.0000  1024.0000 </r>
       <r>     1.5412     0.0000  1024.0000 </r>
       <r>     1.7287     0.0000  1024.0000 </r>
       <r>     1.9161    -0.0000  1024.0000 </r>
       <r>     2.1035    -0.0000  1024.0000 </r>
       <r>     2.2909    -0.0000  1024.0000 </r>
       <r>     2.4783    -0.0000  1024.0000 </r>
       <r>     2.6657    -0.0000  1024.0000 </r>
       <r>     2.8531    -0.0000  1024.0000 </r>
       <r>     3.0406    -0.0001  1024.0000 </r>
       <r>     3.2280    -0.0057  1023.9989 </r>
       <r>     3.4154    -0.0474  1023.9900 </r>
       <r>     3.6028     0.2292  1024.0330 </r>
       <r>     3.7902     1.2028  1024.2584 </r>
       <r>     3.9776     4.8800  1025.1730 </r>
       <r>     4.1651     9.2380  1026.9043 </r>
       <r>     4.3525    11.3799  1029.0371 </r>
       <r>     4.5399     7.7084  1030.4818 </r>
       <r>     4.7273     6.4769  1031.6957 </r>
       <r>     4.9147    20.5234  1035.5421 </r>
       <r>     5.1021    29.2243  1041.0192 </r>
       <r>     5.2896    18.0071  1044.3940 </r>
       <r>     5.4770     9.6697  1046.2062 </r>
       <r>     5.6644    21.2008  1050.1796 </r>
       <r>     5.8518    34.8400  1056.7092 </r>
       <r>     6.0392    49.4562  1065.9781 </r>
       <r>     6.2266    70.8900  1079.2640 </r>
       <r>     6.4140   100.2147  1098.0458 </r>
       <r>     6.6015   110.4257  1118.7413 </r>
       <r>     6.7889   134.2013  1143.8928 </r>
       <r>     6.9763   171.8304  1176.0965 </r>
       <r>     7.1637   138.3257  1202.0210 </r>
       <r>     7.3511   252.1244  1249.2731 </r>
       <r>     7.5385   149.2171  1277.2387 </r>
       <r>     7.7260    47.0346  1286.0538 </r>
       <r>     7.9134    94.3606  1303.7384 </r>
       <r>     8.1008    82.0326  1319.1127 </r>
       <r>     8.2882   148.3722  1346.9200 </r>
       <r>     8.4756   314.6825  1405.8965 </r>
       <r>     8.6630   289.7761  1460.2051 </r>
       <r>     8.8505   206.0392  1498.8201 </r>
       <r>     9.0379   195.0585  1535.3772 </r>
       <r>     9.2253   260.1912  1584.1411 </r>
       <r>     9.4127   270.3794  1634.8145 </r>
       <r>     9.6001   232.2782  1678.3472 </r>
       <r>     9.7875   155.3451  1707.4613 </r>
       <r>     9.9749   149.8213  1735.5402 </r>
       <r>    10.1624    88.7102  1752.1659 </r>
       <r>    10.3498    49.8758  1761.5134 </r>
       <r>    10.5372    66.0964  1773.9009 </r>
       <r>    10.7246    47.6963  1782.8400 </r>
       <r>    10.9120    24.6620  1787.4620 </r>
       <r>    11.0994    76.4254  1801.7853 </r>
       <r>    11.2869   133.7743  1826.8568 </r>
       <r>    11.4743    72.8178  1840.5040 </r>
       <r>    11.6617    24.8136  1845.1544 </r>
       <r>    11.8491    14.7890  1847.9261 </r>
       <r>    12.0365     0.9062  1848.0960 </r>
       <r>    12.2239    -0.4915  1848.0039 </r>
       <r>    12.4114    -0.0205  1848.0000 </r>
       <r>    12.5988    -0.0001  1848.0000 </r>
       <r>    12.7862    -0.0000  1848.0000 </r>
       <r>    12.9736    -0.0000  1848.0000 </r>
       <r>    13.1610     0.0000  1848.0000 </r>
       <r>    13.3484     0.0000  1848.0000 </r>
       <r>    13.5359     0.0000  1848.0000 </r>
       <r>    13.7233     0.0000  1848.0000 </r>
       <r>    13.9107     0.0000  1848.0000 </r>
       <r>    14.0981     0.0000  1848.0000 </r>
       <r>    14.2855     0.0000  1848.0000 </r>
      </set>
     </set>
    </array>
   </total>
  </dos>
 </calculation>
 <structure name="finalpos" >
  <crystal>
   <varray name="basis" >
    <v>      14.25568735      -0.00000059      -0.00000059 </v>
    <v>      -0.00000060      14.25568680      -0.00000004 </v>
    <v>      -0.00000057      -0.00000004      14.25568705 </v>
   </varray>
   <i name="volume">   2897.10649710 </i>
   <varray name="rec_basis" >
    <v>       0.07014744       0.00000000       0.00000000 </v>
    <v>       0.00000000       0.07014744       0.00000000 </v>
    <v>       0.00000000       0.00000000       0.07014744 </v>
   </varray>
  </crystal>
  <varray name="positions" >
   <v>       0.37500001       0.87499999       0.87499998 </v>
   <v>       0.49999999       0.25000001       0.75000000 </v>
   <v>       0.25000004       0.25000011       0.25000000 </v>
   <v>       0.62499993       0.37499999       0.12499998 </v>
   <v>       0.00000003       1.00000000       0.75000001 </v>
   <v>       0.25000002       1.00000000       0.25000002 </v>
   <v>       0.12500006       0.37500003       0.12500002 </v>
   <v>       0.62499997       0.87499997       0.37499997 </v>
   <v>       0.74999995       0.74999998       0.00000001 </v>
   <v>       0.50000002       0.99999998       0.99999998 </v>
   <v>       0.00000003       0.50000000       0.25000000 </v>
   <v>       0.12500006       0.62499998       0.12500000 </v>
   <v>       0.62499994       0.12500000       0.37499995 </v>
   <v>       0.37500006       0.12500002       0.37499999 </v>
   <v>       0.50000000       0.25000002       0.99999999 </v>
   <v>       0.50000000       0.74999996       0.99999998 </v>
   <v>       0.99999998       0.74999998       0.99999999 </v>
   <v>       0.50000002       0.50000000       0.50000001 </v>
   <v>       0.37500001       0.37500004       0.12500003 </v>
   <v>       0.62499995       0.12500006       0.87500002 </v>
   <v>       0.25000003       0.25000007       0.00000002 </v>
   <v>       0.12500008       0.87500000       0.62500001 </v>
   <v>       0.99999996       0.74999998       0.25000000 </v>
   <v>       0.74999996       0.99999999       0.49999994 </v>
   <v>       0.74999996       1.00000000       0.75000004 </v>
   <v>       0.87500000       0.12499998       0.37499997 </v>
   <v>       0.99999997       0.00000000       0.00000002 </v>
   <v>       0.25000006       0.99999998       0.99999995 </v>
   <v>       0.87499996       0.12500007       0.87500003 </v>
   <v>       0.62500000       0.37500007       0.62500003 </v>
   <v>       0.49999998       0.25000003       0.25000001 </v>
   <v>       0.74999998       0.25000004       0.50000001 </v>
   <v>       0.62499998       0.62499993       0.62499999 </v>
   <v>       0.12500001       0.62500004       0.62500004 </v>
   <v>       0.99999994       0.00000001       0.25000000 </v>
   <v>       0.25000006       1.00000000       0.50000008 </v>
   <v>       0.87499996       0.62500002       0.37500000 </v>
   <v>       0.25000007       0.74999994       0.24999999 </v>
   <v>       0.37500007       0.37500002       0.87500003 </v>
   <v>       0.25000009       0.75000002       0.75000001 </v>
   <v>       0.74999994       0.50000001       0.50000004 </v>
   <v>       0.87500000       0.12500006       0.62500000 </v>
   <v>       0.87499994       0.37500001       0.87499996 </v>
   <v>       0.74999995       0.24999995       0.24999999 </v>
   <v>       0.25000007       0.99999999       0.74999995 </v>
   <v>       0.12500001       0.87499997       0.37500001 </v>
   <v>       0.25000006       0.75000002       0.50000003 </v>
   <v>       0.12500005       0.12499996       0.62500000 </v>
   <v>       0.00000003       0.25000000       0.25000000 </v>
   <v>       0.00000002       0.50000000       0.99999999 </v>
   <v>       0.99999999       0.74999998       0.49999998 </v>
   <v>       0.37500003       0.62500001       0.87500002 </v>
   <v>       0.49999998       0.75000000       0.75000002 </v>
   <v>       0.62499993       0.37500005       0.37500003 </v>
   <v>       0.62499995       0.87500000       0.12500003 </v>
   <v>       0.12500001       0.12500002       0.37500001 </v>
   <v>       0.25000004       0.50000002       0.75000004 </v>
   <v>       0.25000008       0.49999999       0.00000004 </v>
   <v>       0.99999996       0.50000000       0.75000002 </v>
   <v>       0.37500006       0.87499995       0.12499998 </v>
   <v>       0.74999999       0.00000000       0.25000000 </v>
   <v>       0.87499999       0.37500000       0.12499996 </v>
   <v>       0.62499994       0.62500000       0.12500000 </v>
   <v>       0.37500004       0.62499998       0.37499997 </v>
   <v>       0.62499994       0.62499994       0.87499997 </v>
   <v>       0.74999996       0.49999999       0.74999998 </v>
   <v>       0.74999996       0.00000001       0.00000002 </v>
   <v>       0.62499992       0.87499996       0.62499998 </v>
   <v>       0.25000007       0.49999999       0.49999995 </v>
   <v>       0.00000002       0.00000002       0.49999998 </v>
   <v>       0.12500004       0.37500001       0.37499993 </v>
   <v>       0.87499998       0.37500003       0.37500003 </v>
   <v>       0.25000007       0.24999996       0.74999999 </v>
   <v>       0.25000003       0.25000000       0.49999999 </v>
   <v>       0.74999997       0.50000006       0.25000001 </v>
   <v>       0.37500002       0.62499997       0.12500000 </v>
   <v>       0.50000001       0.74999997       0.24999998 </v>
   <v>       0.87499999       0.62500001       0.12500002 </v>
   <v>       0.37500004       0.87499997       0.37500002 </v>
   <v>       0.50000005       1.00000000       0.24999999 </v>
   <v>       0.74999996       0.74999999       0.24999999 </v>
   <v>       0.50000003       0.50000002       0.75000002 </v>
   <v>       0.99999998       0.49999999       0.50000000 </v>
   <v>       0.87499997       0.12500001       0.12500001 </v>
   <v>       0.00000001       0.74999998       0.75000001 </v>
   <v>       0.87499999       0.62499995       0.87499998 </v>
   <v>       0.37500007       0.62500002       0.62500001 </v>
   <v>       0.74999997       0.24999998       0.99999997 </v>
   <v>       0.37500002       0.12499997       0.62500004 </v>
   <v>       0.99999998       0.25000003       0.75000000 </v>
   <v>       0.62499995       0.12500000       0.12499999 </v>
   <v>       0.49999994       0.99999997       0.75000001 </v>
   <v>       0.49999996       0.99999998       0.50000002 </v>
   <v>       0.87500000       0.87499996       0.62499998 </v>
   <v>       0.87499999       0.87499999       0.12500004 </v>
   <v>       0.87499993       0.37500005       0.62500005 </v>
   <v>       0.74999993       0.74999995       0.75000002 </v>
   <v>       0.37500005       0.37500003       0.37499993 </v>
   <v>       0.12500000       0.37500004       0.87500003 </v>
   <v>       0.87499997       0.87499997       0.37499997 </v>
   <v>       0.62499991       0.87499999       0.87500002 </v>
   <v>       0.87500001       0.87499998       0.87500002 </v>
   <v>       0.62499994       0.12500004       0.62500004 </v>
   <v>       0.49999996       0.50000004       0.00000000 </v>
   <v>       0.12499997       0.37500000       0.62500002 </v>
   <v>       0.74999994       0.50000003       0.99999997 </v>
   <v>       0.87499995       0.62499993       0.62500000 </v>
   <v>       0.49999998       0.25000004       0.50000000 </v>
   <v>       0.12500003       0.62500001       0.37499996 </v>
   <v>       0.49999999       0.74999999       0.50000003 </v>
   <v>       0.62500000       0.37500001       0.87499996 </v>
   <v>       0.25000007       0.74999996       0.99999997 </v>
   <v>       0.37500000       0.87500001       0.62500003 </v>
   <v>       0.12500001       0.87499996       0.12499999 </v>
   <v>       0.25000005       0.49999995       0.24999997 </v>
   <v>       0.74999996       0.25000007       0.75000002 </v>
   <v>       0.37500011       0.37500002       0.62500001 </v>
   <v>       0.12500006       0.87499996       0.87499998 </v>
   <v>       0.49999994       0.50000001       0.24999998 </v>
   <v>       0.00000002       0.25000001       0.50000000 </v>
   <v>       0.62499996       0.62499999       0.37500003 </v>
   <v>       0.37500005       0.12499997       0.87499997 </v>
   <v>       0.37500008       0.12500003       0.12500001 </v>
   <v>       0.74999996       0.74999996       0.49999998 </v>
   <v>       1.00000000       0.25000001       1.00000000 </v>
   <v>       0.12500000       0.12500003       0.12500000 </v>
   <v>       0.12500004       0.12500000       0.87499997 </v>
   <v>       0.12500004       0.62500000       0.87500000 </v>
  </varray>
 </structure>
</modeling>
